LAMMPS data file via write_data, version 29 Aug 2024, timestep = 29, units = metal

500 atoms
3 atom types

0 17.589214126329054 xlo xhi
0 17.589214126329054 ylo yhi
0 17.589214126329054 zlo zhi

Masses

1 55.9796
2 55.845
3 55.845

Atoms # atomic

1 2 0.000601687301124117 0.0006016873011245788 3.662956796133778e-18 0 0 0
2 3 1.7583197253317817 1.7583197253317835 2.362541238407398e-16 0 0 0
3 1 1.7568908437695838 0.0020305688633227305 1.7547294886013176 0 0 0
4 1 0.0020305688633242714 1.7568908437695845 1.7547294886013163 0 0 0
5 1 3.5132278664523295 0.002017859126812584 9.570727622418402e-16 0 0 0
8 1 3.517076519065181 1.759735995308467 1.7580139754254585 0 0 0
21 1 0.0020178591268127173 3.5132278664523287 3.0066789233090434e-18 0 0 0
23 1 1.7597359953084661 3.5170765190651805 1.758013975425458 0 0 0
25 1 3.513659894781018 3.5136598947810165 1.3484608138547917e-18 0 0 0
52 1 1.7595952078688781 1.7595952078688797 3.5156788429942893 0 0 0
53 1 1.758487161814887 0.0004342508180170876 5.275852976541916 0 0 0
54 1 0.00043425081801873707 1.7584871618148876 5.275852976541916 0 0 0
58 1 3.5173968600606904 1.7586102153317833 5.276061306146711 0 0 0
73 1 1.7586102153317822 3.5173968600606895 5.276061306146711 0 0 0
75 1 3.5190212492753146 3.5190212492753132 3.5191356796297257 0 0 0
6 1 5.273493097807802 1.7585768914285569 5.4584258575904835e-18 0 0 0
9 1 7.035252821385625 0.0004422399448136112 9.211594642036053e-16 0 0 0
12 1 7.035062475557688 1.758875940356629 1.7584475111853262 0 0 0
27 1 5.277410907426737 3.5185875101042012 1.7593481559118005 0 0 0
29 1 7.03516475145329 3.5172333748569606 3.658484815593621e-18 0 0 0
56 1 5.2739770884982615 1.7586231641084151 3.51526934758848 0 0 0
57 1 5.275888058588158 0.00030877903557870607 5.275679341369711 0 0 0
59 1 7.03538075669968 0.00030771887389541584 3.517609549449059 0 0 0
62 1 7.034781577834062 1.7587752030321875 5.275856800611138 0 0 0
77 1 5.2768428084547905 3.517479341837075 5.276638316242759 0 0 0
79 1 7.035290179462836 3.5174220579713196 3.5177314157673276 0 0 0
11 1 8.79441843091267 7.249364071079547e-05 1.7588038616764905 0 0 0
31 1 8.79442695255526 3.517670871955438 1.7588336105113695 0 0 0
60 1 8.79451475336577 1.7588987681341173 3.517509480202112 0 0 0
61 1 8.794507119506655 0.00014066832927000724 5.276493994419316 0 0 0
81 1 8.794519849201926 3.517581553799213 5.276560544874803 0 0 0
10 1 8.794620103092793 1.758880291863574 6.1060806203531e-16 0 0 0
13 1 10.553515435869167 4.112076933209935e-05 6.514720079279684e-16 0 0 0
14 1 12.312882717576334 1.7584791726880946 2.2523279870689953e-17 0 0 0
15 1 12.313073063404273 4.547227627587722e-05 1.7584475111853262 0 0 0
16 1 10.553717108049291 1.758848918992196 1.7588038616764905 0 0 0
33 1 10.55362951921746 3.517561266247357 2.85831531669696e-16 0 0 0
35 1 12.312865616804995 3.5177512852364083 1.7585344011397068 0 0 0
63 1 10.553620785596193 2.2644498789570497e-05 3.5175094802021123 0 0 0
64 1 12.312754782262282 1.7586136937590104 3.517609549449059 0 0 0
65 1 12.313353961127898 0.0001462096007186378 5.275856800611138 0 0 0
66 1 10.553628419455308 1.7587807443036367 5.276493994419316 0 0 0
83 1 10.553739628355713 3.517685565034818 3.5175970496990874 0 0 0
85 1 12.312513332103777 3.517619870415564 5.276703192658457 0 0 0
71 1 17.588540644697098 3.5157953320702027 3.5158999472824655 -1 0 0
17 1 14.07464244115416 0.0003445212043511332 3.49028493574976e-16 0 0 0
18 1 15.834907672509631 1.7569035535060942 2.351285108681615e-18 0 0 0
20 1 14.070996052402228 1.7595754382006723 1.7592018447205193 0 0 0
37 1 14.074504370939211 3.5147149013435985 2.595631059895853e-16 0 0 0
39 1 15.828941753605083 3.5191937853568755 1.7601884007664235 0 0 0
67 1 14.074158450463699 0.0002982485244922295 3.5152693475884793 0 0 0
68 1 15.832340206891757 1.7595948942648654 3.515899947282465 0 0 0
69 1 15.830738678901271 0.0003111973011232417 5.276061306146712 0 0 0
70 1 14.072247480373804 1.7586126335973293 5.275679341369712 0 0 0
87 1 14.071203515270303 3.517940608051332 3.5182238830637695 0 0 0
89 1 15.830639071391877 3.5174964675700826 5.276291121572142 0 0 0
22 1 1.7585768914285553 5.273493097807803 1.1474840212272125e-18 0 0 0
28 1 3.518587510104202 5.277410907426738 1.7593481559118 0 0 0
41 1 0.0004422399448138496 7.035252821385624 1.0556421872422984e-15 0 0 0
42 1 1.7588759403566276 7.0350624755576865 1.7584475111853248 0 0 0
43 1 3.5172333748569624 7.03516475145329 3.186321337792824e-16 0 0 0
72 1 1.758623164108414 5.273977088498263 3.51526934758848 0 0 0
74 1 0.00030877903557848603 5.275888058588158 5.275679341369711 0 0 0
78 1 3.517479341837076 5.276842808454791 5.27663831624276 0 0 0
91 1 0.00030771887389643445 7.035380756699678 3.5176095494490585 0 0 0
92 1 1.7587752030321877 7.034781577834061 5.275856800611138 0 0 0
93 1 3.5174220579713205 7.035290179462836 3.5177314157673276 0 0 0
252 1 7.249364071239412e-05 8.79441843091267 1.7588038616764905 0 0 0
254 1 3.517670871955439 8.794426952555261 1.7588336105113707 0 0 0
301 1 1.758898768134117 8.794514753365771 3.5175094802021123 0 0 0
302 1 0.00014066832927001218 8.794507119506655 5.276493994419315 0 0 0
304 1 3.5175815537992143 8.794519849201926 5.276560544874803 0 0 0
26 1 5.273397639415542 5.273397639415543 9.104027981165436e-16 0 0 0
32 1 7.035403456336026 5.276682809178025 1.7584910691644655 0 0 0
44 1 5.276682809178023 7.035403456336026 1.7584910691644653 0 0 0
45 1 7.034623352854464 7.034623352854464 1.6866932380630728e-16 0 0 0
76 1 5.277304550212225 5.277304550212226 3.5182502213600784 0 0 0
82 1 7.035775607237265 5.276656495423898 5.276801885953686 0 0 0
94 1 5.2766564954238975 7.035775607237264 5.276801885953686 0 0 0
95 1 7.035775696396129 7.035775696396128 3.517677502630315 0 0 0
30 1 8.794524402342192 5.2763804243244365 3.9126464776153803e-16 0 0 0
46 1 8.794525717228208 7.035523499485725 1.7586472449352448 0 0 0
80 1 8.794419519210473 5.276530619182903 3.517603453305122 0 0 0
253 1 5.2763804243244365 8.794524402342192 3.3846067434226702e-18 0 0 0
256 1 7.035523499485726 8.79452571722821 1.7586472449352444 0 0 0
303 1 5.276530619182902 8.794419519210475 3.517603453305122 0 0 0
255 1 8.794341311294136 8.794341311294138 1.8657196182824614e-18 0 0 0
34 1 12.313401820734118 5.275683509601885 3.733541534812687e-18 0 0 0
36 1 10.55364122224849 5.276540040852835 1.7587511018024464 0 0 0
47 1 10.553823508154291 7.0352312318354215 2.0002667061393696e-18 0 0 0
48 1 12.312685312353166 7.035450226608794 1.7586301958430368 0 0 0
84 1 12.3126199983425 5.27667447836507 3.5176247534300953 0 0 0
86 1 10.553544420214264 5.276583957727187 5.276600907745882 0 0 0
96 1 8.794628651782887 7.035613542224974 5.2766523786593575 0 0 0
97 1 10.553543111397369 7.035569972677477 3.5176066087771205 0 0 0
98 1 12.312514940112397 7.035620598849564 5.276654681059336 0 0 0
257 1 12.31290430712654 8.794312030807669 3.2205439457052293e-17 0 0 0
258 1 10.5536042200844 8.79453131887756 1.7586472057830254 0 0 0
307 1 12.312565566284485 8.794592427564593 3.517606608777121 0 0 0
308 1 10.553560507398425 8.794575031563538 5.276627023173679 0 0 0
100 1 15.830515668546395 7.035622206858185 5.276703192658456 0 0 0
99 1 14.071461060596892 7.0355155406194605 3.5176247534300957 0 0 0
90 1 14.071402933202357 5.276732605759604 5.276869699339313 0 0 0
88 1 15.83019493091063 5.276932023691659 3.51822388306377 0 0 0
24 1 17.588560100761292 5.277139486559735 1.7592018447205189 -1 0 0
38 1 15.83342063761836 5.2736311680227494 1.8687478562192304e-16 0 0 0
40 1 14.071659842885698 5.2764756960762655 1.7582781169778712 0 0 0
49 1 14.072452029360077 7.034733718227842 3.511977986593877e-18 0 0 0
50 1 15.830384253725551 7.035269922156964 1.7585344011397062 0 0 0
259 1 15.830574272714603 8.794506019744503 3.510016006114021e-16 0 0 0
260 1 14.071595498109126 8.79449431671347 1.7587511018024464 0 0 0
309 1 15.830449973927141 8.794395910606248 3.517597049699088 0 0 0
310 1 14.071551581234774 8.794591118747697 5.276600907745883 0 0 0
101 1 6.74363456915467e-05 6.743634569055795e-05 7.035502423562848 0 0 0
102 1 1.7588539762872164 1.7588539762872162 7.035502423562849 0 0 0
103 1 1.7588667808041196 5.4631828787071286e-05 8.794607063164529 0 0 0
104 1 5.463182878695195e-05 1.758866780804121 8.794607063164529 0 0 0
105 1 3.517532950227041 7.697948281938366e-05 7.035387260582574 0 0 0
108 1 3.5176747757507583 1.7588970311652492 8.794607063164529 0 0 0
121 1 7.697948281847705e-05 3.5175329502270407 7.0353872605825725 0 0 0
123 1 1.7588970311652483 3.5176747757507583 8.794607063164529 0 0 0
125 1 3.517636774579722 3.517636774579721 7.035276672469778 0 0 0
151 1 6.7436345690186e-05 6.743634569105806e-05 10.553711702766204 0 0 0
152 1 1.7588539762872148 1.7588539762872157 10.553711702766204 0 0 0
153 1 3.5175329502270407 7.697948281815946e-05 10.55382686574648 0 0 0
161 1 7.697948281899771e-05 3.5175329502270407 10.55382686574648 0 0 0
163 1 3.5176367745797212 3.517636774579721 10.553937453859275 0 0 0
106 1 5.276415525366799 1.7587738640655606 7.0354720536116035 0 0 0
107 1 5.276463565572278 3.086630258855216e-05 8.794607063164529 0 0 0
109 1 7.035277328523755 0.00014268529682206064 7.035295628364554 0 0 0
112 1 7.035434761696114 1.7587774810346566 8.794607063164529 0 0 0
127 1 5.2765313879536695 3.5176890690568827 8.794607063164529 0 0 0
129 1 7.0355899780479945 3.5175824827677236 7.0356035457349835 0 0 0
154 1 5.276415525366799 1.7587738640655606 10.55374207271745 0 0 0
155 1 7.035277328523754 0.0001426852968234814 10.5539184979645 0 0 0
165 1 7.0355899780479945 3.5175824827677236 10.55361058059407 0 0 0
110 1 8.794335004168499 1.7587798221375504 7.03535473055581 0 0 0
111 1 8.794520823839582 0.00014001678242264512 8.794607063164529 0 0 0
131 1 8.794554624077028 3.5175747324438325 8.794607063164529 0 0 0
156 1 8.7943350041685 1.7587798221375508 10.553859395773241 0 0 0
113 1 10.55380053479346 0.00014159049535552678 7.035354730555811 0 0 0
114 1 12.312858210438208 1.7587787273360844 7.035295628364555 0 0 0
115 1 12.312700777265848 0.00014393159825071538 8.794607063164529 0 0 0
116 1 10.553614715122379 1.758781395850484 8.794607063164529 0 0 0
133 1 10.553546318947214 3.5175818442997717 7.035621679676609 0 0 0
135 1 12.312653395164398 3.5175730109733387 8.794607063164529 0 0 0
157 1 10.55380053479346 0.00014159049535749957 10.553859395773241 0 0 0
158 1 12.312858210438206 1.7587787273360838 10.5539184979645 0 0 0
167 1 10.553546318947214 3.5175818442997713 10.553592446652443 0 0 0
117 1 14.071720013595163 0.00014754856734605325 7.035472053611604 0 0 0
118 1 15.830602588734921 1.7588444331500876 7.035387260582573 0 0 0
119 1 15.830460763211203 2.438146765744087e-05 8.794607063164529 0 0 0
120 1 14.071671973389682 1.7588905463303162 8.794607063164529 0 0 0
137 1 14.071635196657013 3.5175531574154073 7.035364173121816 0 0 0
139 1 15.830446170250188 3.517689368711775 8.794607063164529 0 0 0
159 1 14.071720013595161 0.00014754856734600362 10.55374207271745 0 0 0
160 1 15.830602588734921 1.758844433150088 10.55382686574648 0 0 0
169 1 14.071635196657013 3.5175531574154077 10.553849953207239 0 0 0
122 1 1.75877386406556 5.2764155253668 7.035472053611604 0 0 0
124 1 3.0866302589960845e-05 5.276463565572277 8.794607063164529 0 0 0
128 1 3.517689069056884 5.2765313879536695 8.794607063164529 0 0 0
141 1 0.00014268529682376363 7.035277328523754 7.035295628364555 0 0 0
142 1 1.7587774810346555 7.035434761696113 8.794607063164527 0 0 0
143 1 3.517582482767724 7.0355899780479945 7.0356035457349835 0 0 0
162 1 1.7587738640655597 5.276415525366799 10.55374207271745 0 0 0
171 1 0.00014268529682289624 7.035277328523755 10.5539184979645 0 0 0
172 1 3.5175824827677244 7.035589978047994 10.55361058059407 0 0 0
351 1 1.7587798221375504 8.794335004168499 7.035354730555812 0 0 0
352 1 0.000140016782423148 8.794520823839582 8.794607063164529 0 0 0
354 1 3.5175747324438325 8.79455462407703 8.794607063164529 0 0 0
401 1 1.7587798221375495 8.7943350041685 10.553859395773243 0 0 0
126 1 5.27658662549631 5.276586625496311 7.0355021507367645 0 0 0
132 1 7.03555886502753 5.276573457971978 8.794607063164529 0 0 0
144 1 5.276573457971977 7.03555886502753 8.794607063164529 0 0 0
145 1 7.035617030125261 7.03561703012526 7.035675831990191 0 0 0
164 1 5.27658662549631 5.276586625496311 10.55371197559229 0 0 0
173 1 7.03561703012526 7.03561703012526 10.55353829433886 0 0 0
146 1 8.794594883788863 7.035581843614389 8.794607063164529 0 0 0
356 1 7.0355818436143895 8.794594883788864 8.794607063164529 0 0 0
355 1 8.7945848481298 8.7945848481298 7.035630679506009 0 0 0
403 1 8.7945848481298 8.794584848129801 10.553583446823044 0 0 0
130 1 8.794628528903925 5.276575576581227 7.035672224889808 0 0 0
134 1 12.31252173922875 5.2765799545998 7.035688273099356 0 0 0
136 1 10.55357521853391 5.276559290440015 8.794607063164529 0 0 0
147 1 10.553571773038572 7.035579363738245 7.035635549263866 0 0 0
148 1 12.31256341556211 7.035572123399851 8.794607063164527 0 0 0
166 1 8.794628528903925 5.276575576581226 10.553541901439244 0 0 0
168 1 12.31252173922875 5.276579954599799 10.553525853229695 0 0 0
174 1 10.553571773038572 7.035579363738245 10.553578577065188 0 0 0
357 1 12.312556175223717 8.794563765923389 7.035635549263866 0 0 0
358 1 10.553568635927654 8.794566903034307 8.794607063164529 0 0 0
404 1 12.312556175223717 8.794563765923389 10.553578577065188 0 0 0
138 1 15.830582381546552 5.276500342304948 7.035364173121816 0 0 0
140 1 14.071624236385077 5.276511302576883 8.794607063164529 0 0 0
149 1 14.07155558436216 7.035613799733211 7.035688273099356 0 0 0
150 1 15.830562527988622 7.035482143797562 8.794607063164529 0 0 0
170 1 15.830582381546552 5.276500342304948 10.553849953207237 0 0 0
175 1 14.07155558436216 7.035613799733212 10.553525853229695 0 0 0
359 1 15.830553694662187 8.794589220014748 7.035621679676609 0 0 0
360 1 14.071576248521946 8.794560320428051 8.794607063164529 0 0 0
405 1 15.830553694662187 8.794589220014746 10.553592446652443 0 0 0
176 1 1.758487161814888 0.000434250818019233 12.31336114978714 0 0 0
177 1 0.00043425081801808666 1.758487161814889 12.31336114978714 0 0 0
179 1 3.5173968600606895 1.7586102153317826 12.313152820182346 0 0 0
186 1 1.7586102153317829 3.51739686006069 12.313152820182346 0 0 0
202 1 1.759595207868879 1.7595952078688788 14.073535283334763 0 0 0
203 1 1.7568908437695827 0.002030568863321442 15.834484637727739 0 0 0
204 1 0.0020305688633231625 1.7568908437695838 15.83448463772774 0 0 0
208 1 3.5170765190651823 1.759735995308467 15.831200150903598 0 0 0
223 1 1.7597359953084657 3.517076519065181 15.831200150903598 0 0 0
225 1 3.5190212492753146 3.5190212492753137 14.070078446699329 0 0 0
178 1 5.275888058588158 0.00030877903557698116 12.313534784959343 0 0 0
181 1 7.034781577834061 1.7587752030321886 12.313357325717918 0 0 0
188 1 5.27684280845479 3.5174793418370753 12.312575810086297 0 0 0
206 1 5.273977088498262 1.7586231641084145 14.073944778740573 0 0 0
209 1 7.035380756699678 0.00030771887389634923 14.071604576879993 0 0 0
212 1 7.035062475557687 1.7588759403566299 15.83076661514373 0 0 0
227 1 5.277410907426738 3.518587510104201 15.829865970417258 0 0 0
229 1 7.035290179462838 3.5174220579713187 14.071482710561725 0 0 0
180 1 8.794507119506655 0.0001406683292704022 12.312720131909739 0 0 0
190 1 8.794519849201926 3.5175815537992134 12.312653581454253 0 0 0
210 1 8.79451475336577 1.7588987681341177 14.07170464612694 0 0 0
211 1 8.79441843091267 7.249364070954294e-05 15.830410264652565 0 0 0
231 1 8.79442695255526 3.517670871955438 15.830380515817685 0 0 0
182 1 12.313353961127898 0.00014620960071839864 12.313357325717918 0 0 0
183 1 10.553628419455306 1.758780744303637 12.312720131909739 0 0 0
192 1 12.312513332103777 3.5176198704155643 12.312510933670598 0 0 0
213 1 10.553620785596193 2.2644498789403503e-05 14.07170464612694 0 0 0
214 1 12.312754782262282 1.75861369375901 14.071604576879995 0 0 0
215 1 12.313073063404273 4.547227627771264e-05 15.83076661514373 0 0 0
216 1 10.553717108049291 1.758848918992196 15.830410264652565 0 0 0
233 1 10.553739628355713 3.5176855650348187 14.071617076629966 0 0 0
235 1 12.312865616804995 3.5177512852364083 15.83067972518935 0 0 0
221 1 17.588540644697094 3.515795332070203 14.073314179046587 -1 0 0
184 1 15.830738678901271 0.0003111973011244537 12.313152820182346 0 0 0
185 1 14.072247480373804 1.7586126335973293 12.313534784959344 0 0 0
194 1 15.830639071391877 3.517496467570083 12.312923004756914 0 0 0
217 1 14.074158450463697 0.0002982485244914802 14.073944778740572 0 0 0
218 1 15.832340206891756 1.7595948942648654 14.073314179046587 0 0 0
220 1 14.070996052402228 1.7595754382006712 15.830012281608537 0 0 0
237 1 14.071203515270303 3.5179406080513322 14.070990243265282 0 0 0
239 1 15.828941753605084 3.519193785356874 15.829025725562632 0 0 0
187 1 0.00030877903557769554 5.275888058588158 12.313534784959343 0 0 0
189 1 3.5174793418370762 5.2768428084547905 12.312575810086297 0 0 0
196 1 1.7587752030321873 7.034781577834062 12.313357325717918 0 0 0
222 1 1.758623164108414 5.273977088498263 14.073944778740572 0 0 0
228 1 3.518587510104202 5.277410907426739 15.829865970417256 0 0 0
241 1 0.00030771887389692033 7.035380756699679 14.071604576879993 0 0 0
242 1 1.7588759403566288 7.0350624755576865 15.830766615143729 0 0 0
243 1 3.5174220579713205 7.035290179462836 14.071482710561726 0 0 0
426 1 0.00014066832927140467 8.794507119506655 12.312720131909739 0 0 0
427 1 3.517581553799214 8.794519849201928 12.312653581454253 0 0 0
451 1 1.7588987681341164 8.79451475336577 14.07170464612694 0 0 0
452 1 7.249364071205923e-05 8.794418430912671 15.830410264652565 0 0 0
454 1 3.5176708719554397 8.79442695255526 15.830380515817685 0 0 0
191 1 7.035775607237264 5.276656495423898 12.312412240375371 0 0 0
197 1 5.276656495423898 7.035775607237263 12.312412240375371 0 0 0
226 1 5.277304550212225 5.277304550212225 14.070963904968975 0 0 0
232 1 7.035403456336027 5.276682809178024 15.83072305716459 0 0 0
244 1 5.276682809178023 7.035403456336026 15.83072305716459 0 0 0
245 1 7.035775696396129 7.035775696396128 14.071536623698737 0 0 0
230 1 8.794419519210473 5.276530619182903 14.071610673023931 0 0 0
246 1 8.794525717228208 7.035523499485724 15.830566881393812 0 0 0
453 1 5.276530619182902 8.794419519210475 14.071610673023933 0 0 0
456 1 7.035523499485725 8.79452571722821 15.830566881393812 0 0 0
193 1 10.553544420214264 5.276583957727188 12.312613218583174 0 0 0
198 1 8.794628651782887 7.035613542224975 12.312561747669701 0 0 0
199 1 12.312514940112395 7.0356205988495635 12.312559445269718 0 0 0
234 1 12.3126199983425 5.276674478365071 14.071589372898957 0 0 0
236 1 10.55364122224849 5.276540040852835 15.83046302452661 0 0 0
247 1 10.553543111397369 7.035569972677476 14.071607517551932 0 0 0
248 1 12.312685312353166 7.035450226608794 15.830583930486018 0 0 0
429 1 10.553560507398425 8.794575031563536 12.312587103155378 0 0 0
457 1 12.312565566284484 8.794592427564591 14.071607517551932 0 0 0
458 1 10.5536042200844 8.79453131887756 15.83056692054603 0 0 0
250 1 15.83038425372555 7.035269922156964 15.83067972518935 0 0 0
249 1 14.071461060596892 7.03551554061946 14.07158937289896 0 0 0
240 1 14.071659842885696 5.276475696076266 15.830936009351186 0 0 0
238 1 15.83019493091063 5.276932023691658 14.070990243265284 0 0 0
224 1 17.588560100761292 5.277139486559734 15.830012281608537 -1 0 0
195 1 14.071402933202357 5.276732605759604 12.312344426989744 0 0 0
200 1 15.830515668546397 7.035622206858184 12.312510933670598 0 0 0
430 1 14.071551581234774 8.794591118747697 12.312613218583174 0 0 0
459 1 15.830449973927143 8.79439591060625 14.071617076629968 0 0 0
460 1 14.071595498109126 8.79449431671347 15.83046302452661 0 0 0
251 1 1.7588802918635738 8.794620103092793 1.7646331528367266e-16 0 0 0
261 1 4.112076933298371e-05 10.553515435869166 4.24810005393545e-18 0 0 0
262 1 1.7584791726880944 12.312882717576336 6.061850136927899e-16 0 0 0
263 1 1.758848918992196 10.553717108049291 1.758803861676491 0 0 0
264 1 4.547227627863954e-05 12.313073063404275 1.7584475111853262 0 0 0
265 1 3.517561266247357 10.55362951921746 1.1159509314238053e-16 0 0 0
268 1 3.51775128523641 12.312865616804997 1.7585344011397053 0 0 0
311 1 2.264449879103313e-05 10.553620785596191 3.5175094802021127 0 0 0
312 1 1.758613693759009 12.312754782262283 3.517609549449059 0 0 0
313 1 1.7587807443036358 10.553628419455306 5.276493994419315 0 0 0
314 1 0.00014620960071877082 12.313353961127898 5.275856800611138 0 0 0
315 1 3.517685565034819 10.55373962835571 3.517597049699087 0 0 0
318 1 3.5176198704155643 12.312513332103778 5.2767031926584576 0 0 0
266 1 5.275683509601883 12.313401820734118 6.272884229417635e-19 0 0 0
267 1 5.276540040852835 10.553641222248492 1.758751101802447 0 0 0
269 1 7.0352312318354215 10.55382350815429 3.0569098361089558e-18 0 0 0
272 1 7.035450226608795 12.312685312353166 1.7586301958430377 0 0 0
306 1 7.035613542224975 8.794628651782887 5.2766523786593575 0 0 0
316 1 5.276674478365071 12.3126199983425 3.517624753430095 0 0 0
317 1 5.276583957727187 10.553544420214264 5.276600907745883 0 0 0
319 1 7.035569972677478 10.553543111397369 3.5176066087771205 0 0 0
322 1 7.035620598849564 12.312514940112395 5.276654681059336 0 0 0
270 1 8.794312030807669 12.31290430712654 3.691351912810473e-18 0 0 0
271 1 8.79453131887756 10.5536042200844 1.758647205783025 0 0 0
320 1 8.794592427564591 12.312565566284484 3.5176066087771214 0 0 0
321 1 8.794575031563536 10.553560507398425 5.27662702317368 0 0 0
273 1 10.553794227667822 10.553794227667822 2.595263827995475e-18 0 0 0
274 1 12.313512186107497 12.313512186107497 1.8693668008402845e-16 0 0 0
275 1 12.312612039476237 10.553609821733751 1.758647244935244 0 0 0
276 1 10.553609821733753 12.312612039476235 1.7586472449352444 0 0 0
305 1 8.79461806972205 8.79461806972205 3.517609293911057 0 0 0
323 1 10.55351746923991 10.55351746923991 3.5176092939110584 0 0 0
324 1 12.312359842565831 12.312359842565831 3.517677502630315 0 0 0
325 1 12.312521996736985 10.553506887179074 5.276652378659358 0 0 0
326 1 10.553506887179074 12.312521996736987 5.2766523786593575 0 0 0
277 1 14.071755114637524 10.553611136619768 7.640463502136688e-16 0 0 0
278 1 15.830902164104998 12.312970787508672 1.2309898395083265e-16 0 0 0
279 1 15.830464667006522 10.553708586406701 1.7588336105113698 0 0 0
280 1 14.071452729783935 12.312732082625933 1.7584910691644644 0 0 0
327 1 14.071604919779059 10.553716019751487 3.517603453305121 0 0 0
328 1 15.83071348099064 12.312845359499125 3.5177314157673285 0 0 0
329 1 15.830553985162748 10.553615689760033 5.276560544874804 0 0 0
330 1 14.071479043538062 12.312359931724698 5.276801885953685 0 0 0
281 1 0.00034452120435069693 14.07464244115416 1.0956475904580336e-15 0 0 0
282 1 1.756903553506094 15.834907672509631 7.106412213545372e-16 0 0 0
283 1 1.7595754382006707 14.070996052402228 1.7592018447205195 0 0 0
285 1 3.5147149013436 14.074504370939211 9.922641098932816e-16 0 0 0
288 1 3.5191937853568764 15.828941753605084 1.760188400766424 0 0 0
331 1 0.000298248524491168 14.074158450463697 3.5152693475884798 0 0 0
332 1 1.7595948942648634 15.83234020689176 3.515899947282466 0 0 0
333 1 1.758612633597329 14.072247480373802 5.275679341369711 0 0 0
334 1 0.0003111973011240535 15.830738678901271 5.276061306146711 0 0 0
335 1 3.5179406080513336 14.071203515270303 3.518223883063769 0 0 0
338 1 3.5174964675700835 15.830639071391877 5.276291121572142 0 0 0
55 1 3.515795332070203 17.588540644697094 3.5158999472824646 0 -1 0
341 1 8.794591118747697 14.071551581234772 5.276600907745882 0 0 0
340 1 8.794395910606248 15.830449973927143 3.517597049699088 0 0 0
286 1 5.2736311680227494 15.833420637618362 1.1863544796952124e-15 0 0 0
287 1 5.276475696076264 14.071659842885696 1.7582781169778714 0 0 0
292 1 7.035269922156965 15.830384253725551 1.758534401139707 0 0 0
336 1 5.276932023691659 15.830194930910631 3.5182238830637695 0 0 0
337 1 5.276732605759603 14.071402933202357 5.276869699339313 0 0 0
339 1 7.0355155406194605 14.07146106059689 3.517624753430096 0 0 0
342 1 7.035622206858185 15.830515668546395 5.276703192658457 0 0 0
290 1 8.794506019744501 15.830574272714605 4.4274961710779944e-18 0 0 0
291 1 8.79449431671347 14.071595498109126 1.758751101802447 0 0 0
7 1 5.277139486559733 17.58856010076129 1.7592018447205195 0 -1 0
346 1 10.553615689760035 15.830553985162748 5.276560544874804 0 0 0
345 1 12.312359931724698 14.071479043538062 5.276801885953686 0 0 0
344 1 12.312845359499123 15.830713480990642 3.517731415767327 0 0 0
343 1 10.553716019751487 14.071604919779059 3.517603453305121 0 0 0
296 1 10.553708586406703 15.830464667006524 1.7588336105113702 0 0 0
295 1 12.312732082625933 14.071452729783935 1.7584910691644646 0 0 0
294 1 12.31297078750867 15.830902164105 6.357312806966569e-16 0 0 0
293 1 10.553611136619768 14.071755114637522 1.4088131247742178e-18 0 0 0
350 1 14.07129273050717 15.830656197124885 5.27663831624276 0 0 0
349 1 15.830656197124885 14.071292730507169 5.276638316242759 0 0 0
348 1 15.829114289686645 15.829114289686647 3.5191356796297257 0 0 0
347 1 14.070830988749735 14.070830988749735 3.5182502213600797 0 0 0
300 1 14.07072463153522 15.82954802885776 1.7593481559118 0 0 0
299 1 15.82954802885776 14.070724631535223 1.7593481559118005 0 0 0
298 1 15.834475644180943 15.834475644180944 5.977478623189578e-18 0 0 0
297 1 14.074737899546419 14.074737899546419 4.858644839277243e-18 0 0 0
284 1 17.588399543653495 15.831059019896779 1.7580139754254585 -1 0 0
19 1 15.831059019896777 17.588399543653495 1.7580139754254576 0 -1 0
51 1 17.588540331093082 17.588540331093082 3.5156788429942893 -1 -1 0
361 1 0.00014159049535541527 10.55380053479346 7.03535473055581 0 0 0
362 1 1.7587787273360835 12.312858210438208 7.035295628364555 0 0 0
363 1 1.7587813958504839 10.553614715122379 8.794607063164529 0 0 0
364 1 0.0001439315982508907 12.312700777265846 8.794607063164527 0 0 0
365 1 3.5175818442997717 10.553546318947214 7.035621679676609 0 0 0
368 1 3.5175730109733405 12.312653395164396 8.794607063164529 0 0 0
406 1 0.00014159049535572338 10.553800534793462 10.553859395773243 0 0 0
407 1 1.758778727336083 12.312858210438206 10.553918497964501 0 0 0
408 1 3.517581844299772 10.553546318947214 10.553592446652445 0 0 0
353 1 5.276575576581226 8.794628528903926 7.035672224889808 0 0 0
366 1 5.276579954599797 12.312521739228751 7.035688273099356 0 0 0
367 1 5.276559290440014 10.553575218533911 8.794607063164529 0 0 0
369 1 7.035579363738246 10.55357177303857 7.035635549263864 0 0 0
372 1 7.03557212339985 12.31256341556211 8.794607063164529 0 0 0
402 1 5.276575576581226 8.794628528903925 10.553541901439246 0 0 0
409 1 5.276579954599799 12.312521739228751 10.553525853229697 0 0 0
410 1 7.035579363738245 10.55357177303857 10.553578577065188 0 0 0
370 1 8.79456376592339 12.312556175223717 7.035635549263864 0 0 0
371 1 8.794566903034307 10.553568635927654 8.794607063164529 0 0 0
411 1 8.794563765923389 12.312556175223717 10.553578577065188 0 0 0
373 1 10.55355069083216 10.55355069083216 7.035630679506008 0 0 0
374 1 12.3125185088367 12.3125185088367 7.035675831990192 0 0 0
375 1 12.312553695347573 10.553540655173096 8.794607063164529 0 0 0
376 1 10.553540655173098 12.312553695347573 8.794607063164529 0 0 0
412 1 10.55355069083216 10.55355069083216 10.553583446823046 0 0 0
413 1 12.312518508836702 12.3125185088367 10.55353829433886 0 0 0
377 1 14.071559962380736 10.553507010058036 7.035672224889809 0 0 0
378 1 15.830553056194239 12.312545560913966 7.035603545734984 0 0 0
379 1 15.830560806518127 10.553580914884932 8.794607063164529 0 0 0
380 1 14.071562080989983 12.312576673934432 8.794607063164529 0 0 0
414 1 14.071559962380734 10.553507010058036 10.553541901439244 0 0 0
415 1 15.830553056194237 12.312545560913966 10.55361058059407 0 0 0
381 1 0.000147548567346329 14.071720013595161 7.0354720536116035 0 0 0
382 1 1.7588444331500874 15.830602588734921 7.0353872605825725 0 0 0
383 1 1.7588905463303162 14.071671973389682 8.794607063164527 0 0 0
384 1 2.4381467659152566e-05 15.830460763211203 8.794607063164529 0 0 0
385 1 3.517553157415408 14.071635196657013 7.035364173121815 0 0 0
388 1 3.517689368711775 15.830446170250188 8.794607063164529 0 0 0
416 1 0.0001475485673459215 14.071720013595161 10.55374207271745 0 0 0
417 1 1.7588444331500874 15.830602588734921 10.55382686574648 0 0 0
418 1 3.517553157415408 14.071635196657013 10.553849953207239 0 0 0
421 1 8.794589220014746 15.830553694662187 10.553592446652443 0 0 0
386 1 5.276500342304948 15.830582381546552 7.035364173121816 0 0 0
387 1 5.276511302576883 14.071624236385077 8.794607063164529 0 0 0
389 1 7.035613799733211 14.07155558436216 7.035688273099356 0 0 0
392 1 7.035482143797562 15.830562527988622 8.794607063164529 0 0 0
419 1 5.276500342304948 15.830582381546554 10.553849953207237 0 0 0
420 1 7.03561379973321 14.07155558436216 10.553525853229697 0 0 0
390 1 8.794589220014746 15.83055369466219 7.035621679676609 0 0 0
391 1 8.794560320428051 14.071576248521945 8.794607063164527 0 0 0
423 1 12.312545560913966 15.830553056194237 10.55361058059407 0 0 0
422 1 10.553507010058036 14.071559962380736 10.553541901439246 0 0 0
396 1 10.55358091488493 15.830560806518129 8.794607063164527 0 0 0
395 1 12.312576673934432 14.071562080989983 8.794607063164529 0 0 0
394 1 12.312545560913966 15.830553056194237 7.0356035457349835 0 0 0
393 1 10.553507010058036 14.071559962380734 7.035672224889808 0 0 0
425 1 15.83049876438224 15.83049876438224 10.553937453859275 0 0 0
424 1 14.07154891346565 14.071548913465652 10.55371197559229 0 0 0
400 1 14.071604151008291 15.830446469905079 8.794607063164529 0 0 0
399 1 15.830446469905077 14.071604151008291 8.794607063164527 0 0 0
398 1 15.830498764382238 15.83049876438224 7.035276672469777 0 0 0
397 1 14.071548913465652 14.071548913465652 7.0355021507367645 0 0 0
431 1 1.7587807443036372 10.553628419455306 12.312720131909739 0 0 0
432 1 0.00014620960071876548 12.313353961127898 12.313357325717917 0 0 0
434 1 3.517619870415564 12.312513332103778 12.312510933670598 0 0 0
461 1 2.264449879060912e-05 10.553620785596191 14.07170464612694 0 0 0
462 1 1.75861369375901 12.312754782262283 14.071604576879995 0 0 0
463 1 1.7588489189921945 10.553717108049291 15.830410264652567 0 0 0
464 1 4.547227627810854e-05 12.313073063404273 15.830766615143729 0 0 0
465 1 3.5176855650348196 10.553739628355713 14.071617076629968 0 0 0
468 1 3.517751285236409 12.312865616804997 15.830679725189349 0 0 0
428 1 7.035613542224976 8.794628651782887 12.312561747669701 0 0 0
433 1 5.276583957727187 10.553544420214264 12.312613218583174 0 0 0
436 1 7.035620598849564 12.312514940112397 12.31255944526972 0 0 0
466 1 5.276674478365071 12.3126199983425 14.071589372898957 0 0 0
467 1 5.276540040852835 10.55364122224849 15.83046302452661 0 0 0
469 1 7.035569972677477 10.553543111397369 14.071607517551932 0 0 0
472 1 7.035450226608795 12.312685312353166 15.830583930486018 0 0 0
435 1 8.794575031563538 10.553560507398425 12.312587103155378 0 0 0
470 1 8.794592427564591 12.312565566284485 14.071607517551932 0 0 0
471 1 8.79453131887756 10.5536042200844 15.830566920546032 0 0 0
437 1 12.312521996736985 10.553506887179074 12.312561747669701 0 0 0
438 1 10.553506887179074 12.312521996736987 12.3125617476697 0 0 0
455 1 8.79461806972205 8.79461806972205 14.071604832417997 0 0 0
473 1 10.553517469239912 10.55351746923991 14.071604832417997 0 0 0
474 1 12.312359842565831 12.312359842565833 14.071536623698739 0 0 0
475 1 12.312612039476235 10.553609821733751 15.830566881393812 0 0 0
476 1 10.553609821733753 12.312612039476235 15.830566881393812 0 0 0
439 1 15.830553985162746 10.553615689760036 12.312653581454253 0 0 0
440 1 14.071479043538064 12.312359931724698 12.312412240375371 0 0 0
477 1 14.07160491977906 10.553716019751487 14.071610673023933 0 0 0
478 1 15.830713480990642 12.312845359499123 14.071482710561725 0 0 0
479 1 15.830464667006524 10.553708586406703 15.830380515817685 0 0 0
480 1 14.071452729783935 12.312732082625935 15.83072305716459 0 0 0
441 1 1.7586126335973284 14.072247480373802 12.313534784959343 0 0 0
442 1 0.00031119730112354595 15.830738678901271 12.313152820182344 0 0 0
444 1 3.5174964675700835 15.830639071391879 12.312923004756913 0 0 0
481 1 0.000298248524492749 14.074158450463699 14.073944778740572 0 0 0
482 1 1.7595948942648638 15.832340206891757 14.073314179046589 0 0 0
483 1 1.7595754382006719 14.070996052402228 15.830012281608536 0 0 0
485 1 3.517940608051332 14.071203515270302 14.070990243265285 0 0 0
488 1 3.519193785356875 15.828941753605084 15.829025725562632 0 0 0
205 1 3.515795332070203 17.588540644697098 14.073314179046587 0 -1 0
491 1 8.794494316713468 14.071595498109126 15.830463024526612 0 0 0
490 1 8.79439591060625 15.830449973927145 14.071617076629966 0 0 0
443 1 5.276732605759604 14.071402933202357 12.312344426989744 0 0 0
446 1 7.035622206858184 15.830515668546397 12.312510933670598 0 0 0
486 1 5.276932023691658 15.83019493091063 14.070990243265284 0 0 0
487 1 5.2764756960762655 14.071659842885696 15.830936009351184 0 0 0
489 1 7.0355155406194605 14.07146106059689 14.071589372898957 0 0 0
492 1 7.035269922156965 15.830384253725551 15.83067972518935 0 0 0
445 1 8.794591118747697 14.071551581234774 12.312613218583174 0 0 0
207 1 5.277139486559733 17.588560100761292 15.830012281608537 0 -1 0
289 1 7.034733718227843 14.072452029360077 17.58921412632905 0 0 -1
496 1 10.553708586406701 15.830464667006524 15.830380515817685 0 0 0
495 1 12.312732082625935 14.071452729783937 15.83072305716459 0 0 0
494 1 12.312845359499125 15.83071348099064 14.071482710561725 0 0 0
493 1 10.553716019751487 14.071604919779059 14.071610673023931 0 0 0
448 1 10.553615689760035 15.830553985162746 12.312653581454253 0 0 0
447 1 12.312359931724698 14.071479043538064 12.312412240375371 0 0 0
500 1 14.070724631535224 15.829548028857758 15.829865970417258 0 0 0
499 1 15.829548028857758 14.070724631535224 15.829865970417258 0 0 0
498 1 15.829114289686645 15.829114289686647 14.070078446699329 0 0 0
497 1 14.070830988749735 14.070830988749735 14.070963904968975 0 0 0
450 1 14.071292730507169 15.830656197124885 12.312575810086297 0 0 0
449 1 15.830656197124885 14.071292730507169 12.312575810086297 0 0 0
484 1 17.588399543653495 15.83105901989678 15.831200150903598 -1 0 0
201 1 17.588540331093085 17.588540331093082 14.073535283334765 -1 -1 0
219 1 15.831059019896779 17.58839954365349 15.8312001509036 0 -1 0

Velocities

1 -4.959700661054978e-09 -4.95970107825711e-09 3.662956796133778e-15
2 4.959704123353134e-09 4.959697021625744e-09 9.339093709244244e-16
3 5.4027777940926185e-09 -5.402776926114405e-09 3.901329237178272e-09
4 -5.402780999602239e-09 5.402775316333248e-09 3.90133226299278e-09
5 -2.6595784144607346e-09 -3.4801102415347535e-09 1.0339244894912912e-15
8 3.2188846378492174e-09 5.047326415724897e-09 5.853896804863893e-09
21 -3.480113251203612e-09 -2.6595725592704647e-09 3.0066789233090435e-15
23 5.047331268987853e-09 3.21888833759514e-09 5.853896871838443e-09
25 7.216294055113842e-10 7.21635546838461e-10 1.3484608138547918e-15
52 3.6888167618556413e-09 3.6888104303686805e-09 7.778168171565735e-10
53 4.59185054092078e-09 -4.5918393107238465e-09 -9.496372763041928e-09
54 -4.591847326142361e-09 4.591845400624037e-09 -9.496373631319135e-09
58 4.135344291362138e-09 1.5491322879325742e-09 -6.1572829167295345e-09
73 1.5491380011009181e-09 4.135349310865496e-09 -6.1572816370372325e-09
75 -1.2047796124330395e-09 -1.2047723702117905e-09 2.934770621988701e-09
6 8.386632177224015e-10 5.7381086200244624e-09 5.458425857590483e-15
9 -1.0471864684051855e-08 -3.838100130871831e-09 1.4531085488546092e-15
12 -3.126687235563851e-09 1.850120403528552e-09 3.6624598188454757e-09
27 3.6163027483333056e-09 1.2733226050969125e-09 -2.002990982704863e-09
29 -5.154157679534322e-09 5.863634589950844e-09 3.658484815593621e-15
56 1.3838607304936254e-09 1.7016968560433585e-09 4.46678242063611e-09
57 5.835251352317631e-09 -2.3528985435565637e-09 -4.05086134746373e-09
59 -2.8861987681708244e-09 -6.548119612610886e-10 7.648978584898835e-09
62 2.796110942831681e-09 5.163770749038622e-10 2.0930662604617312e-10
77 4.351670171638186e-09 -1.4482638018989173e-09 3.5762940126312203e-09
79 -8.955900131553354e-09 -4.754916978199634e-09 1.2056731172189827e-09
11 6.2527406191988205e-09 -3.5092959907231134e-09 -5.270042802261624e-10
31 3.412142879535328e-09 -4.1167508370116825e-09 4.1104741956019194e-09
60 3.4594710381805794e-09 6.618091388954679e-09 1.4841891512916822e-09
61 6.554721567921874e-09 5.60490675787143e-10 3.3371611867623868e-09
81 5.724948057781769e-09 -5.826731500371064e-09 -2.7716711091744307e-09
10 -3.794672036039428e-09 -6.03815450415814e-10 5.949971218561054e-16
13 3.794672401759903e-09 6.038174979234976e-10 1.2856721728549013e-15
14 1.0471865777338042e-08 3.8380967855620525e-09 3.7705454878037494e-15
15 3.1266846450839192e-09 -1.85011261534512e-09 3.6624575671252123e-09
16 -6.252738441936705e-09 3.5092914699409613e-09 -5.270056268930151e-10
33 -3.7117541270230813e-09 4.487378169297483e-09 1.6889759007625128e-15
35 9.545270180252078e-10 1.3611819240785221e-10 3.715306156518836e-10
63 -3.4594745929707015e-09 -6.618090379552526e-09 1.4841878390090853e-09
64 2.886199549739908e-09 6.54815680740584e-10 7.648977123866957e-09
65 -2.7961082390822557e-09 -5.163737629957602e-10 2.0930911803245985e-10
66 -6.554724042740802e-09 -5.604884464913939e-10 3.337163637911334e-09
83 3.1717676912006584e-09 -1.199612451046558e-10 -2.7187593443899263e-09
85 2.673977998581787e-10 2.3765027845966896e-09 -5.752671886122252e-09
71 -3.1294831688985467e-09 -7.481111367596275e-10 -1.3206111965008232e-09
17 -8.386679047449553e-10 -5.738111150705688e-09 1.976048230325126e-15
18 2.6595758123200557e-09 3.4801103653180743e-09 2.3512851086816147e-15
20 -1.5060512899035916e-09 6.693077507703129e-10 5.29079442538858e-09
37 2.0373999078287177e-09 1.1368223818293298e-09 1.976945210910839e-15
39 2.55489789571749e-09 -2.5548888963112734e-09 -1.794708584684398e-09
67 -1.383859876997911e-09 -1.7016974780888831e-09 4.466787801803104e-09
68 7.481147270739186e-10 3.129476789572621e-09 -1.3206081310136102e-09
69 -4.135348223725026e-09 -1.5491313825801696e-09 -6.1572843943555526e-09
70 -5.835252640015018e-09 2.3528917414375845e-09 -4.050863662688584e-09
87 3.424740357728956e-10 -7.33208822789667e-09 -1.7268277714447077e-09
89 1.4018927603413902e-09 -1.4018902272682162e-09 -5.549508277128586e-09
22 5.738117474119824e-09 8.386592608420443e-10 1.1474840212272125e-15
28 1.2733182242923076e-09 3.616298456134042e-09 -2.0029899475694124e-09
41 -3.838103680523003e-09 -1.0471859952778258e-08 -1.5036384551830926e-15
42 1.8501283806758944e-09 -3.1266792368889743e-09 3.662462267004488e-09
43 5.8636276234016286e-09 -5.154156250345255e-09 2.240059516053237e-15
72 1.7017036959583033e-09 1.3838546631487598e-09 4.4667828156521306e-09
74 -2.3528952916867428e-09 5.835251164182961e-09 -4.050861189414115e-09
78 -1.4482681451620198e-09 4.351665662586858e-09 3.5762918360400885e-09
91 -6.548173694560334e-10 -2.886193431734326e-09 7.64897830743284e-09
92 5.16377596348576e-10 2.7961153224141393e-09 2.093070141397732e-10
93 -4.754921898586636e-09 -8.955898664990097e-09 1.205672210072617e-09
252 -3.509299157662568e-09 6.252738997457922e-09 -5.270043944416904e-10
254 -4.116754566656958e-09 3.4121388610623043e-09 4.110470485005437e-09
301 6.618093699576667e-09 3.4594629288780974e-09 1.4841878896884883e-09
302 5.604896448574565e-10 6.5547177874477e-09 3.337163909397458e-09
304 -5.826735555751102e-09 5.7249472719721965e-09 -2.771669868552173e-09
26 5.384061108237251e-09 5.384056930686138e-09 6.517796135564808e-16
32 -1.2924929222643593e-09 7.339281405975363e-10 -2.914970898089766e-09
44 7.339342964561658e-10 -1.2924891418310621e-09 -2.9149688188881746e-09
45 -2.9650000978893755e-09 -2.96499830273223e-09 1.3924128625547152e-15
76 2.94541322020329e-09 2.9454101487116795e-09 1.6953248854391606e-09
82 -4.923218712631486e-09 4.556869840286604e-09 2.4362604998865073e-09
94 4.556874310239856e-09 -4.923214326396422e-09 2.4362608909700426e-09
95 -5.031056052665263e-09 -5.031049639661694e-09 4.8493925135940495e-09
30 4.0274154225672824e-09 1.1421427172267563e-08 2.3494911475101894e-15
46 6.4071893506687605e-09 -5.721206404030769e-09 2.0276476448771263e-09
80 -3.654599684075868e-09 9.84736083702702e-11 1.1340497455191109e-09
253 1.1421427620757857e-08 4.027415646554477e-09 3.38460674342267e-15
256 -5.721211090351389e-09 6.4071851107544475e-09 2.027650316982291e-09
303 9.84813444336044e-11 -3.6546044218408938e-09 1.1340504474671522e-09
255 -3.99737759222818e-09 -3.997383889795142e-09 1.8657196182824612e-15
34 -2.0084947079332227e-09 4.402438636311724e-09 3.7335415348126866e-15
36 -4.527519657813245e-09 -4.616352262287e-09 5.210842338347071e-09
47 -5.516530259666247e-10 -5.141816782637237e-09 2.0002667061393694e-15
48 1.9723988362770778e-09 -1.9723974033317862e-09 -6.468579938705089e-09
84 6.7948565226814805e-09 4.302962470253412e-09 8.30924214848064e-10
86 -1.131408612150199e-09 4.971271043768716e-09 -3.4767042543620897e-09
96 1.3159392781843412e-09 -2.396707734328306e-09 -5.115034375722831e-09
97 -8.628176466865132e-10 -4.726399139943539e-09 -6.703713220183182e-10
98 4.19643774314449e-09 -4.196440366607056e-09 2.1025556857040568e-09
257 5.1418164223570426e-09 5.516513781326664e-10 1.9456338143973333e-15
258 -1.837156972871358e-09 1.8371577370310763e-09 -1.925906031895076e-09
307 4.726399832459014e-09 8.628145878659033e-10 -6.703723402291004e-10
308 -3.947127951236889e-09 3.9471221232550296e-09 -3.3355054807965595e-09
100 -2.376499751998765e-09 -2.673960401743369e-10 -5.752668118270042e-09
99 -4.302965949775838e-09 -6.794854476857972e-09 8.309228633599407e-10
90 -4.963525976997282e-09 4.963522041644459e-09 4.020370778861779e-09
88 7.332092107337703e-09 -3.424801989265e-10 -1.7268305177002677e-09
24 -6.69315077698998e-10 1.5060416706837906e-09 5.290796322203525e-09
38 -1.1368165667041928e-09 -2.0374029988238163e-09 1.1666727484836801e-15
40 -1.4831886806739121e-09 1.4831807710991073e-09 -1.0119401414418375e-08
49 -4.402441328440112e-09 2.0084975273651127e-09 3.5119779865938768e-15
50 -1.3611369315323427e-10 -9.545210991493164e-10 3.7153205552383705e-10
259 -4.487375734210095e-09 3.7117489130931505e-09 9.699350066840232e-16
260 4.616353345826992e-09 4.527517662054235e-09 5.210841726008325e-09
309 1.1996672597371513e-10 -3.1717681867574467e-09 -2.718762971445383e-09
310 -4.971272920551094e-09 1.1314107364992196e-09 -3.476705475152667e-09
101 7.113809604071811e-10 7.113857179922078e-10 -8.308716077047515e-09
102 -7.11384055588189e-10 -7.113841422963122e-10 -8.308719525040888e-09
103 4.024166353518319e-09 -4.024165436505167e-09 -4.895119713875952e-15
104 -4.024166434844558e-09 4.02416389459554e-09 -5.857582218232644e-15
105 1.3010892198216581e-09 -4.4852796376101835e-09 3.957783626124992e-09
108 -6.119053849462618e-09 1.5467155178260055e-09 -2.8911821614072917e-15
121 -4.485278321815581e-09 1.3010906256892295e-09 3.957787197303698e-09
123 1.5467188444612508e-09 -6.119053261220881e-09 -5.1181712220767906e-15
125 -3.446770524425058e-09 -3.4467664047427246e-09 -3.0169625701173393e-09
151 7.113853759436111e-10 7.113825187614521e-10 8.308725016356033e-09
152 -7.113804006912956e-10 -7.113827866596537e-10 8.308725668161926e-09
153 1.3010894525414023e-09 -4.485275635771011e-09 -3.957778298705365e-09
161 -4.485280009634049e-09 1.3010911208225128e-09 -3.9577767983087736e-09
163 -3.4467696546061656e-09 -3.4467674957712783e-09 3.0169692863050244e-09
106 2.1831017472826916e-09 -5.271226057191203e-10 6.239927813639748e-09
107 8.433917781951679e-10 -5.827754599902928e-09 -5.8175170854041426e-15
109 -9.649456601724586e-09 -4.192338679365096e-09 -1.6603835808486935e-09
112 -2.232877669615251e-09 -1.4972386541806673e-09 -5.856087250589789e-15
127 -1.4464124385616802e-09 -3.4556083921464537e-09 -4.375523854562851e-15
129 -6.430860078599036e-09 -5.09439593589535e-09 6.151749306354014e-09
154 2.183099269328274e-09 -5.271224813378124e-10 -6.239918318801255e-09
155 -9.64945245954299e-09 -4.192338124433107e-09 1.660393925426795e-09
165 -6.430860074801408e-09 -5.094396786709466e-09 -6.151740257017047e-09
110 -4.040468055513399e-10 1.2961513267476332e-09 -2.3054042673795635e-09
111 -1.1645915003800869e-09 -5.392111413143238e-09 -5.147472587876739e-15
131 4.5059116003256725e-09 5.2972913165226445e-09 -6.386216659190031e-15
156 -4.0405298445699793e-10 1.2961515946458346e-09 2.305417147721781e-09
113 4.0405286673296785e-10 -1.2961456793578654e-09 -2.305405701053533e-09
114 9.64945181757819e-09 4.192337574285014e-09 -1.660385459724027e-09
115 2.2328744574101033e-09 1.4972359284575536e-09 -6.080805414123717e-15
116 1.1645902348034765e-09 5.392114264345526e-09 -7.828248565043493e-15
133 -1.1505555162721709e-09 -1.0735927599085498e-10 -4.395397551105567e-09
135 3.855519398117054e-09 1.960894575074748e-09 -5.210429412736451e-15
157 4.040517278666175e-10 -1.2961559001526462e-09 2.3054165045867006e-09
158 9.649456355379614e-09 4.192340109750136e-09 1.6603956811167947e-09
167 -1.1505552876816447e-09 -1.0735746018446888e-10 4.395406877662093e-09
117 -2.1831040474399067e-09 5.271227597007875e-10 6.239924413485341e-09
118 -1.301089700005265e-09 4.4852793482603646e-09 3.957787059766674e-09
119 6.119054828843951e-09 -1.5467136539335948e-09 -4.870006593362937e-15
120 -8.43386427463042e-10 5.827759557813619e-09 -3.7637305376505806e-15
137 1.4683201189119606e-09 -2.1920228222962387e-09 -4.34487918388105e-09
139 3.514775883120081e-09 -3.5147824756237208e-09 -5.026679202334093e-15
159 -2.1830989621579727e-09 5.271227434056401e-10 -6.239916731743605e-09
160 -1.3010924307131614e-09 4.485279946546415e-09 -3.957777806514952e-09
169 1.4683196096117407e-09 -2.192024756247735e-09 4.344884943231046e-09
122 -5.271197066778672e-10 2.1830965681167896e-09 6.239924846128977e-09
124 -5.827758073011756e-09 8.433917682536331e-10 -4.445949677919481e-15
128 -3.4556123480083643e-09 -1.4464141152674223e-09 -4.585279494290052e-15
141 -4.192343491964932e-09 -9.649453142967448e-09 -1.6603864918496877e-09
142 -1.4972339372587604e-09 -2.2328749323846825e-09 6.326703064560397e-16
143 -5.094397973975394e-09 -6.430857824560385e-09 6.151750315898656e-09
162 -5.271190799874314e-10 2.1831003266990324e-09 -6.239918365444245e-09
171 -4.192338789394714e-09 -9.649455449403528e-09 1.660392938449157e-09
172 -5.094401677953943e-09 -6.430855866353665e-09 -6.151740800454136e-09
351 1.2961522978786139e-09 -4.040473751188286e-10 -2.3054094620931287e-09
352 -5.392114608786071e-09 -1.1645887779412303e-09 -4.592540598849136e-15
354 5.29729092488784e-09 4.505907500726127e-09 -3.1531016603788773e-15
401 1.2961551203775236e-09 -4.040527617862393e-10 2.305412619763784e-09
126 2.43608058651056e-09 2.4360767378658605e-09 -3.539721887927655e-09
132 -2.0374996416050754e-09 -1.2484934302652424e-09 -5.6587515217329906e-15
144 -1.2484904663423936e-09 -2.03749548828597e-09 -6.76921348684534e-15
145 -3.7553444807787646e-09 -3.755340723626085e-09 -2.375470164643699e-09
164 2.4360800215492032e-09 2.4360752106069166e-09 3.5397300325113733e-09
173 -3.755341069561597e-09 -3.75534057831523e-09 2.3754820302018804e-09
146 -9.902239612449976e-10 -1.0113222735873965e-08 -4.700178269134662e-15
356 -1.0113228349776458e-08 -9.902283863492204e-10 -5.940403425646786e-15
355 -4.839470683283519e-12 -4.842059070260358e-12 -4.702137848801433e-09
403 -4.840074351217704e-12 -4.846194898244314e-12 4.702147990661923e-09
130 2.4111498688744077e-09 -2.4869541685585114e-09 -3.847670231418154e-09
134 3.79376471110453e-09 4.4901332642028105e-09 -2.7236584839367886e-09
136 -3.896869413224634e-09 3.903657820556255e-09 -5.539282584086436e-15
147 -5.303594686076174e-09 -4.438315572729389e-09 -7.494386010519319e-10
148 2.184599843981586e-09 -2.1846005729470588e-09 -7.291541165937064e-16
166 2.411149545740548e-09 -2.486952064581929e-09 3.847682438483006e-09
168 3.793765331245139e-09 4.490136433861238e-09 2.7236672318054e-09
174 -5.303595684286075e-09 -4.438315724319108e-09 7.494428922070539e-10
357 4.4383160496240675e-09 5.30359517971449e-09 -7.494373626207366e-10
358 3.9063612743446376e-11 -3.9062840742155606e-11 -4.6475554081061826e-15
404 4.438314927968094e-09 5.3035949239255265e-09 7.494443016625476e-10
138 2.192025057553171e-09 -1.4683193136081475e-09 -4.344880406602237e-09
140 -4.745756413424801e-09 4.74575582993893e-09 -4.544103647220649e-15
149 -4.490133584739057e-09 -3.793762140727242e-09 -2.7236574574121087e-09
150 -1.9608944633059264e-09 -3.855521498597981e-09 -6.982096879187826e-15
170 2.1920250073222586e-09 -1.468319612601676e-09 4.34488799057309e-09
175 -4.490135971903389e-09 -3.793765630579707e-09 2.723667477881225e-09
359 1.0735961138684565e-10 1.1505489639355825e-09 -4.3953976604215725e-09
360 -3.90366057284074e-09 3.896868547044645e-09 -5.623470285361624e-15
405 1.0736135960200721e-10 1.1505577600261997e-09 4.395409049982056e-09
176 4.5918461540877285e-09 -4.591848532282255e-09 9.496366971238287e-09
177 -4.591846941038696e-09 4.591844802038992e-09 9.496368636931235e-09
179 4.135349019075843e-09 1.5491350271119478e-09 6.157274033639976e-09
186 1.5491347504432754e-09 4.135347881975423e-09 6.157276144526112e-09
202 3.6888129227787346e-09 3.6888154534599603e-09 -7.778075531410842e-10
203 5.402784084019479e-09 -5.402773460181422e-09 -3.901332136219525e-09
204 -5.402779956712811e-09 5.402775584231449e-09 -3.901340414752343e-09
208 3.218879619541834e-09 5.047327759999802e-09 -5.853899372620317e-09
223 5.0473313072590246e-09 3.2188861684718388e-09 -5.853901804035691e-09
225 -1.2047784786495792e-09 -1.2047750204904277e-09 -2.934764149222626e-09
178 5.835250501538553e-09 -2.352890859406675e-09 4.050857345553312e-09
181 2.796113487476839e-09 5.163743480828816e-10 -2.0931669375626715e-10
188 4.351671286227978e-09 -1.44826638220274e-09 -3.576299918535932e-09
206 1.383858779383324e-09 1.7017013461272843e-09 -4.466780746270952e-09
209 -2.886195814114762e-09 -6.548163600538809e-10 -7.648968849669545e-09
212 -3.1266826382393556e-09 1.8501185210652962e-09 -3.6624662640247262e-09
227 3.616301067702361e-09 1.273325810302639e-09 2.002982012813746e-09
229 -8.955905192915806e-09 -4.754914934429369e-09 -1.205664917620455e-09
180 6.5547207624706826e-09 5.604871524474024e-10 -3.3371698438210133e-09
190 5.724948130138866e-09 -5.8267314910555474e-09 2.771661341263746e-09
210 3.4594705053741114e-09 6.618089107036069e-09 -1.4841829444850225e-09
211 6.252738404254761e-09 -3.5092887861750488e-09 5.27001617389797e-10
231 3.4121439541180697e-09 -4.116750398089183e-09 -4.110477051518831e-09
182 -2.796112518277637e-09 -5.163734018115776e-10 -2.0931694567701178e-10
183 -6.554720445315633e-09 -5.604887478768708e-10 -3.337167532601037e-09
192 2.673965141252773e-10 2.3765015307579843e-09 5.752665154906638e-09
213 -3.459471713177157e-09 -6.618090245603426e-09 -1.4841827991741677e-09
214 2.8861979202789026e-09 6.548178560772839e-10 -7.64897292433233e-09
215 3.1266849416854995e-09 -1.8501227189344372e-09 -3.6624652721884435e-09
216 -6.25274002408724e-09 3.509291814381506e-09 5.27001992178185e-10
233 3.1717689182217394e-09 -1.1996190217096548e-10 2.718766559959873e-09
235 9.54526977960075e-10 1.3611761953625146e-10 -3.715395632163012e-10
221 -3.129474455629137e-09 -7.481135257179208e-10 1.3206164267759312e-09
184 -4.1353483409304895e-09 -1.5491331095667906e-09 6.157278013235666e-09
185 -5.8352538359891326e-09 2.352891889738375e-09 4.0508522478918345e-09
194 1.4018927210073899e-09 -1.4018913400800835e-09 5.549498139475029e-09
217 -1.3838562597742023e-09 -1.7016977890421529e-09 -4.466774459380994e-09
218 7.481183287499637e-10 3.129472114509808e-09 1.3206177602870688e-09
220 -1.5060485893940417e-09 6.693087699823145e-10 -5.2908003669879795e-09
237 3.4247299976031907e-10 -7.332087309153794e-09 1.726841285952199e-09
239 2.5548910522041112e-09 -2.5548862563619285e-09 1.7947042101100816e-09
187 -2.3528941770388685e-09 5.835250018738753e-09 4.050855906796453e-09
189 -1.4482693286718415e-09 4.3516695057857954e-09 -3.576300069504305e-09
196 5.16380610203344e-10 2.796112209966255e-09 -2.0931629071299065e-10
222 1.7017015808780822e-09 1.3838541704074246e-09 -4.466777350050428e-09
228 1.2733198890882747e-09 3.616295620778411e-09 2.0029870742416026e-09
241 -6.548204407175588e-10 -2.886196421669612e-09 -7.648968553067964e-09
242 1.8501236063472301e-09 -3.126678803946345e-09 -3.6624617211170532e-09
243 -4.754920213608606e-09 -8.955898520576222e-09 -1.2056712951524195e-09
426 5.604826143236257e-10 6.554722246039198e-09 -3.337168231647907e-09
427 -5.826733175192658e-09 5.724941813659629e-09 2.771664334931779e-09
451 6.618096263745169e-09 3.4594700787103462e-09 -1.4841826024364259e-09
452 -3.5092982822095165e-09 6.2527326540112194e-09 5.270026303798718e-10
454 -4.11675751473315e-09 3.4121433973921196e-09 -4.1104750605279315e-09
191 -4.923215804620427e-09 4.5568692375156504e-09 -2.436270135849946e-09
197 4.556870220882556e-09 -4.923211818166573e-09 -2.436267476701946e-09
226 2.9454151497113086e-09 2.945410307709664e-09 -1.6953149208339482e-09
232 -1.292495408590596e-09 7.339300599351035e-10 2.9149643638848955e-09
244 7.339370182339665e-10 -1.2924919783803318e-09 2.914965128860259e-09
245 -5.031055638184323e-09 -5.031050071522808e-09 -4.849382263740835e-09
230 -3.654599323230389e-09 9.847363344834327e-11 -1.134042607300892e-09
246 6.407188988700513e-09 -5.721204395691238e-09 -2.0276535798986687e-09
453 9.848053182703447e-11 -3.654605240611313e-09 -1.1340476725502596e-09
456 -5.721207670718021e-09 6.407183675735007e-09 -2.0276551400469006e-09
193 -1.1314096495082465e-09 4.971268864404886e-09 3.4766978505186947e-09
198 1.3159379434772297e-09 -2.396710362481422e-09 5.115022107420367e-09
199 4.196443769618342e-09 -4.1964396429096604e-09 -2.1025601373918412e-09
234 6.794856487132786e-09 4.302960669047166e-09 -8.309178562916772e-10
236 -4.527519816075438e-09 -4.616353084033266e-09 -5.210846764983636e-09
247 -8.628190107393542e-10 -4.7263991315191625e-09 6.70378527117652e-10
248 1.9723974934672397e-09 -1.972396981750911e-09 6.4685775557266666e-09
429 -3.9471275451167225e-09 3.947126024879981e-09 3.335498015432703e-09
457 4.72640505162373e-09 8.628168131171188e-10 6.703771826313498e-10
458 -1.8371586208559468e-09 1.8371561523653748e-09 1.92590190817633e-09
250 -1.3610811692392642e-10 -9.545215380718163e-10 -3.715378362647185e-10
249 -4.302964784287812e-09 -6.794851430351884e-09 -8.309234568901255e-10
240 -1.4831842385270582e-09 1.4831758242511771e-09 1.0119394139905826e-08
238 7.332091588882924e-09 -3.424764550416578e-10 1.7268374519581822e-09
224 -6.69315443667077e-10 1.5060458314777342e-09 -5.2908004889773395e-09
195 -4.963526330706626e-09 4.96352602603222e-09 -4.0203795472581204e-09
200 -2.37650375701708e-09 -2.6739330528053105e-10 5.752666319524974e-09
430 -4.971272093641555e-09 1.131408682956772e-09 3.4767007787912368e-09
459 1.1996497015290569e-10 -3.1717723393758796e-09 2.71876327121209e-09
460 4.616352575619663e-09 4.527520584302358e-09 -5.2108464052570464e-09
251 -6.038105756253241e-10 -3.79467507142173e-09 1.0541016849767335e-15
261 6.038144410136615e-10 3.7946795682844e-09 4.24810005393545e-15
262 3.838099188444229e-09 1.0471863415721306e-08 1.102688133369506e-15
263 3.509294364198318e-09 -6.252735555444421e-09 -5.270071553479331e-10
264 -1.8501240536415488e-09 3.126676847332694e-09 3.6624573240434733e-09
265 4.487376673918724e-09 -3.711752894884574e-09 1.1943685544524359e-15
268 1.3610995906043014e-10 9.545211143185662e-10 3.7153619962670054e-10
311 -6.6180991412588874e-09 -3.459468138541339e-09 1.4841843993875326e-09
312 6.54822325572763e-10 2.8861936269771005e-09 7.64897724062393e-09
313 -5.604836673788333e-10 -6.554718875784143e-09 3.337165781694934e-09
314 -5.163782744658988e-10 -2.7961127164612927e-09 2.0930865262430978e-10
315 -1.199639776625747e-10 3.171777310390896e-09 -2.7187572025054024e-09
318 2.3765003950590963e-09 2.6739119392488166e-10 -5.752676180377096e-09
266 4.402445738594658e-09 -2.008495256808257e-09 6.272884229417635e-16
267 -4.6163512171542445e-09 -4.527522671668014e-09 5.210839617804955e-09
269 -5.141819599754263e-09 -5.516453373480375e-10 3.0569098361089557e-15
272 -1.9723991362982777e-09 1.9723989736457982e-09 -6.4685858563850065e-09
306 -2.39671201890557e-09 1.3159360490542326e-09 -5.1150357510930626e-09
316 4.302960379216155e-09 6.794854755656589e-09 8.309278730245426e-10
317 4.9712709797841e-09 -1.1314069138669569e-09 -3.476706748566105e-09
319 -4.726402355267387e-09 -8.628198724387035e-10 -6.703714433629731e-10
322 -4.1964431140709425e-09 4.196441179138411e-09 2.1025582471547536e-09
270 5.516518272268203e-10 5.141814754863126e-09 3.691351912810472e-15
271 1.8371586523904205e-09 -1.8371559903108824e-09 -1.9259047671524503e-09
320 8.628208322079302e-10 4.726402015610739e-09 -6.703738958573912e-10
321 3.9471278531670115e-09 -3.947127785594474e-09 -3.3355077698910144e-09
273 3.997382369712043e-09 3.997381408148855e-09 2.595263827995475e-15
274 2.9649994700169807e-09 2.964998005041486e-09 1.440786745235769e-16
275 5.721202145930784e-09 -6.407186161303248e-09 2.0276487825738565e-09
276 -6.407189833955218e-09 5.721204500637967e-09 2.027649143731685e-09
305 2.541597440533627e-09 2.5415964940696127e-09 4.592466175771952e-09
323 -2.541597187734599e-09 -2.5415965314438037e-09 4.5924618595013736e-09
324 5.031053869936595e-09 5.031052807911581e-09 4.849391311434507e-09
325 2.3967156042350785e-09 -1.315936592495994e-09 -5.115034850574776e-09
326 -1.315936768731656e-09 2.3967103439438234e-09 -5.115035730163515e-09
277 -1.1421429327113925e-08 -4.027415853756993e-09 -8.910007151413037e-16
278 -5.863627983389837e-09 5.154158456319509e-09 1.3849380243404424e-15
279 4.116757899238828e-09 -3.412142734224473e-09 4.1104755850525125e-09
280 -7.339300070506231e-10 1.2924986513762997e-09 -2.9149669041280235e-09
327 -9.847658167403176e-11 3.654601076229447e-09 1.134055598270715e-09
328 4.754920381941963e-09 8.955896983002002e-09 1.2056721762863483e-09
329 5.826728568926388e-09 -5.724940742906574e-09 -2.7716741646663832e-09
330 -4.55686830884175e-09 4.923210312109307e-09 2.4362644129643126e-09
281 -5.738112484216826e-09 -8.386640937734402e-10 -1.1024989265272072e-15
282 3.4801122386246534e-09 2.659575417648598e-09 2.028372097825035e-15
283 6.693127240219411e-10 -1.506046163958538e-09 5.290795907499501e-09
285 1.1368184910265426e-09 2.0374033952892352e-09 1.9049158011685538e-18
288 -2.554894869902981e-09 2.5548903234073855e-09 -1.7947098894921568e-09
331 -1.7016982578640058e-09 -1.3838527830774522e-09 4.46678639400668e-09
332 3.1294793053041704e-09 7.481072516377173e-10 -1.3206112386402234e-09
333 2.3528935407806395e-09 -5.835247032092396e-09 -4.050862570091482e-09
334 -1.549136251390789e-09 -4.135352337576986e-09 -6.157283167884098e-09
335 -7.332092831201036e-09 3.42476488715804e-10 -1.7268280898728155e-09
338 -1.4018911046647258e-09 1.401891982958216e-09 -5.549507549079343e-09
55 -7.481152957596099e-10 -3.129474275635033e-09 -1.32060767015246e-09
341 1.1314101377238007e-09 -4.971267163598886e-09 -3.4767047035099346e-09
340 -3.171766229851714e-09 1.1996117220162434e-10 -2.71876116165157e-09
286 -2.0374014404508583e-09 -1.1368220185044255e-09 -1.9137921715480026e-17
287 1.4831898960031856e-09 -1.483181828141674e-09 -1.0119403231755984e-08
292 -9.545237742444163e-10 -1.3611867289045264e-10 3.71529228839018e-10
336 -3.424767704704869e-10 7.332085573435627e-09 -1.7268269400079415e-09
337 4.963526365589594e-09 -4.963524541445259e-09 4.020368841191003e-09
339 -6.794855931212716e-09 -4.3029604811869635e-09 8.309233348400328e-10
342 -2.6739761228231014e-10 -2.3765004887188194e-09 -5.752671342616254e-09
290 3.711755092093412e-09 -4.487379147520217e-09 4.427496171077994e-15
291 4.5275189856685845e-09 4.6163540215430225e-09 5.210839574184602e-09
7 1.506050424700412e-09 -6.693019375057097e-10 5.290794141969577e-09
346 -5.7249472735232255e-09 5.8267257308798145e-09 -2.771672929225123e-09
345 4.9232124490394145e-09 -4.556867065553078e-09 2.4362605049717333e-09
344 8.955904620129725e-09 4.754912521504876e-09 1.2056767626181596e-09
343 3.654599912746352e-09 -9.84765285185885e-11 1.134054530761039e-09
296 -3.4121507740395745e-09 4.116750378654604e-09 4.110471854510257e-09
295 1.2924982502320991e-09 -7.339296476078443e-10 -2.9149680724414163e-09
294 5.1541618857752816e-09 -5.863634445237976e-09 -3.8988756125646304e-16
293 -4.027416645271196e-09 -1.1421424186032322e-08 1.4088131247742177e-15
350 -4.3516708885452476e-09 1.4482665409122424e-09 3.5762914371827213e-09
349 1.4482669155511337e-09 -4.351666647471542e-09 3.5762942525057865e-09
348 1.2047784388834399e-09 1.2047746824782436e-09 2.9347679715138493e-09
347 -2.9454149548095742e-09 -2.9454115754352175e-09 1.6953180125333164e-09
300 -3.6162962534487175e-09 -1.2733280892847894e-09 -2.0029905107373007e-09
299 -1.2733271701786826e-09 -3.6162981933187305e-09 -2.0029906165674323e-09
298 -7.216283656118918e-10 -7.21633760950115e-10 5.977478623189578e-15
297 -5.384061355033049e-09 -5.38405918164909e-09 4.858644839277243e-15
284 -5.047333430711065e-09 -3.218881744189848e-09 5.853897408830821e-09
19 -3.2188782701840397e-09 -5.047332762759522e-09 5.853897699303034e-09
51 -3.68881431314536e-09 -3.6888107797286032e-09 7.778129306518182e-10
361 -1.29614679400574e-09 4.040507244443356e-10 -2.3054040840965304e-09
362 4.192341300940355e-09 9.649449961975297e-09 -1.6603867603458764e-09
363 5.392114259561629e-09 1.1645917714644383e-09 -4.776122625391673e-15
364 1.4972357383957766e-09 2.2328788779032856e-09 -7.486797955415517e-16
365 -1.0736236918168708e-10 -1.15055450347745e-09 -4.395399744524429e-09
368 1.9608886591688014e-09 3.855523459979178e-09 -2.924337740661475e-15
406 -1.2961546754751532e-09 4.040482009389545e-10 2.305412772549477e-09
407 4.1923422816391285e-09 9.649455666472828e-09 1.6603876310150316e-09
408 -1.0735980589147953e-10 -1.1505539045630458e-09 4.3954039093152105e-09
353 -2.4869508246148877e-09 2.4111454238063193e-09 -3.8476689523238385e-09
366 4.4901415762380884e-09 3.793760386831203e-09 -2.723658977495208e-09
367 3.903660956748431e-09 -3.896872264431186e-09 -4.236289809556899e-15
369 -4.438319385195872e-09 -5.303588238878717e-09 -7.49432521915509e-10
372 -2.184597673199805e-09 2.184598637154941e-09 -6.497327926235881e-15
402 -2.486951207326604e-09 2.411148999768921e-09 3.847677419820568e-09
409 4.490137090737173e-09 3.793760875835119e-09 2.723666307321561e-09
410 -4.438317560139373e-09 -5.303588913408118e-09 7.494462379446387e-10
370 5.303589931780076e-09 4.438314508013434e-09 -7.494327123743867e-10
371 -3.906161965258492e-11 3.90668340997232e-11 -6.092591131689378e-15
411 5.303593676973015e-09 4.438315603525723e-09 7.494430820679446e-10
373 4.840756654449903e-12 4.840561710669274e-12 -4.702133679635671e-09
374 3.755344308857486e-09 3.755342530144984e-09 -2.375471693696604e-09
375 1.0113221689546113e-08 9.902270313841294e-10 -5.535382820836833e-15
376 9.902248815551671e-10 1.0113221252866065e-08 -3.3438011344335673e-15
412 4.842248034170414e-12 4.841523273857159e-12 4.702142183609611e-09
413 3.755339693043998e-09 3.755342970263458e-09 2.3754824145580612e-09
377 2.4869502804466655e-09 -2.411146552207896e-09 -3.847673761933739e-09
378 5.0943930052635615e-09 6.430857750859783e-09 6.15174587590549e-09
379 -5.297288007505203e-09 -4.50591024258438e-09 -2.760308255766616e-15
380 1.2484939014790433e-09 2.0374970466402413e-09 -6.063140269125143e-15
414 2.486953786743775e-09 -2.411148503290167e-09 3.847682679714723e-09
415 5.094397498239316e-09 6.430858616446048e-09 -6.151743029786091e-09
381 5.271209385312049e-10 -2.1830979814591993e-09 6.2399250270200615e-09
382 4.485281985383287e-09 -1.301092997903885e-09 3.957787871085614e-09
383 5.82776133562914e-09 -8.433887165574966e-10 -9.62081754785153e-17
384 -1.5467195955329946e-09 6.1190526832663905e-09 -4.959704651934209e-15
385 -2.192026640639813e-09 1.468321284228765e-09 -4.344876514917653e-09
388 -3.514783051050782e-09 3.5147764544826988e-09 -5.130563102303889e-15
416 5.271214910712457e-10 -2.183100524997147e-09 -6.2399212034908185e-09
417 4.485279866117156e-09 -1.3010917289753498e-09 -3.957778413471815e-09
418 -2.192026300665484e-09 1.4683207101003703e-09 4.344882868030255e-09
421 1.1505551697965e-09 1.0736005419626147e-10 4.3954073780102445e-09
386 -1.4683185472877338e-09 2.1920263456172923e-09 -4.344880679583329e-09
387 4.7457551986145325e-09 -4.745754344744638e-09 -3.4061342774797756e-15
389 -3.793762330224902e-09 -4.4901362077415416e-09 -2.7236580578730135e-09
392 -3.855520923633426e-09 -1.96089640317594e-09 -5.525400407990366e-15
419 -1.4683196075719274e-09 2.1920209460931597e-09 4.344887572580136e-09
420 -3.793760903278287e-09 -4.490134317684317e-09 2.7236632010614413e-09
390 1.1505532778142127e-09 1.0735393439671868e-10 -4.395399849652189e-09
391 3.896868244775473e-09 -3.903657766646321e-09 -8.227612005607208e-16
423 6.4308553819907015e-09 5.094398782117527e-09 -6.151742544519594e-09
422 -2.4111479272586655e-09 2.486950906202747e-09 3.8476762856341675e-09
396 -4.505905840010954e-09 -5.297293292514814e-09 -1.5810777790829575e-15
395 2.0374958501335446e-09 1.2484957321451742e-09 -5.445340218941622e-15
394 6.430858879560353e-09 5.094396002972679e-09 6.151750470838037e-09
393 -2.4111483448593924e-09 2.486955543760559e-09 -3.847671589993358e-09
425 3.4467660762983337e-09 3.4467647350133642e-09 3.016969008942977e-09
424 -2.436073581690173e-09 -2.436077047772653e-09 3.5397292581181345e-09
400 1.4464118329266236e-09 3.455606135408705e-09 -4.172454691207011e-15
399 3.4556113343081797e-09 1.4464131652417869e-09 -5.716756266275747e-16
398 3.4467721007189406e-09 3.44676517782278e-09 -3.016960619633056e-09
397 -2.4360784875759896e-09 -2.436079107688568e-09 -3.5397217163053697e-09
431 -5.604880876991597e-10 -6.554719119762862e-09 -3.3371653696818517e-09
432 -5.163767256794208e-10 -2.7961124007241264e-09 -2.0931089328181288e-10
434 2.376502680107795e-09 2.6739302514928953e-10 5.75266779344394e-09
461 -6.618095015148193e-09 -3.4594684943436382e-09 -1.484185680873796e-09
462 6.548163026471234e-10 2.8861920611479915e-09 -7.648974643566142e-09
463 3.5092985883788898e-09 -6.252737672318603e-09 5.269991055451635e-10
464 -1.8501229099913021e-09 3.1266855420645047e-09 -3.662460487096012e-09
465 -1.1996693341916267e-10 3.171771632822637e-09 2.718763703689878e-09
468 1.3611571945573628e-10 9.545209414769477e-10 -3.715338257827637e-10
428 -2.3967136520082233e-09 1.3159370201852135e-09 5.1150255933859165e-09
433 4.971272302531471e-09 -1.131407251131657e-09 3.47669938973738e-09
436 -4.1964405467670976e-09 4.196436514839365e-09 -2.1025650941065575e-09
466 4.302961497152958e-09 6.794854999635309e-09 -8.309185175170335e-10
467 -4.61635212294346e-09 -4.527517122348123e-09 -5.210845187157411e-09
469 -4.7263994323066526e-09 -8.628180766835709e-10 6.703777892016235e-10
472 -1.972400647710565e-09 1.9723949790922564e-09 6.4685773679587305e-09
435 3.947124351354805e-09 -3.947125764996208e-09 3.335499529629367e-09
470 8.628206411510654e-10 4.726398595124772e-09 6.703789379347602e-10
471 1.8371587060691024e-09 -1.8371566379308652e-09 1.925896887476998e-09
437 2.3967155662862596e-09 -1.3159362939497876e-09 5.115026090393211e-09
438 -1.3159363731632177e-09 2.396711659515349e-09 5.115028254876811e-09
455 2.5415982258401304e-09 2.541597890967378e-09 -4.592457177262716e-09
473 -2.541602179730552e-09 -2.5415955205466836e-09 -4.592457625155022e-09
474 5.031054880973868e-09 5.031049918775387e-09 -4.849387517767242e-09
475 5.721208504698568e-09 -6.407185640389948e-09 -2.0276530163215385e-09
476 -6.407189659641991e-09 5.721207988098484e-09 -2.027653951248631e-09
439 5.826735440993648e-09 -5.724951253127091e-09 2.7716616619529927e-09
440 -4.55687363690643e-09 4.923213213542508e-09 -2.4362681593583353e-09
477 -9.84828983608131e-11 3.654600976664602e-09 -1.1340465016916017e-09
478 4.754918430112209e-09 8.955906177202501e-09 -1.2056647289555386e-09
479 4.116751794986948e-09 -3.4121457887423613e-09 -4.11047603563576e-09
480 -7.339299496438656e-10 1.2924931690309598e-09 2.9149648410726763e-09
441 2.352895387364672e-09 -5.8352458325303595e-09 4.050858218165926e-09
442 -1.549132579750258e-09 -4.135348374417765e-09 6.157279484283826e-09
444 -1.4018941937070226e-09 1.4018872280092377e-09 5.549505746008213e-09
481 -1.7017052495286777e-09 -1.3838572584125877e-09 -4.466776799902335e-09
482 3.129481551343557e-09 7.481132147646511e-10 1.3206083276392293e-09
483 6.69307552629871e-10 -1.5060476876295595e-09 -5.2907941407467405e-09
485 -7.332088469782435e-09 3.424809251817809e-10 1.7268288543992682e-09
488 -2.55488918663399e-09 2.5548935806428855e-09 1.7947038575967114e-09
205 -7.481142289506999e-10 -3.1294825532708713e-09 1.3206159250647902e-09
491 4.527526242306941e-09 4.6163549112683436e-09 -5.2108526362610425e-09
490 -3.17177429640999e-09 1.199573087427296e-10 2.7187665613368786e-09
443 4.963522611286696e-09 -4.96352332681208e-09 -4.020377171645203e-09
446 -2.67393631875101e-10 -2.3765032616221775e-09 5.752666602431249e-09
486 -3.424771976014296e-10 7.332091252322494e-09 1.7268365636530806e-09
487 1.4831816606118626e-09 -1.483182854991734e-09 1.0119397881610115e-08
489 -6.7948527471115e-09 -4.302958095573661e-09 -8.309179876479435e-10
492 -9.54525735970156e-10 -1.3611328024317131e-10 -3.715409260638427e-10
445 1.1314082001371167e-09 -4.971270896350891e-09 3.476699666262012e-09
207 1.5060496936845936e-09 -6.693126423546619e-10 -5.2907997048562995e-09
289 2.0084917814021646e-09 -4.4024404785626864e-09 1.341015524610335e-14
496 -3.4121436174922346e-09 4.116748684706767e-09 -4.110476970588524e-09
495 1.2924920655135865e-09 -7.339314683896696e-10 2.9149659215931932e-09
494 8.955900923862846e-09 4.7549190743833e-09 -1.2056637032255363e-09
493 3.654598821192224e-09 -9.847608124295685e-11 -1.134041667933302e-09
448 -5.724947069992052e-09 5.826734710837436e-09 2.77166111609826e-09
447 4.923213782571575e-09 -4.55687270694896e-09 -2.4362695977580185e-09
500 -3.6163062302647787e-09 -1.27332033100071e-09 2.0029831687881323e-09
499 -1.2733180066250189e-09 -3.6163042748471016e-09 2.002980444957087e-09
498 1.2047811265362682e-09 1.2047748500641165e-09 -2.9347662101429724e-09
497 -2.945410574404884e-09 -2.9454131705656926e-09 -1.6953151804666137e-09
450 -4.351665480200806e-09 1.448264877611243e-09 -3.5763013863872853e-09
449 1.4482663271318693e-09 -4.351666164297999e-09 -3.5762991165325093e-09
484 -5.047333790101286e-09 -3.2188892836106644e-09 -5.853899574739942e-09
201 -3.6888218507254976e-09 -3.6888102174852878e-09 -7.778131078428581e-10
219 -3.2188824384528216e-09 -5.047323590535046e-09 -5.853905514545381e-09
