LAMMPS data file via write_data, version 29 Aug 2024, timestep = 27, units = metal

500 atoms
3 atom types

0 17.62847601406722 xlo xhi
0 17.62847601406722 ylo yhi
0 17.62847601406722 zlo zhi

Masses

1 55.3377
2 58.71
3 58.71

Atoms # atomic

1 2 0.00447993908982659 0.004479939089827421 1.0428532530541978e-18 0 0 0
2 3 1.758367662316895 1.7583676623168936 0 0 0 0
3 1 1.7577496538580708 0.0050979475486523885 1.7524122777793802 0 0 0
4 1 0.00509794754865193 1.757749653858069 1.752412277779381 0 0 0
5 1 3.520293346483129 0.005043478313392817 5.425023833929263e-19 0 0 0
8 1 3.519816559472684 1.7622374075708434 1.7571900203338875 0 0 0
21 1 0.005043478313392466 3.52029334648313 1.2098470396845521e-20 0 0 0
23 1 1.7622374075708438 3.519816559472684 1.7571900203338875 0 0 0
25 1 3.519418387379499 3.5194183873794986 0 0 0 0
51 1 0.0006308129036328792 0.0006308129036329129 3.524267358509503 0 0 0
52 1 1.762216788503089 1.7622167885030884 3.5242673585095035 0 0 0
53 1 1.7626434146895973 0.00020418671712464312 5.288485748562326 0 0 0
54 1 0.00020418671712401468 1.7626434146895955 5.288485748562326 0 0 0
55 1 3.523679831473112 0.0005956626366399508 3.5234096160352433 0 0 0
58 1 3.5251000868276825 1.7626108833712788 5.2880641620697855 0 0 0
71 1 0.0005956626366386532 3.5236798314731117 3.5234096160352424 0 0 0
73 1 1.76261088337128 3.525100086827683 5.288064162069786 0 0 0
75 1 3.5247326028566746 3.5247326028566746 3.5244946696437425 0 0 0
6 1 5.288012550826174 1.7626859358102462 0 0 0 0
7 1 5.287765771598668 0.0005840393791878408 1.7620681443923254 0 0 0
9 1 7.051506617604319 0.00020624635872244226 0 0 0 0
12 1 7.051384437370123 1.762823952785954 1.7626129187021948 0 0 0
27 1 5.287351072656196 3.5247645452989818 1.7620675700847384 0 0 0
29 1 7.051317949366679 3.525405460817021 0 0 0 0
56 1 5.286718393485391 1.762618213050351 3.523909027131539 0 0 0
57 1 5.287575822513612 0.00023147793285068378 5.287515376568087 0 0 0
59 1 7.050910702000423 0.00022842148821027716 3.5252204625651213 0 0 0
62 1 7.050610306736271 1.7627467102071719 5.287773584172348 0 0 0
77 1 5.287934846188691 3.5252693449373664 5.287880232856008 0 0 0
79 1 7.0507828242573405 3.525323700856808 3.5251933468399566 0 0 0
11 1 8.814235012085534 3.1873550726128036e-05 1.7628221876458587 0 0 0
31 1 8.814236133775376 3.52562740880177 1.762795845424373 0 0 0
60 1 8.81417369665885 1.762826150238419 3.525547388402868 0 0 0
61 1 8.814038328400121 9.91890375579669e-05 5.288259542752367 0 0 0
81 1 8.814040491546493 3.5254798053812206 5.288239756909552 0 0 0
10 1 8.814364583965675 1.7628606009237915 0 0 0 0
14 1 12.339816997869626 1.7626413550479991 2.807204290916388e-16 0 0 0
15 1 12.33993917810382 2.3648620765802027e-05 1.7626129187021955 0 0 0
16 1 10.577088603388408 1.7628157278559935 1.7628221876458587 0 0 0
33 1 10.577151907734185 3.525600621863257 1.069504783081144e-18 0 0 0
35 1 12.340344630148874 3.5253016796021233 1.7625902722658542 0 0 0
63 1 10.577149918815094 2.1451168301887687e-05 3.525547388402868 0 0 0
64 1 12.340412913473518 1.7626191799185116 3.5252204625651204 0 0 0
65 1 12.340713308737671 0.0001008911995480777 5.287773584172347 0 0 0
66 1 10.577285287073822 1.7627484123691641 5.288259542752367 0 0 0
83 1 10.577280807415233 3.525528506572933 3.5255128431740514 0 0 0
85 1 12.340371959298599 3.5254013665504496 5.288117464597318 0 0 0
17 1 14.10331106464777 0.0001616655964741326 0 0 0 0
18 1 15.871030268990813 1.7578041230933288 0 0 0 0
19 1 15.871507056001258 0.0006101938358781685 1.757190020333888 0 0 0
20 1 14.103557843875276 1.7622635620275329 1.7620681443923254 0 0 0
37 1 14.104147191944326 3.524127435446187 5.576638698545983e-20 0 0 0
39 1 15.86704561761507 3.5242779978588734 1.7616195944637965 0 0 0
67 1 14.104605221988551 0.0002293883563698986 3.52390902713154 0 0 0
68 1 15.867643784000832 1.7622519387700823 3.523409616035243 0 0 0
69 1 15.86622352864626 0.00023671803544229642 5.288064162069786 0 0 0
70 1 14.10374779296033 1.7626161234738698 5.287515376568088 0 0 0
87 1 14.103583321996295 3.5250931253925413 3.5249353881731156 0 0 0
89 1 15.866241218627504 3.5250823968464378 5.287665224528469 0 0 0
22 1 1.7626859358102465 5.288012550826173 8.281695863567226e-17 0 0 0
24 1 0.0005840393791875807 5.287765771598667 1.762068144392325 0 0 0
28 1 3.5247645452989826 5.287351072656195 1.7620675700847384 0 0 0
41 1 0.00020624635872153256 7.051506617604319 0 0 0 0
42 1 1.7628239527859544 7.051384437370122 1.762612918702195 0 0 0
43 1 3.5254054608170216 7.051317949366678 6.61450312767615e-17 0 0 0
72 1 1.7626182130503516 5.2867183934853905 3.5239090271315394 0 0 0
74 1 0.0002314779328511688 5.287575822513612 5.287515376568088 0 0 0
78 1 3.525269344937366 5.287934846188689 5.287880232856008 0 0 0
91 1 0.00022842148820927008 7.050910702000423 3.5252204625651213 0 0 0
92 1 1.7627467102071723 7.050610306736271 5.287773584172347 0 0 0
93 1 3.525323700856809 7.0507828242573405 3.5251933468399574 0 0 0
252 1 3.187355072615157e-05 8.814235012085534 1.7628221876458587 0 0 0
254 1 3.5256274088017707 8.814236133775376 1.7627958454243733 0 0 0
301 1 1.7628261502384193 8.814173696658848 3.525547388402868 0 0 0
302 1 9.918903755717814e-05 8.81403832840012 5.288259542752367 0 0 0
304 1 3.5254798053812206 8.814040491546491 5.288239756909551 0 0 0
26 1 5.286623131867828 5.286623131867827 0 0 0 0
32 1 7.05078539922886 5.287998535461217 1.7625359488377734 0 0 0
44 1 5.287998535461217 7.05078539922886 1.7625359488377728 0 0 0
45 1 7.050629201091373 7.050629201091374 0 0 0 0
76 1 5.287955300820932 5.287955300820931 3.52515393596961 0 0 0
82 1 7.051060362986555 5.288223582937435 5.288200315702473 0 0 0
94 1 5.2882235829374356 7.051060362986555 5.288200315702473 0 0 0
95 1 7.051071137702696 7.051071137702696 3.5254039410722635 0 0 0
30 1 8.814173867146032 5.288348542045842 6.450617313224357e-20 0 0 0
46 1 8.814044405843132 7.0511033259058165 1.7626777757849874 0 0 0
80 1 8.814043662134688 5.288277706627974 3.525449873393493 0 0 0
96 1 8.81413817188462 7.05119439271686 5.288332434452087 0 0 0
253 1 5.288348542045842 8.814173867146032 1.758545042104081e-16 0 0 0
256 1 7.0511033259058165 8.814044405843132 1.7626777757849872 0 0 0
303 1 5.288277706627974 8.81404366213469 3.5254498733934936 0 0 0
306 1 7.0511943927168605 8.81413817188462 5.288332434452087 0 0 0
255 1 8.814035437915152 8.814035437915152 0 0 0 0
305 1 8.81414313378388 8.81414313378388 3.525485144350735 0 0 0
34 1 12.340560638612173 5.287878043990225 0 0 0 0
36 1 10.577280496120318 5.288317062936845 1.762733988992747 0 0 0
47 1 10.577291055583855 7.051093348926979 0 0 0 0
48 1 12.34032058738277 7.051003028091173 1.7626607066459075 0 0 0
84 1 12.340362051114719 5.288166319047071 3.5253633375263096 0 0 0
86 1 10.577192221136096 5.28829742087295 5.288303744125425 0 0 0
97 1 10.577184335825294 7.051171277021945 3.525477103021019 0 0 0
98 1 12.34016741103413 7.051156204439812 5.2882990581088025 0 0 0
257 1 12.340230266546964 8.814032559890087 1.7562572053858347e-19 0 0 0
258 1 10.577189189184713 8.814134426289229 1.7626923409310342 0 0 0
307 1 12.340152338451997 8.814139279648648 3.5254771030210192 0 0 0
308 1 10.577155355177155 8.814168260296787 5.288358792540101 0 0 0
100 1 15.865922248923493 7.050951656175343 5.288117464597318 0 0 0
38 1 15.867196180027754 5.287176423529615 0 0 0 0
40 1 14.103571828320078 5.287751787153864 1.7623927063577476 0 0 0
49 1 14.103445571483718 7.050762976861771 1.828759415923181e-19 0 0 0
50 1 15.86602193587182 7.050978985325068 1.7625902722658535 0 0 0
88 1 15.866230490081403 5.287740293477649 3.5249353881731156 0 0 0
90 1 14.103210110007439 5.288113505466503 5.288077478984521 0 0 0
99 1 14.10315729642687 7.050961564359223 3.5253633375263096 0 0 0
259 1 15.865722993610685 8.814171707739757 0 0 0 0
260 1 14.103006552537096 8.814043119353624 1.7627339889927476 0 0 0
309 1 15.86579510890101 8.814042808058709 3.5255128431740514 0 0 0
310 1 14.103026194600993 8.814131394337846 5.288303744125424 0 0 0
101 1 3.735940821178079e-05 3.735940821273542e-05 7.051493349177938 0 0 0
102 1 1.7628102419985094 1.7628102419985086 7.051493349177938 0 0 0
105 1 3.525542552365903 3.752677614486382e-05 7.051302675231132 0 0 0
108 1 3.525648217685081 1.7628218066655663 8.81423800703361 0 0 0
121 1 3.752677614388067e-05 3.525542552365903 7.051302675231132 0 0 0
123 1 1.762821806665567 3.5256482176850814 8.81423800703361 0 0 0
125 1 3.525502657031806 3.5255026570318067 7.05116852747303 0 0 0
151 1 3.735940821268196e-05 3.735940821175109e-05 10.576982664889284 0 0 0
152 1 1.7628102419985092 1.7628102419985092 10.576982664889284 0 0 0
153 1 3.5255425523659034 3.752677614398403e-05 10.577173338836088 0 0 0
161 1 3.7526776143863995e-05 3.5255425523659034 10.577173338836088 0 0 0
163 1 3.525502657031806 3.525502657031806 10.57730748659419 0 0 0
106 1 5.288223537824235 1.7627450327177254 7.051106959323666 0 0 0
107 1 5.288385664973103 2.6833818021589138e-05 8.81423800703361 0 0 0
109 1 7.05097243860284 0.00010077456079420886 7.0509741535869646 0 0 0
112 1 7.051170156440484 1.7627595153136908 8.81423800703361 0 0 0
127 1 5.288359941524329 3.525547256675358 8.81423800703361 0 0 0
129 1 7.051090968291134 3.525469466637557 7.051094463163445 0 0 0
154 1 5.288223537824235 1.7627450327177254 10.577369054743556 0 0 0
155 1 7.05097243860284 0.0001007745607944973 10.577501860480258 0 0 0
165 1 7.051090968291134 3.525469466637557 10.577381550903775 0 0 0
110 1 8.81402372398684 1.7627604627376108 7.051080952438448 0 0 0
111 1 8.814123981462691 8.704464831028687e-05 8.81423800703361 0 0 0
131 1 8.81413024883321 3.5254935237162197 8.81423800703361 0 0 0
156 1 8.814023723986843 1.7627604627376101 10.577395061628774 0 0 0
113 1 10.577299891487101 8.713866911000292e-05 7.051080952438448 0 0 0
114 1 12.340351176871103 1.7627468268459263 7.050974153586965 0 0 0
115 1 12.34015345903346 8.808609302996518e-05 8.81423800703361 0 0 0
116 1 10.577199634011253 1.7627605567584117 8.81423800703361 0 0 0
133 1 10.577190922928786 3.525484375913699 7.051192562943392 0 0 0
135 1 12.340177465094461 3.5254875176233194 8.81423800703361 0 0 0
157 1 10.577299891487101 8.713866910961871e-05 10.577395061628774 0 0 0
158 1 12.340351176871103 1.7627468268459268 10.577501860480258 0 0 0
167 1 10.577190922928786 3.525484375913699 10.57728345112383 0 0 0
104 1 17.628472585477404 1.7628510299965392 8.81423800703361 -1 0 0
117 1 14.103100077649707 0.00010256868899508897 7.051106959323665 0 0 0
118 1 15.86578106310804 1.7628100746305764 7.051302675231132 0 0 0
119 1 15.865675397788863 2.5794741153455876e-05 8.81423800703361 0 0 0
120 1 14.10293795050084 1.7628207675886989 8.81423800703361 0 0 0
137 1 14.103135454929141 3.525439984774829 7.0509806775917125 0 0 0
139 1 15.865705068176172 3.525618547297771 8.81423800703361 0 0 0
159 1 14.103100077649707 0.0001025686889944847 10.577369054743555 0 0 0
160 1 15.865781063108038 1.762810074630577 10.577173338836088 0 0 0
169 1 14.103135454929141 3.5254399847748292 10.577495336475508 0 0 0
122 1 1.762745032717726 5.288223537824234 7.051106959323666 0 0 0
124 1 2.6833818022164863e-05 5.288385664973102 8.81423800703361 0 0 0
128 1 3.525547256675357 5.288359941524329 8.81423800703361 0 0 0
141 1 0.00010077456079438383 7.050972438602839 7.0509741535869646 0 0 0
142 1 1.7627595153136917 7.051170156440484 8.81423800703361 0 0 0
143 1 3.5254694666375572 7.051090968291134 7.051094463163445 0 0 0
162 1 1.7627450327177256 5.288223537824235 10.577369054743556 0 0 0
171 1 0.00010077456079461061 7.050972438602839 10.577501860480258 0 0 0
172 1 3.525469466637557 7.051090968291134 10.577381550903775 0 0 0
351 1 1.7627604627376112 8.81402372398684 7.051080952438448 0 0 0
352 1 8.704464831007993e-05 8.81412398146269 8.81423800703361 0 0 0
354 1 3.52549352371622 8.814130248833209 8.81423800703361 0 0 0
401 1 1.7627604627376106 8.81402372398684 10.577395061628772 0 0 0
126 1 5.288258380765168 5.288258380765168 7.051088570398544 0 0 0
132 1 7.0511901998244335 5.28831769929371 8.81423800703361 0 0 0
144 1 5.28831769929371 7.0511901998244335 8.81423800703361 0 0 0
145 1 7.051194969559723 7.051194969559723 7.051234249804461 0 0 0
164 1 5.288258380765168 5.288258380765167 10.577387443668677 0 0 0
173 1 7.051194969559723 7.051194969559723 10.57724176426276 0 0 0
130 1 8.814141262067725 5.288315085726275 7.051234111306207 0 0 0
146 1 8.81416952691092 7.05122723198817 8.81423800703361 0 0 0
166 1 8.814141262067725 5.288315085726275 10.577241902761013 0 0 0
353 1 5.288315085726275 8.814141262067723 7.051234111306207 0 0 0
356 1 7.05122723198817 8.814169526910918 8.81423800703361 0 0 0
402 1 5.288315085726276 8.814141262067723 10.577241902761013 0 0 0
355 1 8.814173032896674 8.814173032896674 7.0512812040793955 0 0 0
403 1 8.814173032896674 8.814173032896674 10.577194809987825 0 0 0
134 1 12.340168949901216 5.288285813988636 7.051192989298569 0 0 0
136 1 10.577161083291973 5.288322915402561 8.81423800703361 0 0 0
147 1 10.577154569003545 7.0512193543797315 7.051267425934012 0 0 0
148 1 12.34011191835598 7.051211697117963 8.81423800703361 0 0 0
168 1 12.340168949901216 5.288285813988635 10.57728302476865 0 0 0
174 1 10.577154569003545 7.0512193543797315 10.57720858813321 0 0 0
357 1 12.34010426109421 8.814169046470397 7.051267425934012 0 0 0
358 1 10.577145295553718 8.814178319920224 8.81423800703361 0 0 0
404 1 12.34010426109421 8.814169046470397 10.57720858813321 0 0 0
175 1 14.103037801485307 7.051154665572726 10.57728302476865 0 0 0
138 1 15.865883630699113 5.288188160544801 7.0509806775917125 0 0 0
140 1 14.10303264074661 5.288290974727331 8.81423800703361 0 0 0
149 1 14.103037801485305 7.051154665572725 7.05119298929857 0 0 0
150 1 15.865836097850622 7.051146150379482 8.81423800703361 0 0 0
170 1 15.865883630699113 5.288188160544802 10.577495336475508 0 0 0
359 1 15.865839239560243 8.814132692545156 7.051192562943392 0 0 0
360 1 14.10300070007138 8.81416253218197 8.81423800703361 0 0 0
405 1 15.865839239560245 8.814132692545156 10.57728345112383 0 0 0
176 1 1.762643414689597 0.00020418671712378744 12.339990265504895 0 0 0
177 1 0.00020418671712427316 1.7626434146895962 12.339990265504897 0 0 0
179 1 3.525100086827683 1.762610883371279 12.340411851997434 0 0 0
186 1 1.762610883371279 3.525100086827683 12.340411851997436 0 0 0
201 1 0.0006308129036314976 0.0006308129036338477 14.104208655557718 0 0 0
202 1 1.762216788503088 1.7622167885030884 14.104208655557718 0 0 0
203 1 1.7577496538580697 0.0050979475486515385 15.876063736287842 0 0 0
204 1 0.005097947548651547 1.7577496538580695 15.876063736287842 0 0 0
205 1 3.523679831473112 0.000595662636638276 14.105066398031978 0 0 0
208 1 3.519816559472684 1.762237407570843 15.871285993733334 0 0 0
221 1 0.000595662636639092 3.5236798314731113 14.105066398031978 0 0 0
223 1 1.7622374075708436 3.519816559472684 15.871285993733332 0 0 0
225 1 3.5247326028566746 3.5247326028566746 14.10398134442348 0 0 0
178 1 5.287575822513612 0.00023147793285160058 12.340960637499135 0 0 0
181 1 7.050610306736271 1.7627467102071717 12.340702429894874 0 0 0
188 1 5.28793484618869 3.525269344937366 12.340595781211212 0 0 0
206 1 5.286718393485391 1.7626182130503507 14.104566986935682 0 0 0
207 1 5.287765771598667 0.0005840393791885066 15.866407869674896 0 0 0
209 1 7.050910702000424 0.0002284214882098288 14.1032555515021 0 0 0
212 1 7.051384437370122 1.762823952785954 15.865863095365027 0 0 0
227 1 5.287351072656195 3.5247645452989826 15.866408443982483 0 0 0
229 1 7.0507828242573405 3.5253237008568084 14.103282667227264 0 0 0
180 1 8.814038328400121 9.918903755783938e-05 12.340216471314854 0 0 0
190 1 8.814040491546491 3.5254798053812206 12.340236257157668 0 0 0
210 1 8.814173696658848 1.7628261502384193 14.102928625664353 0 0 0
211 1 8.814235012085534 3.1873550726681474e-05 15.865653826421363 0 0 0
231 1 8.814236133775378 3.5256274088017703 15.865680168642848 0 0 0
182 1 12.340713308737671 0.00010089119954885458 12.340702429894874 0 0 0
183 1 10.577285287073822 1.762748412369164 12.340216471314854 0 0 0
192 1 12.340371959298599 3.52540136655045 12.340358549469903 0 0 0
213 1 10.577149918815094 2.145116830322746e-05 14.102928625664353 0 0 0
214 1 12.34041291347352 1.7626191799185111 14.1032555515021 0 0 0
215 1 12.33993917810382 2.3648620767073824e-05 15.865863095365027 0 0 0
216 1 10.577088603388408 1.7628157278559935 15.865653826421363 0 0 0
233 1 10.577280807415233 3.5255285065729334 14.10296317089317 0 0 0
235 1 12.340344630148874 3.525301679602123 15.865885741801367 0 0 0
184 1 15.86622352864626 0.00023671803544231707 12.340411851997436 0 0 0
185 1 14.10374779296033 1.76261612347387 12.340960637499135 0 0 0
194 1 15.866241218627504 3.5250823968464373 12.340810789538752 0 0 0
217 1 14.104605221988551 0.00022938835636888372 14.10456698693568 0 0 0
218 1 15.86764378400083 1.7622519387700823 14.105066398031978 0 0 0
219 1 15.87150705600126 0.000610193835877572 15.871285993733332 0 0 0
220 1 14.103557843875276 1.7622635620275329 15.866407869674896 0 0 0
237 1 14.103583321996295 3.525093125392541 14.103540625894105 0 0 0
239 1 15.86704561761507 3.5242779978588734 15.866856419603424 0 0 0
187 1 0.0002314779328513966 5.287575822513612 12.340960637499135 0 0 0
189 1 3.525269344937366 5.287934846188689 12.340595781211212 0 0 0
196 1 1.7627467102071719 7.050610306736271 12.340702429894874 0 0 0
222 1 1.7626182130503514 5.2867183934853905 14.104566986935682 0 0 0
224 1 0.0005840393791880288 5.287765771598666 15.866407869674896 0 0 0
228 1 3.5247645452989826 5.287351072656194 15.866408443982483 0 0 0
241 1 0.00022842148820917128 7.050910702000423 14.1032555515021 0 0 0
242 1 1.7628239527859546 7.051384437370122 15.865863095365027 0 0 0
243 1 3.525323700856808 7.0507828242573405 14.103282667227266 0 0 0
426 1 9.918903755704438e-05 8.81403832840012 12.340216471314854 0 0 0
427 1 3.525479805381221 8.814040491546491 12.340236257157668 0 0 0
451 1 1.7628261502384197 8.814173696658848 14.102928625664353 0 0 0
452 1 3.187355072739827e-05 8.814235012085534 15.865653826421363 0 0 0
454 1 3.5256274088017703 8.814236133775376 15.865680168642848 0 0 0
191 1 7.051060362986555 5.288223582937435 12.34027569836475 0 0 0
197 1 5.2882235829374356 7.051060362986555 12.34027569836475 0 0 0
226 1 5.287955300820932 5.287955300820932 14.103322078097612 0 0 0
232 1 7.05078539922886 5.287998535461217 15.865940065229447 0 0 0
244 1 5.287998535461217 7.050785399228859 15.865940065229447 0 0 0
245 1 7.051071137702697 7.051071137702696 14.103072072994959 0 0 0
198 1 8.81413817188462 7.05119439271686 12.340143579615132 0 0 0
230 1 8.81404366213469 5.288277706627973 14.103026140673727 0 0 0
246 1 8.814044405843132 7.0511033259058165 15.865798238282235 0 0 0
428 1 7.0511943927168605 8.81413817188462 12.340143579615132 0 0 0
453 1 5.288277706627974 8.81404366213469 14.103026140673727 0 0 0
456 1 7.051103325905817 8.814044405843132 15.865798238282235 0 0 0
455 1 8.81414313378388 8.81414313378388 14.102990869716486 0 0 0
193 1 10.577192221136096 5.28829742087295 12.340172269941798 0 0 0
199 1 12.34016741103413 7.051156204439813 12.34017695595842 0 0 0
234 1 12.34036205111472 5.288166319047072 14.10311267654091 0 0 0
236 1 10.577280496120318 5.288317062936845 15.865742025074475 0 0 0
247 1 10.577184335825294 7.051171277021946 14.102998911046202 0 0 0
248 1 12.34032058738277 7.0510030280911735 15.865815307421313 0 0 0
429 1 10.577155355177155 8.814168260296787 12.34011722152712 0 0 0
457 1 12.340152338451995 8.814139279648648 14.102998911046202 0 0 0
458 1 10.577189189184713 8.814134426289229 15.865783673136187 0 0 0
195 1 14.103210110007439 5.288113505466504 12.3403985350827 0 0 0
200 1 15.865922248923495 7.050951656175344 12.340358549469903 0 0 0
238 1 15.866230490081401 5.28774029347765 14.103540625894105 0 0 0
240 1 14.103571828320078 5.287751787153865 15.866083307709472 0 0 0
249 1 14.10315729642687 7.0509615643592225 14.10311267654091 0 0 0
250 1 15.86602193587182 7.0509789853250675 15.865885741801367 0 0 0
430 1 14.103026194600993 8.814131394337846 12.340172269941796 0 0 0
459 1 15.86579510890101 8.814042808058709 14.10296317089317 0 0 0
460 1 14.103006552537096 8.814043119353624 15.865742025074475 0 0 0
251 1 1.7628606009237924 8.814364583965675 2.9278298360366163e-19 0 0 0
262 1 1.7626413550479996 12.339816997869626 5.099505272270387e-19 0 0 0
263 1 1.7628157278559942 10.577088603388408 1.762822187645859 0 0 0
264 1 2.3648620766481222e-05 12.339939178103819 1.762612918702195 0 0 0
265 1 3.525600621863256 10.577151907734185 0 0 0 0
268 1 3.5253016796021224 12.340344630148874 1.7625902722658535 0 0 0
311 1 2.1451168302398333e-05 10.577149918815094 3.5255473884028685 0 0 0
312 1 1.7626191799185118 12.340412913473518 3.525220462565121 0 0 0
313 1 1.7627484123691646 10.577285287073822 5.288259542752366 0 0 0
314 1 0.0001008911995482837 12.340713308737671 5.287773584172347 0 0 0
315 1 3.525528506572933 10.577280807415233 3.5255128431740514 0 0 0
318 1 3.5254013665504496 12.340371959298599 5.288117464597318 0 0 0
266 1 5.287878043990225 12.340560638612171 0 0 0 0
267 1 5.288317062936845 10.577280496120318 1.7627339889927467 0 0 0
269 1 7.05109334892698 10.577291055583855 7.017112830170402e-20 0 0 0
272 1 7.051003028091173 12.340320587382768 1.7626607066459075 0 0 0
316 1 5.288166319047072 12.340362051114719 3.5253633375263096 0 0 0
317 1 5.28829742087295 10.577192221136096 5.288303744125424 0 0 0
319 1 7.051171277021946 10.577184335825294 3.525477103021019 0 0 0
322 1 7.051156204439812 12.340167411034129 5.2882990581088025 0 0 0
270 1 8.814032559890087 12.340230266546964 9.520450582561447e-19 0 0 0
271 1 8.814134426289229 10.577189189184713 1.7626923409310342 0 0 0
320 1 8.81413927964865 12.340152338451995 3.5254771030210192 0 0 0
321 1 8.814168260296787 10.577155355177155 5.288358792540101 0 0 0
273 1 10.577288177558792 10.577288177558792 6.775143422233492e-20 0 0 0
274 1 12.34069441438257 12.340694414382568 0 0 0 0
275 1 12.340220289568126 10.57727920963081 1.762677775784987 0 0 0
276 1 10.57727920963081 12.340220289568126 1.7626777757849876 0 0 0
323 1 10.577180481690062 10.577180481690062 3.5254851443507342 0 0 0
324 1 12.340252477771246 12.340252477771246 3.5254039410722635 0 0 0
325 1 12.340129222757083 10.577185443589322 5.288332434452087 0 0 0
326 1 10.577185443589322 12.340129222757083 5.288332434452087 0 0 0
261 1 17.62846301455015 10.576959031508267 1.4309761316170881e-16 -1 0 0
277 1 14.1029750734281 10.57714974832791 0 0 0 0
278 1 15.865918154656923 12.340005666107265 2.845868870388936e-16 0 0 0
279 1 15.865696206672173 10.577087481698566 1.762795845424373 0 0 0
280 1 14.103325080012725 12.340538216245083 1.762535948837773 0 0 0
327 1 14.103045908845969 10.577279953339254 3.5254498733934936 0 0 0
328 1 15.865999914617134 12.340540791216602 3.5251933468399574 0 0 0
329 1 15.865843810092722 10.577283123927451 5.288239756909551 0 0 0
330 1 14.103100032536506 12.340263252487386 5.288200315702474 0 0 0
281 1 0.00016166559647425198 14.10331106464777 4.718862318924044e-16 0 0 0
282 1 1.7578041230933292 15.871030268990813 7.219762209317565e-19 0 0 0
283 1 1.7622635620275338 14.103557843875276 1.7620681443923256 0 0 0
284 1 0.0006101938358769258 15.871507056001258 1.7571900203338886 0 0 0
285 1 3.5241274354461876 14.104147191944326 4.815049861925384e-16 0 0 0
288 1 3.5242779978588734 15.86704561761507 1.761619594463796 0 0 0
331 1 0.000229388356369545 14.104605221988551 3.52390902713154 0 0 0
332 1 1.762251938770083 15.86764378400083 3.523409616035243 0 0 0
333 1 1.76261612347387 14.10374779296033 5.287515376568088 0 0 0
334 1 0.000236718035442743 15.866223528646259 5.2880641620697855 0 0 0
335 1 3.525093125392541 14.103583321996295 3.524935388173115 0 0 0
338 1 3.5250823968464386 15.866241218627504 5.287665224528469 0 0 0
341 1 8.814131394337846 14.103026194600991 5.288303744125424 0 0 0
340 1 8.814042808058709 15.86579510890101 3.5255128431740506 0 0 0
291 1 8.814043119353624 14.103006552537096 1.7627339889927474 0 0 0
286 1 5.2871764235296155 15.867196180027754 0 0 0 0
287 1 5.287751787153865 14.103571828320078 1.7623927063577476 0 0 0
289 1 7.05076297686177 14.10344557148372 1.436893138794537e-16 0 0 0
292 1 7.050978985325068 15.866021935871819 1.7625902722658537 0 0 0
336 1 5.28774029347765 15.866230490081401 3.5249353881731156 0 0 0
337 1 5.288113505466504 14.103210110007439 5.288077478984522 0 0 0
339 1 7.050961564359223 14.10315729642687 3.525363337526309 0 0 0
342 1 7.050951656175342 15.865922248923493 5.288117464597318 0 0 0
290 1 8.814171707739758 15.865722993610685 1.4059552389455003e-16 0 0 0
346 1 10.577283123927451 15.865843810092722 5.288239756909552 0 0 0
345 1 12.340263252487386 14.103100032536506 5.288200315702473 0 0 0
344 1 12.340540791216602 15.865999914617134 3.5251933468399574 0 0 0
343 1 10.577279953339252 14.103045908845969 3.5254498733934936 0 0 0
296 1 10.577087481698566 15.865696206672173 1.762795845424373 0 0 0
295 1 12.340538216245083 14.103325080012725 1.7625359488377736 0 0 0
294 1 12.340005666107265 15.86591815465692 0 0 0 0
293 1 10.57714974832791 14.1029750734281 0 0 0 0
13 1 10.576959031508267 17.62846301455015 0 0 -1 0
350 1 14.103388769285253 15.866054270536576 5.287880232856009 0 0 0
349 1 15.866054270536576 14.103388769285251 5.2878802328560095 0 0 0
348 1 15.866591012617269 15.866591012617269 3.5244946696437416 0 0 0
347 1 14.103368314653009 14.103368314653009 3.52515393596961 0 0 0
300 1 14.103972542817749 15.86655907017496 1.7620675700847384 0 0 0
299 1 15.866559070174961 14.103972542817749 1.7620675700847388 0 0 0
298 1 15.871905228094443 15.871905228094443 0 0 0 0
297 1 14.104700483606115 14.104700483606115 4.428040165245461e-19 0 0 0
361 1 8.713866911114193e-05 10.577299891487101 7.051080952438449 0 0 0
362 1 1.762746826845927 12.340351176871103 7.050974153586965 0 0 0
363 1 1.7627605567584113 10.577199634011253 8.81423800703361 0 0 0
364 1 8.808609303001643e-05 12.340153459033457 8.81423800703361 0 0 0
365 1 3.5254843759136993 10.577190922928786 7.051192562943391 0 0 0
368 1 3.5254875176233202 12.340177465094461 8.81423800703361 0 0 0
406 1 8.713866911052704e-05 10.577299891487101 10.577395061628772 0 0 0
407 1 1.7627468268459274 12.340351176871103 10.577501860480258 0 0 0
408 1 3.5254843759137 10.577190922928786 10.57728345112383 0 0 0
366 1 5.288285813988636 12.340168949901216 7.051192989298569 0 0 0
367 1 5.288322915402562 10.577161083291973 8.81423800703361 0 0 0
369 1 7.0512193543797315 10.577154569003545 7.051267425934012 0 0 0
372 1 7.051211697117963 12.34011191835598 8.81423800703361 0 0 0
409 1 5.288285813988636 12.340168949901216 10.577283024768652 0 0 0
410 1 7.051219354379731 10.577154569003545 10.57720858813321 0 0 0
370 1 8.814169046470397 12.340104261094211 7.051267425934012 0 0 0
371 1 8.814178319920224 10.577145295553718 8.81423800703361 0 0 0
411 1 8.814169046470397 12.34010426109421 10.57720858813321 0 0 0
373 1 10.577150582577268 10.577150582577268 7.051281204079395 0 0 0
374 1 12.34012864591422 12.34012864591422 7.051234249804461 0 0 0
375 1 12.340096383485772 10.577154088563024 8.81423800703361 0 0 0
376 1 10.577154088563024 12.340096383485772 8.81423800703361 0 0 0
412 1 10.577150582577268 10.577150582577268 10.577194809987827 0 0 0
413 1 12.34012864591422 12.340128645914218 10.57724176426276 0 0 0
377 1 14.103008529747665 10.577182353406219 7.051234111306208 0 0 0
378 1 15.865854148836386 12.340232647182809 7.051094463163445 0 0 0
379 1 15.865830091757724 10.577193366640733 8.81423800703361 0 0 0
380 1 14.103005916180232 12.34013341564951 8.81423800703361 0 0 0
414 1 14.103008529747667 10.577182353406219 10.577241902761013 0 0 0
415 1 15.865854148836386 12.340232647182809 10.577381550903775 0 0 0
381 1 0.00010256868899480149 14.103100077649707 7.051106959323664 0 0 0
382 1 1.7628100746305775 15.865781063108038 7.051302675231132 0 0 0
383 1 1.7628207675886993 14.10293795050084 8.814238007033609 0 0 0
384 1 2.5794741153906694e-05 15.865675397788861 8.81423800703361 0 0 0
385 1 3.5254399847748297 14.103135454929141 7.050980677591713 0 0 0
388 1 3.5256185472977712 15.865705068176172 8.81423800703361 0 0 0
416 1 0.00010256868899507559 14.103100077649707 10.577369054743556 0 0 0
417 1 1.7628100746305773 15.865781063108038 10.577173338836088 0 0 0
418 1 3.5254399847748297 14.103135454929141 10.577495336475508 0 0 0
103 1 1.7628510299965396 17.628472585477404 8.81423800703361 0 -1 0
421 1 8.814132692545158 15.865839239560245 10.57728345112383 0 0 0
391 1 8.814162532181971 14.10300070007138 8.81423800703361 0 0 0
390 1 8.814132692545156 15.865839239560243 7.051192562943392 0 0 0
386 1 5.288188160544802 15.865883630699111 7.0509806775917125 0 0 0
387 1 5.28829097472733 14.10303264074661 8.81423800703361 0 0 0
389 1 7.051154665572726 14.103037801485307 7.05119298929857 0 0 0
392 1 7.051146150379482 15.865836097850622 8.81423800703361 0 0 0
419 1 5.288188160544802 15.865883630699113 10.577495336475508 0 0 0
420 1 7.051154665572726 14.103037801485307 10.577283024768652 0 0 0
423 1 12.340232647182809 15.865854148836386 10.577381550903775 0 0 0
422 1 10.577182353406219 14.103008529747665 10.577241902761013 0 0 0
396 1 10.577193366640733 15.865830091757724 8.81423800703361 0 0 0
395 1 12.340133415649507 14.103005916180232 8.81423800703361 0 0 0
394 1 12.340232647182809 15.865854148836387 7.051094463163445 0 0 0
393 1 10.577182353406219 14.103008529747667 7.051234111306207 0 0 0
425 1 15.865820958442136 15.865820958442136 10.57730748659419 0 0 0
424 1 14.103065234708776 14.103065234708776 10.577387443668677 0 0 0
400 1 14.102963673949613 15.865776358798586 8.81423800703361 0 0 0
399 1 15.865776358798586 14.102963673949613 8.81423800703361 0 0 0
398 1 15.865820958442136 15.865820958442136 7.051168527473031 0 0 0
397 1 14.103065234708776 14.103065234708776 7.051088570398544 0 0 0
431 1 1.7627484123691644 10.577285287073822 12.340216471314854 0 0 0
432 1 0.0001008911995500787 12.340713308737671 12.340702429894874 0 0 0
434 1 3.5254013665504496 12.340371959298599 12.340358549469903 0 0 0
461 1 2.1451168301872945e-05 10.577149918815094 14.102928625664353 0 0 0
462 1 1.7626191799185118 12.34041291347352 14.1032555515021 0 0 0
463 1 1.7628157278559948 10.57708860338841 15.865653826421363 0 0 0
464 1 2.3648620767388717e-05 12.33993917810382 15.865863095365027 0 0 0
465 1 3.525528506572934 10.577280807415233 14.102963170893169 0 0 0
468 1 3.525301679602123 12.340344630148874 15.865885741801366 0 0 0
433 1 5.28829742087295 10.577192221136096 12.340172269941798 0 0 0
436 1 7.051156204439813 12.340167411034129 12.340176955958418 0 0 0
466 1 5.288166319047072 12.340362051114719 14.10311267654091 0 0 0
467 1 5.288317062936846 10.577280496120318 15.865742025074475 0 0 0
469 1 7.051171277021945 10.577184335825294 14.102998911046202 0 0 0
472 1 7.051003028091173 12.340320587382768 15.865815307421313 0 0 0
435 1 8.814168260296787 10.577155355177155 12.34011722152712 0 0 0
470 1 8.814139279648648 12.340152338451995 14.1029989110462 0 0 0
471 1 8.814134426289229 10.577189189184715 15.865783673136187 0 0 0
437 1 12.340129222757083 10.577185443589322 12.340143579615132 0 0 0
438 1 10.577185443589322 12.340129222757083 12.340143579615134 0 0 0
473 1 10.577180481690062 10.577180481690062 14.102990869716486 0 0 0
474 1 12.340252477771248 12.340252477771246 14.103072072994959 0 0 0
475 1 12.340220289568126 10.57727920963081 15.865798238282235 0 0 0
476 1 10.57727920963081 12.340220289568125 15.865798238282235 0 0 0
439 1 15.865843810092722 10.57728312392745 12.340236257157668 0 0 0
440 1 14.103100032536508 12.340263252487386 12.34027569836475 0 0 0
477 1 14.103045908845969 10.577279953339254 14.103026140673727 0 0 0
478 1 15.865999914617134 12.340540791216602 14.103282667227264 0 0 0
479 1 15.865696206672173 10.577087481698566 15.865680168642848 0 0 0
480 1 14.103325080012725 12.340538216245083 15.865940065229447 0 0 0
441 1 1.76261612347387 14.10374779296033 12.340960637499133 0 0 0
442 1 0.00023671803544293731 15.86622352864626 12.340411851997434 0 0 0
444 1 3.5250823968464378 15.866241218627504 12.340810789538752 0 0 0
481 1 0.0002293883563709543 14.104605221988551 14.10456698693568 0 0 0
482 1 1.7622519387700835 15.86764378400083 14.105066398031976 0 0 0
483 1 1.7622635620275335 14.103557843875276 15.866407869674896 0 0 0
484 1 0.0006101938358780429 15.871507056001258 15.871285993733334 0 0 0
485 1 3.525093125392541 14.103583321996295 14.103540625894103 0 0 0
488 1 3.5242779978588734 15.867045617615071 15.866856419603424 0 0 0
491 1 8.814043119353625 14.103006552537096 15.865742025074475 0 0 0
490 1 8.814042808058709 15.865795108901008 14.10296317089317 0 0 0
445 1 8.814131394337846 14.103026194600991 12.340172269941798 0 0 0
443 1 5.288113505466504 14.103210110007439 12.340398535082699 0 0 0
446 1 7.050951656175344 15.865922248923493 12.340358549469903 0 0 0
486 1 5.28774029347765 15.866230490081401 14.103540625894105 0 0 0
487 1 5.287751787153864 14.103571828320078 15.866083307709472 0 0 0
489 1 7.050961564359223 14.103157296426872 14.103112676540912 0 0 0
492 1 7.050978985325068 15.866021935871819 15.865885741801366 0 0 0
496 1 10.577087481698566 15.865696206672173 15.865680168642848 0 0 0
495 1 12.340538216245083 14.103325080012727 15.865940065229447 0 0 0
494 1 12.340540791216604 15.865999914617134 14.103282667227264 0 0 0
493 1 10.577279953339252 14.103045908845969 14.103026140673727 0 0 0
448 1 10.577283123927451 15.86584381009272 12.340236257157668 0 0 0
447 1 12.340263252487386 14.103100032536506 12.34027569836475 0 0 0
500 1 14.103972542817749 15.86655907017496 15.866408443982483 0 0 0
499 1 15.86655907017496 14.103972542817749 15.866408443982484 0 0 0
498 1 15.866591012617269 15.866591012617269 14.10398134442348 0 0 0
497 1 14.10336831465301 14.103368314653009 14.103322078097612 0 0 0
450 1 14.103388769285253 15.866054270536575 12.340595781211212 0 0 0
449 1 15.866054270536576 14.103388769285253 12.340595781211212 0 0 0

Velocities

1 -3.6408177339241877e-09 -3.6408194045420285e-09 1.0428532530541978e-15
2 3.640816561640815e-09 3.64082032537746e-09 -4.743870456758298e-16
3 1.155728205459876e-09 -1.1557323406272645e-09 6.259524755576296e-10
4 -1.155729783100416e-09 1.1557327163745636e-09 6.259502730310938e-10
5 3.624374020440145e-09 -1.330410948313703e-09 5.425023833929264e-16
8 -4.078772922992721e-09 -4.527988680840967e-10 -2.70873003957481e-09
21 -1.3304101288975359e-09 3.6243691923375904e-09 1.2098470396845521e-17
23 -4.528008229136503e-10 -4.078774945346567e-09 -2.708730013040289e-09
25 -1.9544614316768467e-09 -1.9544616433026056e-09 -5.802911995230735e-16
51 1.6410548271941428e-09 1.6410519320301768e-09 -7.998517615277266e-09
52 -1.6410551949876429e-09 -1.6410527414178465e-09 -7.998518469145718e-09
53 -2.317260105241777e-10 2.3172300435674584e-10 3.760210760485638e-09
54 2.3172692516853972e-10 -2.3172117960494824e-10 3.760209940209345e-09
55 8.011715295774845e-10 -4.423582187209639e-09 -6.420115504561496e-09
58 -6.726757368734534e-10 -4.254495356535435e-09 2.781881732905166e-09
71 -4.4235753578286796e-09 8.011711143636518e-10 -6.420111519407461e-09
73 -4.2545004608176615e-09 -6.726799232088647e-10 2.7818796180972665e-09
75 1.5816918424730916e-09 1.5816894457885542e-09 -1.3856692645008844e-09
6 3.5630026550297013e-09 -4.187506821547715e-09 -3.6308643892533114e-16
7 3.5815719109419086e-09 -3.5539854600352967e-09 -2.5979477108176267e-09
9 5.134409020608115e-09 2.600706554058548e-10 -3.7021319414347294e-16
12 4.337904592367828e-09 -4.028539008483469e-09 -1.1413971544145104e-09
27 -4.045826241134323e-09 2.0117398174102526e-10 3.1199089986515843e-09
29 1.4439580737014828e-10 -1.6110139374427992e-09 -1.1711310482962091e-15
56 -6.623370295351568e-10 -2.937607524608669e-09 1.1010923964872916e-09
57 8.156793413075132e-10 -3.251459563702891e-11 -1.1717856692133048e-09
59 -8.42126377856549e-10 -5.088326285623702e-12 2.255942165736139e-09
62 -3.451868994055838e-10 -6.545927094211495e-09 1.2259301231588932e-09
77 -4.249327228334321e-09 -2.3757263338556696e-09 -1.6430108971002989e-09
79 4.363485261664703e-09 -4.211392282551786e-09 2.9704615342934534e-09
11 2.4467717966277645e-09 3.2589468956835053e-09 5.922845841561686e-10
31 -2.4559678454887156e-09 -3.908020338199623e-09 -1.788246020327661e-09
60 -2.9587333182958496e-09 -1.9549640146231314e-09 4.257904612877534e-09
61 1.4161169073553613e-09 1.2142239226775715e-09 2.020789000330324e-09
81 -1.29479074744115e-10 -4.0741855770597465e-10 4.330140451079944e-09
10 8.344525521892321e-10 -3.065267661245735e-10 -4.2011938453046074e-16
14 -5.134411788660164e-09 -2.6007455404563043e-10 9.231159496346251e-16
15 -4.3379048968983796e-09 4.0285418725470406e-09 -1.1413986437862068e-09
16 -2.446771308040962e-09 -3.2589447324769982e-09 5.922838703464152e-10
33 -1.4513888913021578e-09 4.1051068255352283e-10 1.069504783081144e-15
35 -2.697635401428613e-09 -9.948478504672848e-11 -3.962093754463968e-09
63 2.958730568852288e-09 1.9549639807474143e-09 4.257904205764005e-09
64 8.421311494932735e-10 5.085969503590396e-12 2.2559444819882966e-09
65 3.4518605662306405e-10 6.5459301517788176e-09 1.2259317852482922e-09
66 -1.4161180539376796e-09 -1.2142279054940263e-09 2.020789705671148e-09
83 -9.543973930245837e-09 2.4002520794107814e-10 2.1994495898423554e-09
85 -2.3338376293315693e-09 2.375316416497841e-09 -1.497814871867325e-09
17 -3.5630039054680545e-09 4.187506644910047e-09 -1.0743441712398823e-15
18 -3.6243700489092945e-09 1.3304110308385039e-09 -1.4276195068277715e-16
19 4.078773868336951e-09 4.527999832798048e-10 -2.7087308054900997e-09
20 -3.581574187647191e-09 3.553986997145961e-09 -2.597946167052804e-09
37 -8.003693364505053e-09 1.913235795584591e-09 5.576638698545983e-17
39 -2.773773979306665e-10 2.7737590293307664e-10 1.7063289296192147e-09
67 6.623374417810836e-10 2.9376095734846308e-09 1.1010905613005632e-09
68 -8.011740757667431e-10 4.4235777221533525e-09 -6.420112799728091e-09
69 6.726779980397629e-10 4.254493264647469e-09 2.7818794109109607e-09
70 -8.156806036316682e-10 3.2517182289999755e-11 -1.1717889201573679e-09
87 -3.1731309989594292e-09 2.1061132238214786e-09 -5.30240784782203e-10
89 2.1204874734005895e-10 -2.120500809695739e-10 -4.905712848173126e-09
22 -4.187507426471235e-09 3.5630039866270515e-09 -8.515199428857926e-16
24 -3.5539836888192306e-09 3.581573626089126e-09 -2.5979470269515875e-09
28 2.0117401043235877e-10 -4.045824755494329e-09 3.1199091968638733e-09
41 2.600747398494608e-10 5.134407817566466e-09 -1.7391551195465436e-16
42 -4.028539385955745e-09 4.337904901483747e-09 -1.1413974741165906e-09
43 -1.6110141987933897e-09 1.4439580148787256e-10 -1.0466449950092919e-15
72 -2.937610205629709e-09 -6.623355544386056e-10 1.1010908395842863e-09
74 -3.251474565806183e-11 8.156785141502154e-10 -1.1717879219484928e-09
78 -2.375723103077299e-09 -4.249322867856376e-09 -1.6430104325370535e-09
91 -5.083300581020852e-12 -8.42127953568895e-10 2.2559426871802134e-09
92 -6.545927665259298e-09 -3.4518865385274457e-10 1.225932388597475e-09
93 -4.211391600046825e-09 4.363482697246272e-09 2.9704582860827705e-09
252 3.2589480764942158e-09 2.446772384613426e-09 5.922849289625749e-10
254 -3.9080215803722635e-09 -2.4559686333076716e-09 -1.7882457506085683e-09
301 -1.9549652389883356e-09 -2.958729985469717e-09 4.2579037169858006e-09
302 1.214226618216776e-09 1.4161199518503692e-09 2.0207897643487294e-09
304 -4.074182319546592e-10 -1.294749862534215e-10 4.330142654269591e-09
26 -1.5773905697992695e-09 -1.5773900790115488e-09 -2.003800298293167e-16
32 -3.1583120451639405e-09 -3.684493493836183e-09 -3.688083696066893e-09
44 -3.684493803345723e-09 -3.1583122121228322e-09 -3.688080557723672e-09
45 -4.573915900842199e-09 -4.57391831834343e-09 -1.4608903004190967e-16
76 -3.492999097123688e-09 -3.4929978855442036e-09 6.631376371703507e-09
82 -2.5924917984619124e-09 5.2916982625601645e-09 3.201550347149369e-09
94 5.2916976657936604e-09 -2.592493539490596e-09 3.201549333334176e-09
95 -4.363050067736484e-09 -4.363048443369602e-09 8.983472673969778e-09
30 -7.569836142842592e-09 -5.441797872318213e-09 6.450617313224357e-17
46 -1.8782093644763486e-09 -1.6163976394142326e-09 -3.4365914629106917e-09
80 4.68410677622022e-09 -2.1000522612854827e-10 4.5863012012789856e-09
96 -1.9707303486453916e-09 -7.632413117333525e-10 1.8323954784202403e-09
253 -5.4417987445304985e-09 -7.56983489105527e-09 -1.378015778200705e-15
256 -1.6163979052314507e-09 -1.878209298945084e-09 -3.43659075454525e-09
303 -2.1000390748281593e-10 4.684102958035415e-09 4.5862999675599155e-09
306 -7.632422657966932e-10 -1.9707304653991752e-09 1.8323956837917752e-09
255 -1.6859628517020924e-09 -1.6859627946537875e-09 -8.553618570569784e-16
305 -3.068178593079601e-09 -3.0681789932956248e-09 -1.6115777189361102e-09
34 -1.0283928626341065e-09 1.7966822141476145e-09 -3.5265505268180093e-16
36 -5.048021770762529e-09 -7.431007155338631e-10 -5.54153386669136e-09
47 -3.0339258007030224e-09 -5.624180962752896e-10 -2.2289541320188364e-16
48 -3.802901551513014e-09 3.802899463780666e-09 -7.773680314097242e-09
84 -9.68289927362335e-09 -2.6347235056826036e-10 3.0278218562868532e-09
86 -2.5509506530750166e-09 6.231612107239694e-09 3.1287189714239952e-09
97 -2.5128831531889027e-09 -1.0595545251067436e-09 4.4845451443871245e-09
98 -4.125060813932501e-09 4.125059258870805e-09 1.0893479438940393e-09
257 5.624175280689733e-10 3.033927170348351e-09 1.7562572053858346e-16
258 -2.680729437129774e-10 2.6807405023107527e-10 2.004385915338604e-09
307 1.0595526017820437e-09 2.5128843235883255e-09 4.48454453057879e-09
308 -5.196752518485036e-11 5.1967761273680973e-11 -2.5053532653839386e-09
100 -2.3753172698454455e-09 2.3338384166903344e-09 -1.4978149010315504e-09
38 -1.9132347303142726e-09 8.003695236743347e-09 -3.7505258230221115e-16
40 -2.7795540292477234e-09 2.7795571770050666e-09 -2.5390990043931684e-09
49 -1.7966799545907916e-09 1.0283906866344124e-09 1.828759415923181e-16
50 9.947920201852526e-11 2.6976339874198852e-09 -3.962092858874697e-09
88 -2.106120077642766e-09 3.173130833642423e-09 -5.302412796480407e-10
90 -4.949161262818253e-09 4.949162531645336e-09 -5.1902358533664485e-09
99 2.6347458364402456e-10 9.682897773932877e-09 3.0278211089961487e-09
259 -4.1051133466107723e-10 1.4513901785844293e-09 -1.3550286844466984e-16
260 7.431025542107166e-10 5.048022491289289e-09 -5.54153490502486e-09
309 -2.4002429836944885e-10 9.54397439056022e-09 2.199450117515251e-09
310 -6.231612240230712e-09 2.5509523180400507e-09 3.128721719388034e-09
101 4.509843121101416e-09 4.509838373661632e-09 -1.0050922847189306e-11
102 -4.509841877378659e-09 -4.509839769220192e-09 -1.0051912464260048e-11
105 -1.5101894576343706e-09 6.079637531345376e-10 -3.700879820865568e-09
108 -5.255192357635285e-10 -3.685438434857341e-09 -9.583754883719942e-17
121 6.079665918433073e-10 -1.510191898784331e-09 -3.7008804683977974e-09
123 -3.6854400326838433e-09 -5.255210142386769e-10 -2.78264819127447e-16
125 -4.618582096238389e-09 -4.61858503334116e-09 6.2600940683688745e-09
151 4.5098412482581985e-09 4.509842189519195e-09 1.0050530856748448e-11
152 -4.5098425161778965e-09 -4.509841573102128e-09 1.0051583423672974e-11
153 -1.5101914372276855e-09 6.079656542118516e-10 3.700879100968181e-09
161 6.079664932407736e-10 -1.5101929803875845e-09 3.7008806087400544e-09
163 -4.618583784667364e-09 -4.618583337023959e-09 -6.2600934075794265e-09
106 -3.5189784100641743e-09 -6.6692806786836526e-09 -1.150912642346294e-09
107 -1.890028222308242e-09 -3.1355120659067836e-09 -8.76534180251458e-16
109 4.436405410631952e-11 4.132833761233548e-10 3.750700651968581e-09
112 -1.9129658564850056e-09 9.754884600746788e-10 8.692750980133507e-16
127 -1.86615639577463e-09 4.039331518138298e-10 -7.552892528352581e-16
129 -3.142305673867757e-09 -1.4795947254473741e-09 1.939364833968761e-09
154 -3.5189774194115266e-09 -6.6692817442020765e-09 1.1509097329914366e-09
155 4.436499251283353e-11 4.1328488117307215e-10 -3.750700241830435e-09
165 -3.1423051325355093e-09 -1.4795964290112513e-09 -1.9393636634842837e-09
110 -8.978811903482126e-10 1.7886294332554694e-09 2.5338313013460525e-09
111 -8.205010060058081e-10 -3.6773506783965878e-09 -8.099925930688077e-16
131 -2.6338947754157358e-09 1.3399303708098389e-10 -2.2779801114248037e-16
156 -8.978854344541154e-10 1.7886305511541341e-09 -2.5338310043286043e-09
113 8.978827999368664e-10 -1.7886284363415087e-09 2.533831149510249e-09
114 -4.436476371764378e-11 -4.132842520526115e-10 3.750697862666231e-09
115 1.91296489461762e-09 -9.754876023114408e-10 4.511955581254831e-16
116 8.204992738335973e-10 3.677347760245528e-09 -3.5267041206804693e-16
133 3.648778683689661e-10 6.57514326223349e-09 7.03279720297913e-10
135 -8.176286194637969e-10 7.730754709722983e-09 -8.017951114056325e-16
157 8.978852641117284e-10 -1.7886288234925615e-09 -2.533830688558527e-09
158 -4.436406953895822e-11 -4.132847698671445e-10 -3.750700126290043e-09
167 3.6487682722005723e-10 6.575143831173513e-09 -7.032789039486017e-10
104 -6.17802399652376e-10 6.178005255993115e-10 9.799761021444873e-16
117 3.518980723345472e-09 6.66928359985933e-09 -1.1509098017955796e-09
118 1.51018861435208e-09 -6.079642486720532e-10 -3.7008783100306787e-09
119 5.255186598763376e-10 3.6854419587603306e-09 -6.992915889376712e-16
120 1.8900298356617177e-09 3.135513111660934e-09 -1.0368389130096612e-15
137 4.5758904059184507e-10 -2.1921515474730524e-10 6.798249168106375e-09
139 -1.7924284981417236e-09 1.7924247464060536e-09 -4.065086053340095e-16
159 3.51897975546784e-09 6.66928271842905e-09 1.1509149318494896e-09
160 1.5101933360826142e-09 -6.07965929452053e-10 3.70087915752853e-09
169 4.5758895227301115e-10 -2.1921577318117753e-10 -6.79824694864198e-09
122 -6.669282396666449e-09 -3.518975861865199e-09 -1.1509121707706026e-09
124 -3.1355115981422873e-09 -1.8900262877852737e-09 -3.6688493329309074e-16
128 4.0393587528289663e-10 -1.866155629429868e-09 1.1689113216108505e-16
141 4.132848860124603e-10 4.4364859864447945e-11 3.750701474664568e-09
142 9.754865001224745e-10 -1.9129682790465644e-09 -1.1910944105694416e-15
143 -1.4795961165729794e-09 -3.1423077109011426e-09 1.9393639640890347e-09
162 -6.669281922406409e-09 -3.518978124594031e-09 1.1509107218842531e-09
171 4.132860716625592e-10 4.436470500402687e-11 -3.750701249028096e-09
172 -1.4795946463347202e-09 -3.142307314482544e-09 -1.9393625449420017e-09
351 1.788628750901739e-09 -8.97881567102733e-10 2.5338306540778866e-09
352 -3.6773507485677162e-09 -8.204992241610468e-10 -1.696205549637742e-15
354 1.3399378790922113e-10 -2.633889932783202e-09 -7.456125441274687e-16
401 1.7886295300432326e-09 -8.978815834167641e-10 -2.5338266525088027e-09
126 -3.6740616658915585e-11 -3.674044310257697e-11 7.49300595513663e-09
132 -4.369944719553928e-09 3.3284522598392996e-09 -5.609132661640635e-16
144 3.328451868445881e-09 -4.369947893300395e-09 -3.1456023031798356e-16
145 3.610920277741795e-09 3.6109181546901004e-09 2.895033463999427e-09
164 -3.6739885616189255e-11 -3.6737620784340124e-11 -7.493006633492194e-09
173 3.610919865421268e-09 3.610917310216867e-09 -2.8950338039664452e-09
130 -2.506179615108984e-09 6.973183229111416e-09 -1.6381378472663581e-09
146 -1.1570840534635201e-09 1.0050778389033073e-08 -3.520654885482047e-16
166 -2.506179135974407e-09 6.973183097898635e-09 1.6381395580940435e-09
353 6.973183624047315e-09 -2.5061750669915e-09 -1.6381382634537398e-09
356 1.005077939282228e-08 -1.1570809935076054e-09 -5.32332697461203e-16
402 6.973181877903453e-09 -2.5061760488579884e-09 1.638139945141125e-09
355 3.811941541760573e-09 3.8119412798286895e-09 8.999353964201887e-09
403 3.811941512548313e-09 3.811941767245815e-09 -8.999352234725543e-09
134 -1.8769079196527832e-09 9.440578155526068e-09 -2.458319011086458e-09
136 5.663955138217217e-10 3.22398924965143e-09 -1.0232597387041392e-15
147 -4.488083920149466e-09 5.768772373957955e-09 -1.9127989180037906e-10
148 -6.66246560047674e-10 6.662436917021661e-10 -2.1810210320188344e-16
168 -1.8769079269130467e-09 9.440582431468138e-09 2.4583234864215615e-09
174 -4.488083134983309e-09 5.768771818638164e-09 1.912802226935444e-10
357 -5.7687719293391686e-09 4.488085371979524e-09 -1.9127996136658384e-10
358 -9.726205261201004e-09 9.726206934578813e-09 -3.508556415085201e-16
404 -5.768771459610517e-09 4.48808543778386e-09 1.9127933043135264e-10
175 -9.440582191252655e-09 1.876906555860978e-09 2.458323260697328e-09
138 2.1921284569692768e-10 -4.57588093281613e-10 6.798248944284672e-09
140 -5.452894223383926e-09 5.452894585128191e-09 -1.5803626955879461e-15
149 -9.440578370555703e-09 1.876907646538084e-09 -2.458321719957123e-09
150 -7.730752272206664e-09 8.176278445780348e-10 -1.636923044693199e-15
170 2.1921455158125362e-10 -4.575897362538929e-10 -6.798245743634329e-09
359 -6.57514137412068e-09 -3.6487496064348497e-10 7.032792913595824e-10
360 -3.2239872475731556e-09 -5.663915802723287e-10 3.236340831156177e-16
405 -6.5751433286285724e-09 -3.648749612484085e-10 -7.032813402355442e-10
176 -2.3172467001365773e-10 2.3172601838818345e-10 -3.760209327421819e-09
177 2.3172486116949002e-10 -2.3172270552452705e-10 -3.760213861928524e-09
179 -6.72678705800281e-10 -4.254496744137132e-09 -2.781877014808899e-09
186 -4.254497247463924e-09 -6.726789677321651e-10 -2.7818813666287005e-09
201 1.6410561531864984e-09 1.6410505225583756e-09 7.99851854564964e-09
202 -1.641051202492412e-09 -1.6410552367273658e-09 7.99851811615394e-09
203 1.1557297153489817e-09 -1.1557312188863903e-09 -6.259534658174316e-10
204 -1.1557303589876069e-09 1.1557323679386162e-09 -6.259512723647487e-10
205 8.011701867134341e-10 -4.423575706226819e-09 6.420112403807272e-09
208 -4.078774236324216e-09 -4.527987709640391e-10 2.708729094345184e-09
221 -4.423582009567703e-09 8.011715257116452e-10 6.420113022037485e-09
223 -4.527998163209133e-10 -4.078775644997329e-09 2.7087339492776323e-09
225 1.5816917022537101e-09 1.5816890719198262e-09 1.385665113563763e-09
178 8.156799454748787e-10 -3.2520567442016793e-11 1.1717860817711453e-09
181 -3.45187347653912e-10 -6.545926789330041e-09 -1.2259340072026793e-09
188 -4.249324680630252e-09 -2.3757248554792986e-09 1.6430151202167144e-09
206 -6.623382388587959e-10 -2.937607287478649e-09 -1.101093104096579e-09
207 3.5815752193820615e-09 -3.553989002467429e-09 2.5979482467798653e-09
209 -8.421280102615711e-10 -5.089841014117387e-12 -2.2559426738718956e-09
212 4.337905790780396e-09 -4.0285369759404424e-09 1.1413972994071166e-09
227 -4.045823460162299e-09 2.0117185596888708e-10 -3.1199072338846884e-09
229 4.363483359371691e-09 -4.2113920224677546e-09 -2.970457493860692e-09
180 1.4161181150851686e-09 1.2142241259318742e-09 -2.020788076612109e-09
190 -1.294745436862663e-10 -4.0741921877868464e-10 -4.330142151613591e-09
210 -2.9587296176564267e-09 -1.9549637726537233e-09 -4.25790323909622e-09
211 2.446772181368575e-09 3.2589457197121827e-09 -5.922857371403974e-10
231 -2.455972677129901e-09 -3.908021710624585e-09 1.7882458790109697e-09
182 3.4518684028021716e-10 6.545926903692782e-09 -1.2259340444286954e-09
183 -1.4161185887092705e-09 -1.2142262359051115e-09 -2.020788832312816e-09
192 -2.3338375306261445e-09 2.3753161001123965e-09 1.4978162667571613e-09
213 2.958730684480111e-09 1.954962054670927e-09 -4.25790332499536e-09
214 8.421268897636257e-10 5.088405533734871e-12 -2.255942021710288e-09
215 -4.337904906643319e-09 4.028536529688834e-09 1.1413967624732525e-09
216 -2.4467706896971785e-09 -3.258944698601281e-09 -5.922853423710891e-10
233 -9.54397106760694e-09 2.400222800167228e-10 -2.1994515171898318e-09
235 -2.6976352371314366e-09 -9.948380880886465e-11 3.962089399295525e-09
184 6.726760453466407e-10 4.254493995395081e-09 -2.781883194102654e-09
185 -8.156805879036568e-10 3.251669351179572e-11 1.1717850149750048e-09
194 2.1205005384962373e-10 -2.1204624147864124e-10 4.90571522149131e-09
217 6.623376955086925e-10 2.9376089643266464e-09 -1.1010892471042164e-09
218 -8.011694181581021e-10 4.42357920937673e-09 6.420113536222476e-09
219 4.078770529159122e-09 4.527999034299001e-10 2.708732792058939e-09
220 -3.581574066662487e-09 3.5539861079083864e-09 2.597947465823601e-09
237 -3.1731316152036105e-09 2.1061152989212294e-09 5.302434407751231e-10
239 -2.7737676614476155e-10 2.773759917953965e-10 -1.7063320540491946e-09
187 -3.2519667315819267e-11 8.156784410300848e-10 1.1717867060522178e-09
189 -2.375723684503321e-09 -4.249322777782585e-09 1.643014895185165e-09
196 -6.545926895796581e-09 -3.4518819532071653e-10 -1.225932538618508e-09
222 -2.937608947388788e-09 -6.623353238575918e-10 -1.1010929135456703e-09
224 -3.5539849373813756e-09 3.5815749945773588e-09 2.597948940022219e-09
228 2.0117294490683822e-10 -4.045822795610023e-09 -3.1199064637154395e-09
241 -5.0825867712674386e-12 -8.421276064562178e-10 -2.2559411664024844e-09
242 -4.02854024252745e-09 4.337903990468926e-09 1.141397957015694e-09
243 -4.211390073966563e-09 4.363482392356732e-09 -2.970462637694542e-09
426 1.2142289132966102e-09 1.4161205156390897e-09 -2.0207903426556144e-09
427 -4.07419447862749e-10 -1.2947585657532078e-10 -4.330143164729341e-09
451 -1.9549657858391975e-09 -2.958728841559341e-09 -4.257903188585106e-09
452 3.258946990656498e-09 2.4467733210350347e-09 -5.922853560385799e-10
454 -3.9080203944835036e-09 -2.45596721249828e-09 1.7882458806364062e-09
191 -2.5924927784211926e-09 5.291698859005303e-09 -3.2015507310099686e-09
197 5.29169663298127e-09 -2.5924934977508735e-09 -3.201549927671534e-09
226 -3.4930001449092326e-09 -3.4929997878803963e-09 -6.631379869265851e-09
232 -3.158310239154434e-09 -3.684494971363034e-09 3.6880835560554537e-09
244 -3.68449371977833e-09 -3.1583094318943348e-09 3.688083841248538e-09
245 -4.363049738169111e-09 -4.363048663126383e-09 -8.98347469155985e-09
198 -1.970730262144873e-09 -7.632410516162389e-10 -1.832394033560413e-09
230 4.68410353000217e-09 -2.100022584561851e-10 -4.5862993538198125e-09
246 -1.8782087602040333e-09 -1.6163988123609377e-09 3.436590908195824e-09
428 -7.6324208571385e-10 -1.970730567275917e-09 -1.8323938505450555e-09
453 -2.1000323016657444e-10 4.68410251997863e-09 -4.5862989873770525e-09
456 -1.6163993212481227e-09 -1.878208880205681e-09 3.4365907630141797e-09
455 -3.0681789156639703e-09 -3.068178405621877e-09 1.6115771726582716e-09
193 -2.5509499518249914e-09 6.231612127110014e-09 -3.1287219268768014e-09
199 -4.125060317365907e-09 4.125057075580764e-09 -1.0893525270214718e-09
234 -9.682903684590967e-09 -2.634750432417577e-10 -3.0278194478312663e-09
236 -5.0480197217933475e-09 -7.430992174578241e-10 5.541533259254809e-09
247 -2.5128840163247268e-09 -1.0595567401818978e-09 -4.484545082183973e-09
248 -3.802901530967195e-09 3.802897581863596e-09 7.773681323109673e-09
429 -5.19687957453629e-11 5.196818609156083e-11 2.505352039517059e-09
457 1.0595581389080362e-09 2.512885689535157e-09 -4.484546120526925e-09
458 -2.6807435694782826e-10 2.680753504952773e-10 -2.0043837636256437e-09
195 -4.949160607686081e-09 4.949162358032286e-09 5.190232545947104e-09
200 -2.3753197941912937e-09 2.3338360173368084e-09 1.4978163304658279e-09
238 -2.1061154511876866e-09 3.1731275888326625e-09 5.302384377173445e-10
240 -2.779555448398301e-09 2.779554871301263e-09 2.5391021427363892e-09
249 2.63475855231071e-10 9.68290368645536e-09 -3.027820159298418e-09
250 9.948009356237036e-11 2.6976366464746397e-09 3.962091933341711e-09
430 -6.231612672242273e-09 2.5509515842034297e-09 -3.128717975541181e-09
459 -2.4002600160073615e-10 9.54397319189363e-09 -2.1994506254714215e-09
460 7.431021313691763e-10 5.048021905993017e-09 5.541532314742348e-09
251 -3.0652913016568906e-10 8.344528110964986e-10 2.927829836036616e-16
262 -2.6007570530739845e-10 -5.13441025707179e-09 5.099505272270387e-16
263 -3.2589458673135215e-09 -2.4467724172792957e-09 5.922844075185008e-10
264 4.028539603728212e-09 -4.337902350521264e-09 -1.1413969212164935e-09
265 4.105140314101287e-10 -1.4513898498773182e-09 -5.407139010137051e-16
268 -9.948212580293526e-11 -2.6976359570508658e-09 -3.962091786345296e-09
311 1.954964304986421e-09 2.958728999141918e-09 4.2579039299188795e-09
312 5.085437170892935e-12 8.421318560439447e-10 2.25594300627737e-09
313 -1.2142294057043554e-09 -1.4161204273202559e-09 2.020791381309298e-09
314 6.545931064929479e-09 3.451846456295021e-10 1.2259326444801238e-09
315 2.4002506215450985e-10 -9.54397324869146e-09 2.1994489419692657e-09
318 2.3753171234634057e-09 -2.333836193296005e-09 -1.497814844572219e-09
266 1.7966819394653723e-09 -1.0283897390861099e-09 -7.012137872572475e-16
267 -7.431010748430745e-10 -5.048021744145893e-09 -5.541533473794125e-09
269 -5.624191233598108e-10 -3.0339275125240097e-09 7.017112830170403e-17
272 3.802900470582231e-09 -3.802896796067944e-09 -7.773680636521478e-09
316 -2.634746824029213e-10 -9.682899234218254e-09 3.0278214403752023e-09
317 6.23161160602275e-09 -2.5509515606758038e-09 3.128721584490089e-09
319 -1.0595550640215287e-09 -2.5128838445568336e-09 4.4845447222544785e-09
322 4.125059135163843e-09 -4.125056719280811e-09 1.089348199398611e-09
270 3.033926414798717e-09 5.624196721010587e-10 9.520450582561447e-16
271 2.6807494451598006e-10 -2.6807411297298663e-10 2.004385269885208e-09
320 2.5128799683971384e-09 1.059555634986627e-09 4.484543847421646e-09
321 5.196917129842011e-11 -5.196755680953127e-11 -2.5053520476728933e-09
273 1.6859609939004402e-09 1.6859606955691736e-09 6.775143422233492e-17
274 4.573915607863088e-09 4.573920279389767e-09 -1.0050612289851342e-15
275 1.6163974494966032e-09 1.878209380844285e-09 -3.436590079612482e-09
276 1.878210583025662e-09 1.616397302471832e-09 -3.4365922474964973e-09
323 3.068180420865509e-09 3.0681782773780912e-09 -1.6115755151678272e-09
324 4.3630485222660424e-09 4.363048788950476e-09 8.983473042368201e-09
325 7.632405847263418e-10 1.9707299766059073e-09 1.8323950301039762e-09
326 1.9707310723076746e-09 7.632403916446788e-10 1.832395888255925e-09
261 3.0652951731674175e-10 -8.344529078842617e-10 -1.4022127189943959e-15
277 5.441798760342396e-09 7.569836163814357e-09 -2.3259309337935517e-16
278 1.6110109702929344e-09 -1.4439608140050275e-10 1.2582409212719343e-16
279 3.908019824619555e-09 2.455969036885588e-09 -1.7882456207756762e-09
280 3.684496950867174e-09 3.1583110125594922e-09 -3.688082261793227e-09
327 2.1000375528981232e-10 -4.68410557907687e-09 4.5862997017917295e-09
328 4.211391350194507e-09 -4.363481807686336e-09 2.970458144069885e-09
329 4.07417577933089e-10 1.2947588959238912e-10 4.33014464192422e-09
330 -5.291695913330223e-09 2.5924932521519242e-09 3.2015488051981353e-09
281 4.1875090525056565e-09 -3.563004530958974e-09 5.852635054474021e-16
282 1.330408979542848e-09 -3.6243703867590806e-09 7.219762209317565e-16
283 3.5539830500199937e-09 -3.5815750642947944e-09 -2.597947068086387e-09
284 4.528032740637527e-10 4.07877521368686e-09 -2.708732531336902e-09
285 1.913236644897213e-09 -8.003693374183829e-09 -1.862416261780343e-15
288 2.773779379383311e-10 -2.7737564309597655e-10 1.706331717891895e-09
331 2.9376104863142222e-09 6.623352963820128e-10 1.1010896645014452e-09
332 4.4235773492369066e-09 -8.011684475583145e-10 -6.4201132407173364e-09
333 3.25188542986086e-11 -8.156822024445312e-10 -1.1717884325039435e-09
334 4.254493782462002e-09 6.726819905349938e-10 2.7818811942254975e-09
335 2.106116535229538e-09 -3.1731324612234717e-09 -5.302391889915947e-10
338 -2.120500912012881e-10 2.1204791590930716e-10 -4.905713062702695e-09
341 2.550950916321041e-09 -6.2316084928098484e-09 3.12872082655784e-09
340 9.543972945347529e-09 -2.400230455486187e-10 2.199453334080282e-09
291 5.04802178456889e-09 7.431000988356015e-10 -5.5415347594795956e-09
286 8.003693216223176e-09 -1.9132333510886473e-09 -1.261870462390988e-15
287 2.7795553097302914e-09 -2.7795568929178588e-09 -2.5390998980749216e-09
289 1.0283931738249823e-09 -1.7966857604009848e-09 -9.22205315253925e-16
292 2.697635318975883e-09 9.948514713126283e-11 -3.9620925787951075e-09
336 3.173128733963455e-09 -2.1061152642178776e-09 -5.302420200307139e-10
337 4.9491615124418556e-09 -4.9491636929047295e-09 -5.1902378679298365e-09
339 9.682900273247394e-09 2.6347162993244126e-10 3.0278226662982027e-09
342 2.3338426268824173e-09 -2.375316257203473e-09 -1.4978157636524899e-09
290 1.4513864077676757e-09 -4.1051094146078934e-10 -5.758871908898468e-16
346 1.2947477895280668e-10 4.074177255344278e-10 4.330141391065225e-09
345 2.592493912688237e-09 -5.291694408416083e-09 3.2015503420394194e-09
344 -4.363482383500019e-09 4.211390000781155e-09 2.9704600642330086e-09
343 -4.684102326466314e-09 2.1000453899658805e-10 4.586300072984675e-09
296 2.455969184896904e-09 3.908018899748205e-09 -1.788245292302205e-09
295 3.158309655914528e-09 3.6844953196457108e-09 -3.6880834677462686e-09
294 -1.443955699140369e-10 1.6110145908154931e-09 -5.79380269769561e-16
293 7.569838026662093e-09 5.441796232641112e-09 -1.7561626860858592e-16
13 -8.344500569588727e-10 3.065275924501016e-10 -1.3066348028593163e-16
350 4.249325188269607e-09 2.3757210478260106e-09 -1.6430136766228552e-09
349 2.375720867558802e-09 4.249329020460105e-09 -1.6430155270839025e-09
348 -1.5816908145520744e-09 -1.5816906970456808e-09 -1.3856626463587453e-09
347 3.4930011911068346e-09 3.4930001295605766e-09 6.6313787231026655e-09
300 4.045823776159518e-09 -2.0117306692652853e-10 3.1199096551076175e-09
299 -2.0117575399680366e-10 4.045821787170984e-09 3.119908893508906e-09
298 1.9544621119984125e-09 1.954462865733118e-09 -6.533174014296581e-16
297 1.5773906664100088e-09 1.5773895460916501e-09 4.4280401652454606e-16
361 -1.7886300454380715e-09 8.978814727346639e-10 2.5338281466698965e-09
362 -4.1328434400098654e-10 -4.436477850223453e-11 3.750697492453037e-09
363 3.6773520721403776e-09 8.204979042179265e-10 -5.159997624254615e-16
364 -9.754880850220964e-10 1.9129708917112463e-09 -7.622036350012678e-17
365 6.575143298169728e-09 3.6487593901098677e-10 7.032811406559747e-10
368 7.730753985279184e-09 -8.1762986682023e-10 -1.5789803508258067e-16
406 -1.7886288960833837e-09 8.978826462862924e-10 -2.5338264855499114e-09
407 -4.132847069550984e-10 -4.4364226509522674e-11 -3.750701647067771e-09
408 6.575142681521089e-09 3.648755390301206e-10 -7.03279995097123e-10
366 9.440579719412278e-09 -1.8769078679400925e-09 -2.458319273608601e-09
367 3.223987645823137e-09 5.663937341025212e-10 -9.908647255016481e-16
369 5.768772350825538e-09 -4.488085139991354e-09 -1.9127912415243237e-10
372 6.662435595646919e-10 -6.662440218039441e-10 2.4284961891793095e-16
409 9.440580091912543e-09 -1.8769077759917176e-09 2.4583187733746578e-09
410 5.768773608218149e-09 -4.488085081918696e-09 1.9127893239167657e-10
370 4.488085467254978e-09 -5.768775053769148e-09 -1.912795187137982e-10
371 9.726206273242631e-09 -9.726205370246591e-09 -5.7407242033032e-16
411 4.488085369697842e-09 -5.768772372748108e-09 1.912796401521948e-10
373 -3.811941366856153e-09 -3.811940576907559e-09 8.999354757861544e-09
374 -3.6109209312890567e-09 -3.6109199761148188e-09 2.8950334699919507e-09
375 -1.0050779321326552e-08 1.157080183507628e-09 -1.357031312114926e-16
376 1.1570810395272065e-09 -1.0050780046523517e-08 -8.445004079985603e-16
412 -3.811941902028565e-09 -3.811941297976395e-09 -8.999354618124211e-09
413 -3.6109193010132292e-09 -3.6109165837037196e-09 -2.8950324604313076e-09
377 -6.973180652742145e-09 2.5061764280694197e-09 -1.6381392488741537e-09
378 1.4795953093498018e-09 3.1423038772330673e-09 1.9393652782880403e-09
379 -1.3399564100263084e-10 2.6338910468408386e-09 -1.1251577469066336e-15
380 -3.3284511181867536e-09 4.369946089418459e-09 -2.285854750604001e-16
414 -6.973183504956541e-09 2.506175848552688e-09 1.6381388369212365e-09
415 1.4795960582451193e-09 3.1423049291950685e-09 -1.939362536169725e-09
381 6.669282633796469e-09 3.5189787687525123e-09 -1.1509081663848436e-09
382 -6.079661544836025e-10 1.5101934256112951e-09 -3.700879614850711e-09
383 3.1355123966413336e-09 1.890027840661166e-09 3.766726431037888e-15
384 3.6854424088234293e-09 5.255214134882e-10 -5.311228504215184e-16
385 -2.1921627204045563e-10 4.575881483515547e-10 6.798245867114637e-09
388 1.7924247172090418e-09 -1.7924274354898851e-09 -5.613690264136322e-16
416 6.669283170968555e-09 3.518978162099289e-09 1.1509086557679712e-09
417 -6.079649397971746e-10 1.5101923419097131e-09 3.7008769537921475e-09
418 -2.192169715966986e-10 4.5758889383881694e-10 -6.79824832481345e-09
103 6.1779861767053e-10 -6.178038765731497e-10 5.362647003401777e-16
421 -3.6487774175367e-10 -6.575145164193378e-09 -7.032795333289904e-10
391 -5.663959366482561e-10 -3.2239867754208963e-09 1.1033816816835612e-15
390 -3.6487548662448546e-10 -6.57514127098122e-09 7.032787299905561e-10
386 -4.575899038555156e-10 2.192183492911112e-10 6.7982495437638804e-09
387 5.452898907993447e-09 -5.452895680186267e-09 9.261390903697743e-16
389 1.8769072094489154e-09 -9.44058301276715e-09 -2.4583208329395708e-09
392 8.176295023709409e-10 -7.730752798490126e-09 2.0083460858763565e-16
419 -4.575891507664948e-10 2.1921562257944163e-10 -6.798246347348002e-09
420 1.876908531084555e-09 -9.440581893006455e-09 2.458317345021445e-09
423 3.1423045744250354e-09 1.4795949969068038e-09 -1.939362654129811e-09
422 2.5061770717325667e-09 -6.9731820757821914e-09 1.6381403302446533e-09
396 2.6338924384863e-09 -1.3399388914411736e-10 -2.4922849017501775e-16
395 4.369949557645851e-09 -3.3284504639776212e-09 -3.745510392667169e-16
394 3.1423056206226515e-09 1.4795913086881032e-09 1.93936429347255e-09
393 2.5061772583787917e-09 -6.97318332176396e-09 -1.6381387104833598e-09
425 4.618584406528742e-09 4.618585194139165e-09 -6.260091388042256e-09
424 3.673766831839145e-11 3.67380149962799e-11 -7.493006968383526e-09
400 1.8661557812656714e-09 -4.0393563210364166e-10 -5.810290408085062e-16
399 -4.0393395767533874e-10 1.8661557879198303e-09 -1.742179737145755e-16
398 4.618585098561249e-09 4.618584627325827e-09 6.260090955521939e-09
397 3.673776030457419e-11 3.674044162807589e-11 7.493006541912444e-09
431 -1.2142289604806448e-09 -1.4161210358733168e-09 -2.0207903517294673e-09
432 6.54592627877459e-09 3.4518534250139696e-10 -1.2259337587492474e-09
434 2.375317181195794e-09 -2.3338366322716943e-09 1.4978162446502786e-09
461 1.954966071363099e-09 2.95872997911802e-09 -4.257903062458552e-09
462 5.086884147952398e-12 8.421271149558579e-10 -2.255943507456506e-09
463 -3.2589470263469855e-09 -2.4467749942534904e-09 -5.922863109103559e-10
464 4.0285378990537335e-09 -4.337905268672324e-09 1.1413961057795887e-09
465 2.4002225004937876e-10 -9.543973483800833e-09 -2.1994468242860642e-09
468 -9.948179709316574e-11 -2.6976352924138922e-09 3.962093043531736e-09
433 6.231612493332131e-09 -2.5509517058574486e-09 -3.12872294919755e-09
436 4.125056993386781e-09 -4.125056303093429e-09 -1.0893467108519633e-09
466 -2.634735698924844e-10 -9.682898043728768e-09 -3.0278214852907733e-09
467 -7.431033091741733e-10 -5.048022297915355e-09 5.541534235374523e-09
469 -1.0595535676912168e-09 -2.5128847930769127e-09 -4.484546043407446e-09
472 3.80290025944118e-09 -3.802895407163542e-09 7.773680926090805e-09
435 5.1968808655040404e-11 -5.196950708295924e-11 2.505351503846649e-09
470 2.5128829451311126e-09 1.0595566270611996e-09 -4.484540882804898e-09
471 2.6807501266439535e-10 -2.680778102655399e-10 -2.004385435029329e-09
437 7.632419547871394e-10 1.9707304815469116e-09 -1.832393018183843e-09
438 1.9707317855313344e-09 7.632404835930538e-10 -1.8323972425662626e-09
473 3.0681802209997232e-09 3.068179240416335e-09 1.6115769343184047e-09
474 4.3630448034272245e-09 4.363049936444182e-09 -8.983474497154031e-09
475 1.616397643626249e-09 1.878209090307907e-09 3.4365904377265635e-09
476 1.8782115757419317e-09 1.6164011159097012e-09 3.4365893427104665e-09
439 4.074188845678919e-10 1.2947907390979755e-10 -4.3301428416718254e-09
440 -5.2916984993782706e-09 2.592493425160051e-09 -3.201551993747904e-09
477 2.1000342288433817e-10 -4.684108463049751e-09 -4.5862995705233255e-09
478 4.211393250259283e-09 -4.363481856118024e-09 -2.9704578963537037e-09
479 3.908020216609996e-09 2.45596946517144e-09 1.7882461186277332e-09
480 3.68449631085809e-09 3.1583103949325784e-09 3.6880853505327196e-09
441 3.2518065478338724e-11 -8.156807155425194e-10 1.171788136998804e-09
442 4.254494072825292e-09 6.726780319154799e-10 -2.781878234939638e-09
444 -2.120456460224108e-10 2.120486702338724e-10 4.905713588802139e-09
481 2.9376072342453796e-09 6.623377460198064e-10 -1.1010890898241013e-09
482 4.4235751666728475e-09 -8.011689889648647e-10 6.420116377548249e-09
483 3.5539866747217247e-09 -3.5815731931529242e-09 2.597947593141098e-09
484 4.528013280247894e-10 4.078774103047277e-09 2.708728528557971e-09
485 2.106116699967226e-09 -3.173131275678932e-09 5.302420424885734e-10
488 2.7737769389186154e-10 -2.7738059284132546e-10 -1.706330830676443e-09
491 5.048018595834385e-09 7.430995760635313e-10 5.541533925703008e-09
490 9.543974026829867e-09 -2.4001905949842246e-10 -2.1994523434542177e-09
445 2.5509512532616697e-09 -6.231609866912527e-09 -3.1287226519765898e-09
443 4.949162447708852e-09 -4.949161819525115e-09 5.1902387891043005e-09
446 2.33383747481924e-09 -2.3753138934030863e-09 1.4978177987227262e-09
486 3.1731293523572207e-09 -2.1061137332048903e-09 5.302389192364662e-10
487 2.779553782391409e-09 -2.7795563869985794e-09 2.539102682443364e-09
489 9.682900179593204e-09 2.634672076697682e-10 -3.0278247477956793e-09
492 2.6976350572608027e-09 9.948669341029885e-11 3.9620952331995125e-09
496 2.4559710525773005e-09 3.908021056319457e-09 1.7882447018968497e-09
495 3.158309465147406e-09 3.684491068069239e-09 3.6880833460921504e-09
494 -4.363486064061729e-09 4.211391364231162e-09 -2.9704585233516156e-09
493 -4.684101115346026e-09 2.1000230258488328e-10 -4.586298421706807e-09
448 1.2947583606184305e-10 4.074206079648719e-10 -4.330141572890821e-09
447 2.592494651302218e-09 -5.291697505073634e-09 -3.201550712902006e-09
500 4.0458234628091344e-09 -2.0117020200873856e-10 -3.119907190044274e-09
499 -2.011709751009969e-10 4.045822290467353e-09 -3.1199113694608726e-09
498 -1.5816894561963107e-09 -1.5816911572412486e-09 1.3856649780364525e-09
497 3.49299822072441e-09 3.4930002302803425e-09 -6.631379638956875e-09
450 4.249325616555459e-09 2.375726480039219e-09 1.643013346594209e-09
449 2.3757234058178913e-09 4.249324638394128e-09 1.643014003281556e-09
