LAMMPS data file via write_data, version 29 Aug 2024, timestep = 52, units = metal

500 atoms
3 atom types

-0.0018839655255894904 17.601883965525587 xlo xhi
-0.009767016688192479 17.60976701668819 ylo yhi
-0.008002949723140173 17.608002949723154 zlo zhi
1.0788852978221121e-15 1.0786692619258899e-15 1.0786692619258899e-15 xy xz yz

Masses

1 58.71
2 55.845
3 51.9961

Atoms # atomic

104 1 1.7565985657571381 3.5483880006759154 1.7485365696537452 0 0 0
334 3 3.5311057648448263 3.5451917327813045 0.028475347915595133 0 0 0
349 3 3.539186588641092 3.510274551329453 3.503635295776836 0 0 0
369 3 3.5361737281681904 1.7530687045900843 1.7698463596164078 0 0 0
372 3 3.513436570037013 7.351195867732682e-06 3.5548658696257753 0 0 0
443 3 0.012069124077674334 1.7607550499864237 1.775730487604191 0 0 0
448 3 1.7392069387244322 1.7820560598584625 3.570383616912919 0 0 0
157 1 7.045397019061924 -0.006564923631809248 3.5290237948004513 0 0 0
192 1 5.310373898361916 1.748454206909042 3.5396660827478494 0 0 0
198 1 5.251533237743742 0.009840811828703888 1.7340189302517635 0 0 0
243 2 7.026081174666264 3.5380199492207796 3.523893274211543 0 0 0
311 2 5.288106019876193 3.5532409910120863 1.7702053300915659 0 0 0
475 3 6.995312453753788 1.7756731610433452 1.7513059736938152 0 0 0
145 1 8.761495351015009 3.524033188836506 1.731503785096748 0 0 0
483 3 8.796524130644436 1.7760560186549545 3.5308399512951225 0 0 0
213 1 10.552092984159321 1.757040429421018 1.734811806767532 0 0 0
228 1 12.321013650825519 3.5359538414273546 1.7330382944300107 0 0 0
276 2 10.565820553744333 0.0006707895399182331 0.00697458765170463 0 0 0
353 3 10.550472160965288 3.576790490342235 3.487769959861002 0 0 0
411 3 12.279620245471596 1.799469502114792 3.502734315264186 0 0 0
418 3 12.324853882795843 1.721945966268196 0.005585068725566583 0 0 0
474 3 8.810479564846121 0.001729775525607 1.7556301050792404 0 0 0
76 1 17.58326353101908 0.0034835928952660807 3.5503895640463834 -1 0 0
103 1 17.5711792627476 3.5252103857124553 3.555285869788687 -1 0 0
37 1 14.107512829743849 -0.0038773953038373898 -0.001962647413378076 0 0 0
255 2 15.860311395690884 1.7434677659713629 3.549952596158047 0 0 0
258 2 14.067698813263284 3.5081588158323744 3.551110392826856 0 0 0
465 3 14.081017871134987 0.005228842282972773 3.5354881529347284 0 0 0
470 3 14.09351230843676 1.7667117453782788 1.7615104922445883 0 0 0
491 3 15.845015553173683 3.5171199299973215 1.77669066483208 0 0 0
191 1 3.520823636903671 5.323484460129179 1.7604891832452285 0 0 0
216 1 3.5168272268436342 7.041202972948946 3.5284651105612506 0 0 0
321 2 1.7722258294412407 7.0573780599584826 1.767108195784018 0 0 0
423 3 1.769634529847028 5.265162712362677 3.5589165763985795 0 0 0
462 3 0.04067646631822057 5.267140368826528 1.7464821695636914 0 0 0
144 1 7.0130633497987525 5.269084543704276 1.7514670397703833 0 0 0
234 1 5.267664000425005 5.2706370279766555 3.525203590137102 0 0 0
365 3 7.053131918783027 7.046616506295597 3.5140832771451884 0 0 0
399 3 5.255451495502226 7.03146143840882 1.7304006329007533 0 0 0
244 2 8.77702668781576 5.278365543531972 3.519212114829535 0 0 0
464 3 8.78717416284265 7.071459624784208 1.7130798571761736 0 0 0
233 1 12.316251967422131 5.275417305448908 3.5347980331492432 0 0 0
338 3 10.541842751954324 7.034160397435563 3.5548429203123524 0 0 0
340 3 12.311921855834347 7.040474032449315 1.750858030868715 0 0 0
354 3 10.5553206065536 5.310159629056824 1.7097122885974703 0 0 0
453 3 17.58540511705165 7.0514427028139615 3.5219246756745193 -1 0 0
260 2 14.07545400478716 7.075363362086764 3.547445401842744 0 0 0
432 3 15.85305674186938 7.084619355574515 1.744606940096118 0 0 0
492 3 14.0453369963427 5.271623638130925 1.779960162408344 0 0 0
498 3 15.831699659727363 5.296138125748031 3.5636120520435033 0 0 0
65 1 1.7708126133431021 1.7603579726623821 7.049696106603386 0 0 0
71 1 0.00964183188335138 0.0030491627340197888 7.03704483089515 0 0 0
74 1 1.7412028551208207 -0.006568739752539025 5.324178693998287 0 0 0
98 1 1.7404551885576571 3.5124882737926844 5.305003697943443 0 0 0
175 1 3.5308292568875768 0.021136997541099108 7.031011645851955 0 0 0
194 1 3.529952762841126 1.7636022691532458 5.316530481473353 0 0 0
230 1 3.498500197508869 3.521846552017691 7.032838301335331 0 0 0
305 2 0.014880230460077415 3.4840803893309715 7.0167544661387105 0 0 0
68 1 1.7695603543876284 0.0151753455760292 8.780768265037391 0 0 0
87 1 1.78614300853087 3.5040338666382387 8.774355796129143 0 0 0
190 1 3.5371764547405786 1.7591144792385374 8.794583036418203 0 0 0
193 1 5.277723262225839 0.0008481475136784024 5.288709046930189 0 0 0
235 1 5.263558875828782 3.505503355561344 5.273037779135254 0 0 0
301 2 5.260761755954007 1.7589576491998928 7.05010106042386 0 0 0
426 3 7.066399333143471 3.4942930518263053 7.062995824056823 0 0 0
488 3 7.0452927629832995 -0.008869293249116887 7.057848311424623 0 0 0
499 3 7.059374814871423 1.7439435845728615 5.2881051436257405 0 0 0
147 1 8.812998538328092 3.5580859446494477 5.27998983479147 0 0 0
232 1 12.319395407215275 3.5200198088861336 5.277131804441926 0 0 0
322 2 8.81432187250662 1.7507062120406311 7.072181446305824 0 0 0
352 3 10.541880407121088 3.5360669464735395 7.054655266976711 0 0 0
408 3 12.317175245942057 1.7425019577117675 7.065693909963684 0 0 0
414 3 10.544233400228386 1.7322663328198977 5.319941931432975 0 0 0
497 3 15.839738607948465 1.7481310903799339 7.048454364588528 0 0 0
253 2 14.074204167391695 1.7651193462349417 5.296050670341346 0 0 0
94 1 14.06264807438893 3.532895731169363 7.04354059803265 0 0 0
75 1 17.595478805392432 1.751657726999486 5.292193420376456 -1 0 0
4 1 15.836179237655303 3.4849192433936884 5.267736184934238 0 0 0
70 1 17.601537582700615 1.7496571096427624 8.779474233969466 -1 0 0
3 1 15.825618217732922 -0.0061573126660569785 8.782659151922713 0 0 0
416 3 3.4979979270042234 7.036879836664822 7.047980987323701 0 0 0
319 2 0.006641865197113992 7.0552632209840676 7.029363734573446 0 0 0
309 2 1.773007546448919 5.255575872414788 7.026390049843903 0 0 0
299 2 3.5302205375040323 5.268181172613871 5.285431132984092 0 0 0
99 1 0.011547239308443492 5.269026933310994 5.30656596561404 0 0 0
95 1 1.7523087658803764 7.027012031326056 5.293656119142598 0 0 0
425 3 0.03054622796630166 5.2434245153872014 8.78420471399974 0 0 0
374 3 8.797125199567594 8.773368904824258 7.0752671538519545 0 0 0
212 1 5.274204070255996 8.76543203722016 7.0602539170639815 0 0 0
163 1 7.044916337894309 8.790959816179448 5.307351503081799 0 0 0
215 1 5.276321743462618 7.027923298510679 5.294794403970899 0 0 0
165 1 7.016912558329433 7.055550920055333 7.056821345404323 0 0 0
226 1 5.249045639315395 5.271492772737119 7.027975793132473 0 0 0
422 3 7.017071322568029 5.296697393672099 5.288320015467868 0 0 0
150 1 8.794578416145125 5.285634924617543 7.038619698027659 0 0 0
189 1 12.343643583755973 8.790042864038057 7.059986432779364 0 0 0
350 3 12.299734390964364 5.307689280451123 7.066124168465266 0 0 0
283 2 10.568536222113144 7.059201726902117 7.0500870793372545 0 0 0
231 1 10.553861078410845 5.301533157863767 5.284790883057999 0 0 0
185 1 12.304117939945657 7.061972305322531 5.304320022893492 0 0 0
164 1 8.807702355392692 7.0308687229806655 5.348111684960259 0 0 0
485 3 14.04544610256616 5.285099409553158 5.286149650726765 0 0 0
437 3 15.872722245077364 5.289126668128224 7.001127578071154 0 0 0
261 2 14.058829399489543 8.797348754450665 5.297541712905844 0 0 0
96 1 14.079592466752395 7.057368697685099 7.051583794762405 0 0 0
79 1 15.829250343425077 7.07856141073535 5.297309719753113 0 0 0
93 1 14.059676967601744 5.270184560260183 8.798090876828367 0 0 0
80 1 1.7695316712135927 3.514755531752465 12.3577008068178 0 0 0
183 1 3.5502101203695036 1.7594953889076255 12.322994163543123 0 0 0
225 1 3.5353312985289547 3.5298649307008088 10.573810662792479 0 0 0
455 3 1.7501994514487171 0.01117246111588949 12.310722041307283 0 0 0
456 3 1.7862310129608459 1.813544461208719 10.550040109046838 0 0 0
148 1 7.031056227195951 0.0025137921228842765 10.574758280903858 0 0 0
149 1 8.798515980240415 3.5092272668526463 8.832471048078435 0 0 0
151 1 7.049788670821415 3.5071558468260062 10.576682254902634 0 0 0
152 1 8.79351964952456 0.010221296865769874 8.802210772050701 0 0 0
155 1 7.0588692860355415 1.7411081398187103 8.851322516531091 0 0 0
181 1 5.2997937374416 1.7679206433605732 10.576173279720482 0 0 0
182 1 5.300315658678052 0.009752874981600788 12.346965550147338 0 0 0
186 1 5.304789602453891 0.017345372657003928 8.805301142337248 0 0 0
222 1 5.2626164469161605 3.522827755348224 12.310626057712328 0 0 0
317 2 8.785942021554531 1.7720499992048866 10.576600043184307 0 0 0
318 2 8.775327810964807 0.011074293755914143 12.312589497723446 0 0 0
320 2 7.02660282926392 1.7600471864450957 12.31998863223787 0 0 0
355 3 5.266498766529017 3.521170077607439 8.82125620161789 0 0 0
153 1 8.820558124645512 3.519613290004274 12.329029755009536 0 0 0
219 1 10.54141005247009 1.7590647700308748 8.833144170497343 0 0 0
221 1 12.304024586737867 1.777424461061699 10.543523593118534 0 0 0
236 1 12.326659743149202 3.504403386110167 8.822705350130855 0 0 0
270 2 10.537992127731705 3.5125638515109285 10.57425698989476 0 0 0
278 2 10.549912426566104 1.7732280444735047 12.327848408037925 0 0 0
347 3 12.30697416294514 3.5219581813554117 12.330314044972472 0 0 0
407 3 10.56045658618139 0.000412758297131768 10.593757979861742 0 0 0
64 1 17.59240251054975 1.7708135871034587 12.338456965573481 -1 0 0
428 3 17.551394123320918 3.498880560558106 10.558674494847809 -1 0 0
442 3 17.574693972528078 0.02537399286706235 10.528533624104595 -1 0 0
5 1 14.079363233097888 1.782199918590218 12.282132749184404 0 0 0
6 1 15.853764250263836 -0.0023630142631186667 12.322793745458702 0 0 0
7 1 15.82005045229751 1.7416965640682722 10.583155731294347 0 0 0
89 1 15.806024653349262 3.5246139182038765 12.324391199032924 0 0 0
247 2 14.08638961810699 3.513974223885244 10.565008193370941 0 0 0
256 2 14.073110456414172 1.7587580968166865 8.815988553804006 0 0 0
438 3 15.809405572500282 3.508323209084887 8.806359035395657 0 0 0
496 3 14.09626768704548 -0.004174713066578178 10.550062271341076 0 0 0
211 1 3.5304188769852494 7.052135319961296 10.567129688544243 0 0 0
224 1 3.5331231307270428 5.301551527193439 12.321344305950754 0 0 0
227 1 3.5185524210348977 5.2757481961031925 8.805946411023918 0 0 0
294 2 1.7519548627600268 7.043483660562174 12.310918217238532 0 0 0
315 2 3.53768697611079 8.793061714239705 8.827630617406541 0 0 0
326 2 3.505754817355214 8.788084199217518 12.32590354201961 0 0 0
420 3 1.7798417683035572 5.251853275180051 10.592656166574637 0 0 0
487 3 1.7587388731096387 7.054672454196237 8.832764561101929 0 0 0
154 1 8.784908214638168 5.256162609832631 10.57922303575002 0 0 0
166 1 7.0262023520395624 8.779991642778013 8.834406969197984 0 0 0
169 1 7.0512658734512925 7.070878401415163 10.554979956803853 0 0 0
170 1 7.045329131758705 8.781168033339622 12.300476679208677 0 0 0
210 1 5.279112691677078 8.760633434955448 10.576110798002599 0 0 0
220 1 5.255721757599446 5.295060400068145 10.580027098055513 0 0 0
241 2 8.797472959618156 7.037883231025174 8.817025638741429 0 0 0
316 2 5.265757056687193 7.03583518235852 8.809401318866787 0 0 0
327 2 5.268432627939002 7.047410846396974 12.315801880556005 0 0 0
427 3 7.033678182779943 5.313860769927259 8.8209391020034 0 0 0
430 3 7.032835250295434 5.288547564095951 12.270020913069825 0 0 0
171 1 8.806299567679275 7.049985056152611 12.305464363301613 0 0 0
188 1 12.320774724282149 7.085943008446238 8.810481121332675 0 0 0
238 1 10.513807235112953 5.274178138646629 12.346098719055545 0 0 0
285 2 12.329195157631178 7.0427447590148935 12.325430175961616 0 0 0
345 3 10.547753491747075 7.038701447054207 10.589464844696627 0 0 0
346 3 12.34700685398537 5.2899552555126155 10.570182442166383 0 0 0
351 3 10.53192894370454 5.2839823190099295 8.829108482729279 0 0 0
12 1 17.569905695532626 7.038379491709919 10.562927111616686 -1 0 0
429 3 17.56940807633783 5.267044743360305 12.327812682153782 -1 0 0
490 3 17.58895066067734 8.799370011631993 12.311678425874149 -1 0 0
13 1 14.117181391390382 5.278380762270314 12.312831084266318 0 0 0
88 1 15.803458546311216 5.301376912420348 10.573271598829292 0 0 0
100 1 14.069673547377935 8.788949928087785 12.307237038270603 0 0 0
101 1 15.83111650554377 7.048267219454548 12.31589831449571 0 0 0
264 2 14.081535912120945 7.061817462856606 10.563702678501901 0 0 0
424 3 15.81542849201893 7.023886140984402 8.820799258244724 0 0 0
53 1 0.009756135547468953 1.7181116233533982 15.813230619125514 0 0 0
82 1 -0.001499333525910003 3.5132968155018407 14.084759979772125 0 0 0
178 1 3.5153963350061965 -0.009253025162276189 14.060160930376012 0 0 0
310 2 1.741862493417089 1.7370577856260652 14.058666886878884 0 0 0
342 3 3.5229630896411708 1.7159247066269172 15.802736348343062 0 0 0
404 3 3.5135437266669807 3.521964393552918 14.052532003193202 0 0 0
434 3 1.7226309992246533 3.527987923212654 15.811655143851446 0 0 0
313 2 0.020079888077324626 3.511650050296181 17.584767028776895 0 0 -1
445 3 1.7561108039589857 1.7332316222825002 17.586589006936517 0 0 -1
146 1 7.045307373168451 0.008502644730825036 14.06133197777971 0 0 0
177 1 5.271811065038681 1.752399929521577 14.064825386107152 0 0 0
314 2 5.271504255154605 3.538315549683822 15.825232154560847 0 0 0
436 3 7.037890946810558 3.550506451160281 14.056052308873177 0 0 0
459 3 7.024119474017624 1.7777081356833997 15.818128242581208 0 0 0
239 2 7.0092832252983985 3.5333609443826512 17.59491985876371 0 0 -1
329 2 5.254281513437125 1.7460136023945692 17.58820480526271 0 0 -1
303 2 8.79940588817872 1.7728763269697487 17.59831673607191 0 0 -1
77 1 8.807397334770142 1.7639598871040245 14.058805831659127 0 0 0
176 1 10.534076129866072 3.509336113816583 14.091153181576447 0 0 0
207 1 10.55501290763943 1.7510168107727648 15.814988683356292 0 0 0
245 2 8.80417877376538 3.518557316888527 15.81532403518542 0 0 0
279 2 10.546057662287671 0.01387850311924424 14.052198553452994 0 0 0
280 2 12.3335634425991 0.008710015297099347 15.850098520741916 0 0 0
282 2 12.33873532163569 3.520666074718319 15.838973997374564 0 0 0
400 3 12.325468609054509 1.7653943463633697 14.09218406218075 0 0 0
450 3 8.819940481991955 0.018273592262251642 15.849719424092434 0 0 0
367 3 10.565732252429802 3.4933254741512973 17.5944546815278 0 0 -1
8 1 14.080015975203562 1.7600557250124784 15.845514335701694 0 0 0
78 1 14.088033319436496 3.5360994050972026 14.074375457282835 0 0 0
435 3 15.83931028945561 3.5111451503586233 15.827938850927097 0 0 0
494 3 15.852107347387404 1.754305719809165 14.034517879427582 0 0 0
495 3 14.105383240968127 0.000720511088544781 14.09630247178253 0 0 0
257 2 14.05878232214095 3.518119602036919 17.583217148552997 0 0 -1
467 3 15.878916783765476 1.7324856073487047 17.581931699906473 0 0 -1
141 1 3.5308775611675345 8.76582530059891 15.817284476136361 0 0 0
405 3 3.5369640334812336 5.320567073697538 15.816001647771369 0 0 0
306 2 1.7445550833995254 8.797286899457577 14.067389733639136 0 0 0
209 1 3.494716614422402 7.070508586732754 14.066144244632863 0 0 0
296 2 1.739240122896864 5.306647056681167 14.058679608838027 0 0 0
300 2 1.7389571883507062 7.059739972851027 15.803450981778708 0 0 0
439 3 1.7523934320980559 8.779478215161351 17.599322594222627 0 0 -1
330 2 3.5401140547143157 7.053179816819401 17.585684910608006 0 0 -1
431 3 1.757933020887699 5.323679577985912 17.568347088625682 0 0 -1
136 1 5.26568053277255 7.024443414489882 15.829829641724112 0 0 0
375 3 7.052221574144585 7.048352158175158 14.071881645332686 0 0 0
332 2 5.271215848704486 5.301176994856344 14.055552201698438 0 0 0
307 2 5.277566953621065 8.78017001540132 14.067780481395312 0 0 0
246 2 7.0211144788033115 5.300074152510365 15.836278602053598 0 0 0
217 1 5.286872668733802 8.785892489981027 17.580484930324843 0 0 -1
143 1 7.020063734260014 7.043344922784618 17.585696590938554 0 0 -1
237 1 5.30327138996136 5.27466304443059 17.588293693439706 0 0 -1
461 3 8.749837815100147 5.289977866916247 17.583436993487027 0 0 -1
195 1 10.561158850394294 8.77767659087165 15.808862086404815 0 0 0
158 1 8.800529561186915 5.288511848014031 14.075431812294253 0 0 0
112 1 8.815708537813878 8.798779784736638 14.064472908017231 0 0 0
344 3 10.574218413701011 5.299505237731389 15.82622266576373 0 0 0
341 3 12.321706104746852 5.292101723867322 14.06368413662323 0 0 0
287 2 10.539692225226545 7.058582484629794 14.06228105739758 0 0 0
197 1 12.303063733901913 8.78646783152236 14.053360467867092 0 0 0
196 1 12.318938614414387 7.047023576145769 15.818534883804649 0 0 0
127 1 8.814896021118352 7.035779474289498 15.824898560073125 0 0 0
179 1 10.57401952799837 7.083413690949591 17.56258820248223 0 0 -1
229 1 12.329149819932411 5.279762492866633 17.580561301043296 0 0 -1
489 3 15.858498109609267 5.271921079357684 17.589945227741975 0 0 -1
421 3 14.119331260235857 7.037011945058345 14.09256021056538 0 0 0
105 1 15.859778501062607 7.037333153744442 15.83287527758648 0 0 0
86 1 14.077606520124576 5.266128585076246 15.834634536815262 0 0 0
85 1 15.86174248455942 5.2812283382226575 14.081290868495795 0 0 0
10 1 17.59758194881377 7.033769121604992 14.092519446899264 -1 0 0
84 1 17.58550345349034 5.300653675456049 15.823407769948474 -1 0 0
91 1 17.60003067047267 7.048596327391066 17.59717424141865 -1 0 -1
433 3 14.092509946083283 7.036495413244129 17.567356069951202 0 0 -1
30 1 1.7466066603583814 10.575665454137054 1.762919017497149 0 0 0
41 1 1.7312974516398116 12.301809236737478 3.4925992283971317 0 0 0
43 1 1.716236035000125 12.346737474971889 0.010534304506221457 0 0 0
129 1 3.498433020417349 10.578138333913747 3.480765593833892 0 0 0
133 1 3.4851643322485826 12.296605186017036 1.7396894549031214 0 0 0
325 2 3.5229714421560487 8.811006258556246 1.7516714161422677 0 0 0
385 3 3.513228851963116 10.566892841275022 -0.0008732585889676923 0 0 0
484 3 1.7516515953951493 8.830935966194744 3.5164392012139523 0 0 0
113 1 7.059633284277889 10.528966482180921 0.00992810042960473 0 0 0
117 1 7.077895376543175 10.555584929681457 3.517056552891608 0 0 0
132 1 5.282935054697315 10.538494650958624 1.7391173296804872 0 0 0
160 1 7.031540293430855 8.8371269740513 1.7074442039735698 0 0 0
371 3 8.788470321865303 8.818839259940637 3.548966380517807 0 0 0
392 3 5.287000902704852 12.277528081697842 3.510726131191396 0 0 0
406 3 7.039270839432373 12.286638949194138 1.7451758155421415 0 0 0
415 3 5.312842677669228 8.824757036191532 3.511983060041569 0 0 0
115 1 8.814063280533903 10.539559890111413 1.7399528371118014 0 0 0
382 3 8.829987503064556 12.312487711028773 3.5419627495384067 0 0 0
180 1 10.556180282836724 8.841684240113349 1.73114635015868 0 0 0
199 1 12.32327312231972 10.571091817193036 1.74967159900075 0 0 0
289 2 10.569377055260134 10.557823611982121 3.5335093944666207 0 0 0
336 3 12.33006572623195 8.818865117414786 3.501014487174563 0 0 0
364 3 12.360828740597277 12.296719033441958 3.554099435996393 0 0 0
370 3 10.592256334872042 12.306724839135386 1.7392531442280823 0 0 0
1 1 17.593778208784407 12.326776874124567 1.7571653304343604 -1 0 0
2 1 17.59145235304613 10.600067570974309 0.016348235059937377 -1 0 0
92 1 17.599198808045355 8.827793747280843 1.7272914531505286 -1 0 0
302 2 17.589517912785066 10.573098950028095 3.4946958183337604 -1 0 0
61 1 15.820750707497561 12.311253992343826 3.4883978132348576 0 0 0
83 1 14.102690151339104 8.834197624175962 1.7596047602291338 0 0 0
107 1 14.098762269076241 10.584568211916013 0.018140673246995018 0 0 0
108 1 14.096507644657033 12.283540523314997 1.7626393168228496 0 0 0
109 1 15.84746182199051 10.555995026748995 1.757963697551164 0 0 0
110 1 14.087698394570632 10.5524035715188 3.507309356892555 0 0 0
262 2 15.82900381993104 8.826477145677556 3.5071384841959725 0 0 0
266 2 15.84760674114526 12.302846450366216 0.003178274686199913 0 0 0
26 1 1.7491850789261836 14.060059024030624 1.7522454216297272 0 0 0
116 1 3.5079650603020935 15.838261345075287 1.7231377358283824 0 0 0
293 2 3.4837744775379575 14.088275487279962 0.004638388975751709 0 0 0
333 2 1.7489128512729746 15.826702782049246 -0.0063853615224044955 0 0 0
402 3 3.4833856691962866 14.073127144145337 3.5012229491152187 0 0 0
410 3 1.7375019657288029 15.840463390576014 3.5648613974462013 0 0 0
444 3 1.7699621546350768 17.591689205377687 1.7543844378886464 0 -1 0
114 1 5.260275073559189 15.875025955802766 0.0128635722830526 0 0 0
131 1 7.0707190281145875 14.112166822745342 -0.0006387541231885922 0 0 0
343 3 5.279477955334339 15.898671545198322 3.523674854083506 0 0 0
384 3 7.0840231109447585 14.052146085492238 3.522794523790428 0 0 0
387 3 7.058625335595519 15.829655626989869 1.7834877095243484 0 0 0
412 3 5.26314162214024 14.089036247981104 1.7260082863086628 0 0 0
417 3 10.596940659796715 17.580445092716545 3.5099665953230623 0 -1 0
273 2 8.832332683236498 14.072035761540176 1.744858096509151 0 0 0
214 1 12.33647455212434 17.59272785243819 1.7600113013569523 0 -1 0
25 1 10.560159499768236 14.085249772326359 3.558870764671537 0 0 0
27 1 12.346354455084734 15.830093277464405 3.559180678079632 0 0 0
134 1 8.812060367736503 15.831193914975776 0.006868481841849105 0 0 0
137 1 8.81062222144971 15.830871761583383 3.5586680003207682 0 0 0
440 3 10.560653806107803 15.8075201751913 1.7589259537330724 0 0 0
466 3 12.34678972692092 15.868599309590428 0.010250728680589587 0 0 0
500 3 12.344490835015424 14.082796436939176 1.8095939664309706 0 0 0
39 1 15.846419770275363 17.60694290922355 1.7481572965925667 0 -1 0
295 2 17.56699537319752 14.065588518728555 0.005940421303983133 -1 0 0
331 2 17.592942750155004 14.069682027789142 3.520220851599522 -1 0 0
481 3 17.59200059235277 15.83455366615741 1.7415778377811684 -1 0 0
46 1 15.844817170672425 15.858414822699288 0.014690678936332894 0 0 0
47 1 15.827826206256844 14.065501662075883 1.7766097845631126 0 0 0
48 1 14.098312466254914 15.864014428659775 1.7815898796126266 0 0 0
54 1 14.10930428646189 14.069398464880722 3.5411590348144153 0 0 0
452 3 15.856390806262944 15.848397810642012 3.5168939217326285 0 0 0
457 3 14.09305816411361 14.051418921529578 0.028605865207451925 0 0 0
38 1 1.7515312668461043 12.292895881284752 7.056966041256355 0 0 0
42 1 1.7647336112595629 10.587536682083645 5.280871436255062 0 0 0
298 2 3.5252951440576075 10.567860696065926 7.042145642831897 0 0 0
324 2 1.77088360671269 8.831006300780624 7.033363125406957 0 0 0
390 3 3.5177603889914915 12.300318550108523 5.278501687990704 0 0 0
413 3 3.5371876803737994 8.815646974197078 5.272580975646677 0 0 0
473 3 0.002674139268849581 12.332005985460828 5.269506993219459 0 0 0
118 1 7.080823168486612 12.320918109830801 5.318961765838553 0 0 0
126 1 5.3013026124410585 12.335053401535417 7.083720390752314 0 0 0
391 3 5.334096036431542 10.570944497471316 5.3109630526748495 0 0 0
394 3 7.081552107294218 10.567607171880251 7.048442480236728 0 0 0
395 3 5.297156158042626 10.533446916489144 8.792643109895748 0 0 0
119 1 8.831087041544057 10.582757688425547 5.288444828078614 0 0 0
123 1 8.801504612254297 12.350448527022875 7.064895986590798 0 0 0
184 1 10.57271013036279 8.805181367274193 5.29966971109064 0 0 0
202 1 10.57725265185207 12.334657111487195 5.305017778511909 0 0 0
223 1 12.338892619695498 12.328655499479453 7.0631720146690675 0 0 0
290 2 12.333978963568942 10.548310905777765 5.2995045415757565 0 0 0
363 3 10.577027372140387 10.573434150266742 7.043395536638929 0 0 0
40 1 17.59688192748726 10.560749300397873 7.028720738704143 -1 0 0
441 3 17.595740296622743 8.817072465016413 5.304146799260714 -1 0 0
58 1 15.841320178481823 12.288691658989523 7.057011027273599 0 0 0
62 1 14.069385890192654 12.322878840658202 5.305495003519335 0 0 0
263 2 15.802507120457786 8.818891066578098 7.061274105747047 0 0 0
267 2 14.066361965294282 10.568481005842564 7.0618878033888635 0 0 0
460 3 15.792393010457005 10.580993371924777 5.275714742107503 0 0 0
60 1 14.080552189248504 12.308122905721957 8.792201313877504 0 0 0
21 1 0.004639838092443973 14.066411227797714 7.027056785347709 0 0 0
24 1 -0.000572297670590139 15.867024961423382 5.315252134773274 0 0 0
174 1 3.5269636819574197 15.867666339159214 5.310755575731781 0 0 0
328 2 1.7464315776500474 14.072359072407156 5.291680029865437 0 0 0
335 3 3.5159830138192762 14.0434664963647 7.0582335620922505 0 0 0
360 3 1.774645222007392 15.824488026524126 7.055543297344356 0 0 0
275 2 8.788347525091261 15.8164185757764 7.057185687316544 0 0 0
135 1 7.069547687371052 15.853523932963025 5.28442296857276 0 0 0
138 1 7.0435493274063425 14.07786209085067 7.072582012171661 0 0 0
168 1 5.304499363531676 15.875164751779183 7.04260037677034 0 0 0
348 3 5.314465727009601 14.108523587876714 5.296224963882615 0 0 0
277 2 12.315855208970115 17.604339673463063 5.302674656742434 0 -1 0
218 1 10.518385565942248 17.595720532877127 7.052743198778926 0 -1 0
156 1 8.823566206639914 17.551748315052375 5.284841059240833 0 -1 0
478 3 12.316948129567017 15.818211217886486 7.045603940998502 0 0 0
249 2 12.34053329744139 14.07136276070926 5.293302453928209 0 0 0
274 2 8.81107277805408 14.0832392789261 5.326864524917794 0 0 0
28 1 10.570491859378992 14.04775186720881 7.04179844352312 0 0 0
248 2 10.560703009476699 15.817834339069146 5.296293725889879 0 0 0
409 3 12.31868714498246 17.595681105169792 8.796902903280444 0 -1 0
451 3 15.829726855326717 14.101404197137638 8.783515184600798 0 0 0
454 3 15.823693746445095 14.107199626488226 5.317234847522025 0 0 0
69 1 15.83575628696356 15.876037719150606 7.049333731981404 0 0 0
254 2 15.86145414736904 17.604904342969615 5.302182817124945 0 -1 0
44 1 14.099361124944089 17.60554533770796 7.036592189736844 0 -1 0
66 1 14.085234458462102 14.064956779860522 7.052291489109386 0 0 0
63 1 14.064115750758598 15.866212162403528 5.3086173819608655 0 0 0
67 1 14.079070289492211 15.847932418395258 8.783225296648675 0 0 0
34 1 1.740475425498401 10.554463461476496 12.332176540352865 0 0 0
111 1 3.5432868787833947 12.310429029111008 8.804651228407561 0 0 0
124 1 3.4890529692225036 12.311524553636584 12.334172035427532 0 0 0
304 2 1.7337182075150102 12.313437341991822 10.581128968998344 0 0 0
397 3 3.5116509130164633 10.580854760930725 10.59338768139634 0 0 0
469 3 1.7812342597275266 10.564669881537798 8.800336392823352 0 0 0
11 1 1.757996548959028 8.800890601591771 10.580809402338987 0 0 0
121 1 7.044875938056796 12.327973071162074 8.829838896584759 0 0 0
122 1 5.3033060749695355 12.316929274926215 10.558690911734828 0 0 0
125 1 7.057182822366399 12.308925625013607 12.286879362163694 0 0 0
281 2 7.047378577567128 10.541946371206555 10.550902387218597 0 0 0
398 3 5.3151530206151 10.524816441120889 12.32643372220383 0 0 0
172 1 8.796743270871657 8.801566243271232 10.540634567467562 0 0 0
240 2 8.81262786625631 10.57228890189582 8.828760432590016 0 0 0
271 2 8.815799588926863 12.321917508777114 10.547838896713117 0 0 0
396 3 8.806385968971375 10.525125897374846 12.288642080818223 0 0 0
15 1 10.585550804358554 10.545262704375407 10.535491302247394 0 0 0
18 1 12.330773092132617 12.306265338382035 10.550000244407467 0 0 0
205 1 10.563647617596612 12.323818970492056 8.815907283542897 0 0 0
259 2 12.336490915281995 10.55256014530865 12.31181629993789 0 0 0
291 2 12.336381847380984 10.563047060871687 8.812191545111668 0 0 0
361 3 10.570197860984624 12.298167653294987 12.32734564471421 0 0 0
284 2 10.568708573131142 8.804937931011823 12.31816022353782 0 0 0
286 2 12.331835171385741 8.819975175187682 10.560820422870062 0 0 0
187 1 10.576213172096292 8.80051690303985 8.820009481466592 0 0 0
35 1 17.600578191682224 12.311855938410678 12.318624835933308 -1 0 0
36 1 17.574250923872594 10.560414927534552 10.570601625768678 -1 0 0
468 3 17.586449807457708 12.315788448053505 8.811326068353507 -1 0 0
45 1 15.833952767615136 12.303555155748569 10.571231615247253 0 0 0
55 1 15.82636636604717 10.559802072110227 12.294028756077214 0 0 0
56 1 14.084245879317482 12.321075744887567 12.308366190733835 0 0 0
57 1 14.092601929209831 10.563359198315592 10.555594798372852 0 0 0
59 1 15.804664847205359 10.557686308096399 8.805284242138102 0 0 0
102 1 15.819752957498286 8.810602152215326 10.562286026358237 0 0 0
97 1 14.06017145362591 8.80499603671516 8.804342490218204 0 0 0
486 3 17.583083890826874 8.821935439098947 8.805274913477492 -1 0 0
17 1 1.744451489337219 14.041943832873491 8.810274291576594 0 0 0
204 1 1.7571785786603766 15.80525229899408 10.547712489684171 0 0 0
206 1 1.7550705611288955 14.054350169075784 12.308858725373435 0 0 0
297 2 3.517910322771724 15.843161397103978 12.29676269375484 0 0 0
358 3 0.01359151188307114 15.86179586016136 8.808745279588921 0 0 0
373 3 3.5132939868545594 14.042147880220545 10.540733734224006 0 0 0
376 3 3.562656105442823 15.868203808908115 8.809276072473109 0 0 0
337 3 3.5484999575148315 17.60789612284075 10.568266228623315 0 -1 0
139 1 7.0290343373186035 15.836022054204252 8.813539591791434 0 0 0
142 1 7.057260892938403 14.056443828655786 10.56557227818934 0 0 0
159 1 7.0342910546584285 15.870926117249969 12.29788147918434 0 0 0
162 1 5.330291446508123 15.860515617014826 10.546617688180731 0 0 0
173 1 5.320389447191378 14.07906610950942 8.804920767923065 0 0 0
368 3 5.2759405880475 14.108238423499637 12.290782449287535 0 0 0
381 3 8.771684147200574 15.82627401790451 10.547445312551039 0 0 0
208 1 8.81801026521967 14.068397945704037 12.29934644781482 0 0 0
29 1 12.320913660480274 14.037965025452447 8.813463123929468 0 0 0
31 1 10.588021423358228 14.070833173106058 10.584214477318753 0 0 0
32 1 10.557445400018162 15.83632843381997 12.31449721213244 0 0 0
250 2 12.333675824095744 14.062600182696391 12.291991526796307 0 0 0
251 2 12.338158627853964 15.803220296603524 10.560334690749475 0 0 0
480 3 10.545693656927696 15.817191737395536 8.802509285072057 0 0 0
403 3 12.323725528250208 17.608315043979843 12.321245249389564 0 -1 0
140 1 8.810833197248357 14.043710857042738 8.800071838305353 0 0 0
16 1 17.583838157457762 14.063930867136195 10.58988627496368 -1 0 0
362 3 17.569056728552184 15.836928382376534 12.29782123437916 -1 0 0
72 1 15.830637964627757 14.04519810728278 12.312682495091785 0 0 0
73 1 15.824421049241309 15.834651379466703 10.543501825709534 0 0 0
268 2 14.084062553463868 14.050545692396302 10.536009265096206 0 0 0
449 3 14.143164822254716 15.820714988462214 12.314513763557283 0 0 0
14 1 1.7220710520229374 12.301998560347053 14.042953217498177 0 0 0
120 1 3.479630169128852 10.528936213067645 14.065832268182803 0 0 0
389 3 3.4707758293922257 12.344609056533647 15.805938482331786 0 0 0
477 3 1.7238668701606108 10.551838648567427 15.823160128594822 0 0 0
128 1 7.086533717837818 10.54436778674274 14.052763467787495 0 0 0
383 3 5.247021218204672 12.295695159554938 14.044940973718207 0 0 0
386 3 5.280831796791421 10.512206153780774 15.813034378253953 0 0 0
393 3 7.042119870011731 12.2806192787272 15.813494073548462 0 0 0
401 3 7.060655130608528 8.802564530599764 15.844429044463997 0 0 0
377 3 5.277968166108255 12.323555727676828 17.592243622650546 0 0 -1
130 1 8.808575558127005 12.281424039040074 14.06329944610685 0 0 0
19 1 10.564399148148068 10.549192733844919 14.092130313712794 0 0 0
20 1 10.575431327082791 12.289573274517453 15.808567820384864 0 0 0
22 1 12.335160035397172 12.32839972126083 14.053123486919972 0 0 0
272 2 8.830008375485333 10.535650218655364 15.820820515995718 0 0 0
357 3 12.333427207628212 10.558325499194694 15.814504212770208 0 0 0
242 2 8.814049657563663 8.802775082270388 17.578748323042053 0 0 -1
419 3 8.802791486900928 12.309838181698451 17.580543853497435 0 0 -1
200 1 12.334869795655969 12.29740104510925 17.59434074608389 0 0 -1
288 2 10.564900493706867 10.55088044173206 17.57891692553859 0 0 -1
339 3 12.343491250516868 8.819251757354273 17.600055898664156 0 0 -1
33 1 17.56780051665856 12.30363780870475 15.841468569695243 -1 0 0
292 2 17.567849402146113 10.576488830841987 14.064740797603651 -1 0 0
493 3 17.539626346864942 8.80800617498271 15.843262353256073 -1 0 0
50 1 15.861238820829419 12.30695779861765 14.072137719071774 0 0 0
51 1 15.828444444886498 10.562201749371651 15.858035915478284 0 0 0
52 1 14.102667970354917 12.300199326788022 15.842148914782667 0 0 0
265 2 14.105902025829634 8.810060254344647 15.831081011584713 0 0 0
458 3 14.110215133850074 10.569430762499593 14.052476924406452 0 0 0
106 1 15.845940607281435 8.80309020628148 14.070247074187094 0 0 0
81 1 15.83567214023335 8.838198738334844 17.60751354265035 0 0 -1
308 2 1.7353690507184387 17.58774265092158 15.830644697520812 0 -1 0
161 1 3.4777727577571294 14.064282670120317 14.060653407714815 0 0 0
356 3 1.738062472434598 15.827768407109737 14.045021645328257 0 0 0
359 3 3.49951465846817 15.834839693337308 15.834945686476022 0 0 0
366 3 1.6854289712454966 14.070549063679337 15.838368804648914 0 0 0
201 1 3.5307989971851472 17.564280823009337 17.587648617134306 0 -1 -1
312 2 5.273291527152038 17.607318169788556 15.823230602565244 0 -1 0
379 3 7.038479572244686 15.841332028159588 15.82590300118359 0 0 0
380 3 7.065276334715862 14.043416533956488 14.035988934473835 0 0 0
479 3 5.2865674678515235 14.109079810837718 15.877726135142574 0 0 0
482 3 5.258533699722198 15.868114683094703 14.062184792840204 0 0 0
476 3 7.018695922770025 17.585582080228626 17.60034946321146 0 -1 -1
252 2 10.546576750561067 14.046186728017071 14.054353231432774 0 0 0
378 3 8.83314769599715 14.07959840888762 15.835506380792784 0 0 0
388 3 8.802509861387561 15.852677917796763 14.017742049957716 0 0 0
463 3 10.58170926404525 15.875795154281194 15.849314964561447 0 0 0
471 3 12.310803976664408 15.79743073354762 14.056233701975458 0 0 0
472 3 12.316339291019553 14.021357232473305 15.822063237431209 0 0 0
23 1 10.57331575604473 14.065475723969396 17.578677099100624 0 0 -1
9 1 15.847196215404217 17.603405284346596 15.85557610823001 0 -1 0
49 1 17.58321809781171 17.609682979406898 14.113782638325992 -1 -1 0
447 3 14.106732470421957 15.861680681202717 15.83765885313028 0 0 0
446 3 15.854052306685759 14.089690067284131 15.823558769383022 0 0 0
203 1 17.5779081177174 14.047355198064029 14.05731057838852 -1 0 0
323 2 17.572370529424166 15.858695753493139 15.841674549110014 -1 0 0
90 1 15.876924213323644 15.84159033757049 14.072333191046631 0 0 0
269 2 14.114478014299753 14.039439122906295 14.066465942124047 0 0 0
167 1 17.600849295366434 17.577184752552593 17.57981528808087 -1 -1 -1

Velocities

104 0 0 0
334 0 0 0
349 0 0 0
369 0 0 0
372 0 0 0
443 0 0 0
448 0 0 0
157 0 0 0
192 0 0 0
198 0 0 0
243 0 0 0
311 0 0 0
475 0 0 0
145 0 0 0
483 0 0 0
213 0 0 0
228 0 0 0
276 0 0 0
353 0 0 0
411 0 0 0
418 0 0 0
474 0 0 0
76 0 0 0
103 0 0 0
37 0 0 0
255 0 0 0
258 0 0 0
465 0 0 0
470 0 0 0
491 0 0 0
191 0 0 0
216 0 0 0
321 0 0 0
423 0 0 0
462 0 0 0
144 0 0 0
234 0 0 0
365 0 0 0
399 0 0 0
244 0 0 0
464 0 0 0
233 0 0 0
338 0 0 0
340 0 0 0
354 0 0 0
453 0 0 0
260 0 0 0
432 0 0 0
492 0 0 0
498 0 0 0
65 0 0 0
71 0 0 0
74 0 0 0
98 0 0 0
175 0 0 0
194 0 0 0
230 0 0 0
305 0 0 0
68 0 0 0
87 0 0 0
190 0 0 0
193 0 0 0
235 0 0 0
301 0 0 0
426 0 0 0
488 0 0 0
499 0 0 0
147 0 0 0
232 0 0 0
322 0 0 0
352 0 0 0
408 0 0 0
414 0 0 0
497 0 0 0
253 0 0 0
94 0 0 0
75 0 0 0
4 0 0 0
70 0 0 0
3 0 0 0
416 0 0 0
319 0 0 0
309 0 0 0
299 0 0 0
99 0 0 0
95 0 0 0
425 0 0 0
374 0 0 0
212 0 0 0
163 0 0 0
215 0 0 0
165 0 0 0
226 0 0 0
422 0 0 0
150 0 0 0
189 0 0 0
350 0 0 0
283 0 0 0
231 0 0 0
185 0 0 0
164 0 0 0
485 0 0 0
437 0 0 0
261 0 0 0
96 0 0 0
79 0 0 0
93 0 0 0
80 0 0 0
183 0 0 0
225 0 0 0
455 0 0 0
456 0 0 0
148 0 0 0
149 0 0 0
151 0 0 0
152 0 0 0
155 0 0 0
181 0 0 0
182 0 0 0
186 0 0 0
222 0 0 0
317 0 0 0
318 0 0 0
320 0 0 0
355 0 0 0
153 0 0 0
219 0 0 0
221 0 0 0
236 0 0 0
270 0 0 0
278 0 0 0
347 0 0 0
407 0 0 0
64 0 0 0
428 0 0 0
442 0 0 0
5 0 0 0
6 0 0 0
7 0 0 0
89 0 0 0
247 0 0 0
256 0 0 0
438 0 0 0
496 0 0 0
211 0 0 0
224 0 0 0
227 0 0 0
294 0 0 0
315 0 0 0
326 0 0 0
420 0 0 0
487 0 0 0
154 0 0 0
166 0 0 0
169 0 0 0
170 0 0 0
210 0 0 0
220 0 0 0
241 0 0 0
316 0 0 0
327 0 0 0
427 0 0 0
430 0 0 0
171 0 0 0
188 0 0 0
238 0 0 0
285 0 0 0
345 0 0 0
346 0 0 0
351 0 0 0
12 0 0 0
429 0 0 0
490 0 0 0
13 0 0 0
88 0 0 0
100 0 0 0
101 0 0 0
264 0 0 0
424 0 0 0
53 0 0 0
82 0 0 0
178 0 0 0
310 0 0 0
342 0 0 0
404 0 0 0
434 0 0 0
313 0 0 0
445 0 0 0
146 0 0 0
177 0 0 0
314 0 0 0
436 0 0 0
459 0 0 0
239 0 0 0
329 0 0 0
303 0 0 0
77 0 0 0
176 0 0 0
207 0 0 0
245 0 0 0
279 0 0 0
280 0 0 0
282 0 0 0
400 0 0 0
450 0 0 0
367 0 0 0
8 0 0 0
78 0 0 0
435 0 0 0
494 0 0 0
495 0 0 0
257 0 0 0
467 0 0 0
141 0 0 0
405 0 0 0
306 0 0 0
209 0 0 0
296 0 0 0
300 0 0 0
439 0 0 0
330 0 0 0
431 0 0 0
136 0 0 0
375 0 0 0
332 0 0 0
307 0 0 0
246 0 0 0
217 0 0 0
143 0 0 0
237 0 0 0
461 0 0 0
195 0 0 0
158 0 0 0
112 0 0 0
344 0 0 0
341 0 0 0
287 0 0 0
197 0 0 0
196 0 0 0
127 0 0 0
179 0 0 0
229 0 0 0
489 0 0 0
421 0 0 0
105 0 0 0
86 0 0 0
85 0 0 0
10 0 0 0
84 0 0 0
91 0 0 0
433 0 0 0
30 0 0 0
41 0 0 0
43 0 0 0
129 0 0 0
133 0 0 0
325 0 0 0
385 0 0 0
484 0 0 0
113 0 0 0
117 0 0 0
132 0 0 0
160 0 0 0
371 0 0 0
392 0 0 0
406 0 0 0
415 0 0 0
115 0 0 0
382 0 0 0
180 0 0 0
199 0 0 0
289 0 0 0
336 0 0 0
364 0 0 0
370 0 0 0
1 0 0 0
2 0 0 0
92 0 0 0
302 0 0 0
61 0 0 0
83 0 0 0
107 0 0 0
108 0 0 0
109 0 0 0
110 0 0 0
262 0 0 0
266 0 0 0
26 0 0 0
116 0 0 0
293 0 0 0
333 0 0 0
402 0 0 0
410 0 0 0
444 0 0 0
114 0 0 0
131 0 0 0
343 0 0 0
384 0 0 0
387 0 0 0
412 0 0 0
417 0 0 0
273 0 0 0
214 0 0 0
25 0 0 0
27 0 0 0
134 0 0 0
137 0 0 0
440 0 0 0
466 0 0 0
500 0 0 0
39 0 0 0
295 0 0 0
331 0 0 0
481 0 0 0
46 0 0 0
47 0 0 0
48 0 0 0
54 0 0 0
452 0 0 0
457 0 0 0
38 0 0 0
42 0 0 0
298 0 0 0
324 0 0 0
390 0 0 0
413 0 0 0
473 0 0 0
118 0 0 0
126 0 0 0
391 0 0 0
394 0 0 0
395 0 0 0
119 0 0 0
123 0 0 0
184 0 0 0
202 0 0 0
223 0 0 0
290 0 0 0
363 0 0 0
40 0 0 0
441 0 0 0
58 0 0 0
62 0 0 0
263 0 0 0
267 0 0 0
460 0 0 0
60 0 0 0
21 0 0 0
24 0 0 0
174 0 0 0
328 0 0 0
335 0 0 0
360 0 0 0
275 0 0 0
135 0 0 0
138 0 0 0
168 0 0 0
348 0 0 0
277 0 0 0
218 0 0 0
156 0 0 0
478 0 0 0
249 0 0 0
274 0 0 0
28 0 0 0
248 0 0 0
409 0 0 0
451 0 0 0
454 0 0 0
69 0 0 0
254 0 0 0
44 0 0 0
66 0 0 0
63 0 0 0
67 0 0 0
34 0 0 0
111 0 0 0
124 0 0 0
304 0 0 0
397 0 0 0
469 0 0 0
11 0 0 0
121 0 0 0
122 0 0 0
125 0 0 0
281 0 0 0
398 0 0 0
172 0 0 0
240 0 0 0
271 0 0 0
396 0 0 0
15 0 0 0
18 0 0 0
205 0 0 0
259 0 0 0
291 0 0 0
361 0 0 0
284 0 0 0
286 0 0 0
187 0 0 0
35 0 0 0
36 0 0 0
468 0 0 0
45 0 0 0
55 0 0 0
56 0 0 0
57 0 0 0
59 0 0 0
102 0 0 0
97 0 0 0
486 0 0 0
17 0 0 0
204 0 0 0
206 0 0 0
297 0 0 0
358 0 0 0
373 0 0 0
376 0 0 0
337 0 0 0
139 0 0 0
142 0 0 0
159 0 0 0
162 0 0 0
173 0 0 0
368 0 0 0
381 0 0 0
208 0 0 0
29 0 0 0
31 0 0 0
32 0 0 0
250 0 0 0
251 0 0 0
480 0 0 0
403 0 0 0
140 0 0 0
16 0 0 0
362 0 0 0
72 0 0 0
73 0 0 0
268 0 0 0
449 0 0 0
14 0 0 0
120 0 0 0
389 0 0 0
477 0 0 0
128 0 0 0
383 0 0 0
386 0 0 0
393 0 0 0
401 0 0 0
377 0 0 0
130 0 0 0
19 0 0 0
20 0 0 0
22 0 0 0
272 0 0 0
357 0 0 0
242 0 0 0
419 0 0 0
200 0 0 0
288 0 0 0
339 0 0 0
33 0 0 0
292 0 0 0
493 0 0 0
50 0 0 0
51 0 0 0
52 0 0 0
265 0 0 0
458 0 0 0
106 0 0 0
81 0 0 0
308 0 0 0
161 0 0 0
356 0 0 0
359 0 0 0
366 0 0 0
201 0 0 0
312 0 0 0
379 0 0 0
380 0 0 0
479 0 0 0
482 0 0 0
476 0 0 0
252 0 0 0
378 0 0 0
388 0 0 0
463 0 0 0
471 0 0 0
472 0 0 0
23 0 0 0
9 0 0 0
49 0 0 0
447 0 0 0
446 0 0 0
203 0 0 0
323 0 0 0
90 0 0 0
269 0 0 0
167 0 0 0
