LAMMPS data file via write_data, version 29 Aug 2024, timestep = 25, units = metal

500 atoms
3 atom types

0 17.540146310099992 xlo xhi
0 17.540146310099992 ylo yhi
0 17.540146310099992 zlo zhi

Masses

1 55.992
2 55.845
3 55.845

Atoms # atomic

1 2 0.0007563622798293886 0.0007563622798292253 1.0304173354422884e-18 0 0 0
2 3 1.7532582687301683 1.753258268730168 0 0 0 0
3 1 1.7528481385452535 0.0011664924647426984 1.7516088516100425 0 0 0
4 1 0.0011664924647455332 1.7528481385452543 1.7516088516100425 0 0 0
5 1 3.5066110669786816 0.0011436297872561888 0 0 0 0
8 1 3.507392054222491 1.754311926425203 1.753250353526351 0 0 0
21 1 0.0011436297872548487 3.5066110669786807 6.21768811875535e-19 0 0 0
23 1 1.754311926425203 3.50739205422249 1.7532503535263517 0 0 0
25 1 3.505652823773303 3.5056528237733025 2.308955724790019e-16 0 0 0
52 1 1.75426669065197 1.75426669065197 3.5079988920034033 0 0 0
53 1 1.753930503368941 8.412764105999437e-05 5.261987333003929 0 0 0
54 1 8.412764105695722e-05 1.75393050336894 5.261987333003928 0 0 0
58 1 3.5079308776117486 1.753864305867622 5.261888567123763 0 0 0
73 1 1.7538643058676222 3.507930877611748 5.261888567123763 0 0 0
75 1 3.5084460344448396 3.5084460344448387 3.5085588974606714 0 0 0
6 1 5.261682250926789 1.7539604205299917 0 0 0 0
9 1 7.01607158660721 8.398265757562284e-05 1.5980262245760339e-16 0 0 0
12 1 7.016001872291514 1.7540210018387823 1.7539397587649217 0 0 0
27 1 5.262322513045498 3.508300021048396 1.75414186600503 0 0 0
29 1 7.016055466632962 3.507911852747252 0 0 0 0
56 1 5.260603201333743 1.7538686664597885 3.506690861560006 0 0 0
57 1 5.261624535923874 0.0001470343314647154 5.261520237238686 0 0 0
59 1 7.015957120925969 0.00014606861296375702 3.507967171758927 0 0 0
62 1 7.015608131453632 1.7539523434557025 5.261607432206604 0 0 0
77 1 5.262044550703026 3.507849733400093 5.2619422275289445 0 0 0
79 1 7.015860707999758 3.507840509410641 3.5079784151594677 0 0 0
11 1 8.770033584726095 1.3535346039603245e-06 1.754005773018872 0 0 0
31 1 8.77003602792286 3.5080119374811267 1.754020498855205 0 0 0
61 1 8.770011508355001 6.00830062319835e-05 5.261956735796417 0 0 0
81 1 8.770014655746833 3.5079212387048133 5.261958281077335 0 0 0
10 1 8.770105735454637 1.754008851819769 0 0 0 0
13 1 10.524055205655353 5.779190231571248e-06 9.34141006091701e-17 0 0 0
14 1 12.27808935450278 1.7539306483524195 0 0 0 0
16 1 10.524127356383895 1.7540132774753938 1.754005773018871 0 0 0
33 1 10.52407860060656 3.5079697213489927 7.260944442527282e-19 0 0 0
35 1 12.278258070830534 3.508015154006182 1.7538648166680295 0 0 0
60 1 8.77008447964551 1.754019746617553 3.507960451389605 0 0 0
64 1 12.27820382018402 1.7538685623970347 3.507967171758927 0 0 0
65 1 12.278552809656357 6.228755429639422e-05 5.261607432206604 0 0 0
66 1 10.52414943275499 1.7539545480037668 5.261956735796417 0 0 0
83 1 10.524179587241148 3.507986374527573 3.507962263481116 0 0 0
85 1 12.278164803581843 3.507930056865746 5.261997533653273 0 0 0
71 1 17.539888257510373 3.506910977867078 3.507013738478642 -1 0 0
17 1 14.032478690183202 5.421048000555209e-05 0 0 0 0
18 1 15.78754987413131 1.7528710012227422 9.613502398998656e-19 0 0 0
20 1 14.031753844809167 1.7542694755735866 1.754198124074102 0 0 0
37 1 14.033491012993116 3.506593040725969 0 0 0 0
39 1 15.785526535768112 3.5086344053418785 1.7545088099075858 0 0 0
67 1 14.033557739776247 0.00014596455021000012 3.5066908615600063 0 0 0
68 1 15.78724996324291 1.7542726835996179 3.5070137384786424 0 0 0
69 1 15.786230063498243 0.00015032514237562543 5.261888567123763 0 0 0
70 1 14.032536405186116 1.7538675966785333 5.2615202372386864 0 0 0
87 1 14.032106006590945 3.508012852459161 3.508143804165599 0 0 0
89 1 15.786301533103419 3.5078594080065697 5.261796637499868 0 0 0
22 1 1.7539604205299917 5.26168225092679 0 0 0 0
28 1 3.5083000210483966 5.262322513045498 1.7541418660050292 0 0 0
41 1 8.398265757850996e-05 7.01607158660721 0 0 0 0
42 1 1.754021001838782 7.016001872291512 1.7539397587649224 0 0 0
43 1 3.5079118527472524 7.01605546663296 0 0 0 0
72 1 1.7538686664597882 5.260603201333743 3.506690861560006 0 0 0
74 1 0.00014703433146530235 5.261624535923874 5.2615202372386864 0 0 0
78 1 3.507849733400093 5.262044550703026 5.261942227528945 0 0 0
91 1 0.00014606861296312696 7.015957120925968 3.507967171758926 0 0 0
92 1 1.7539523434557034 7.015608131453631 5.261607432206605 0 0 0
93 1 3.5078405094106406 7.015860707999758 3.507978415159468 0 0 0
252 1 1.3535346043608553e-06 8.770033584726095 1.754005773018871 0 0 0
254 1 3.5080119374811263 8.77003602792286 1.7540204988552064 0 0 0
302 1 6.008300623121468e-05 8.770011508355001 5.261956735796418 0 0 0
304 1 3.507921238704813 8.77001465574683 5.2619582810773355 0 0 0
26 1 5.260328664641643 5.260328664641643 0 0 0 0
32 1 7.015892293086899 5.261993875350927 1.7538130585819274 0 0 0
44 1 5.261993875350927 7.015892293086898 1.7538130585819274 0 0 0
45 1 7.015554081585268 7.015554081585268 0 0 0 0
76 1 5.262202214864298 5.262202214864297 3.5081457259821 0 0 0
82 1 7.016067382858211 5.261989035893288 5.262035896487766 0 0 0
94 1 5.261989035893288 7.016067382858211 5.262035896487764 0 0 0
95 1 7.016064393638366 7.016064393638366 3.507951573494858 0 0 0
46 1 8.770016662759435 7.015982601465389 1.7539023654978325 0 0 0
80 1 8.769987226954616 5.261957848087958 3.5079389740483147 0 0 0
256 1 7.015982601465389 8.770016662759435 1.7539023654978323 0 0 0
303 1 5.261957848087957 8.769987226954616 3.5079389740483156 0 0 0
255 1 8.769954844291181 8.769954844291181 0 0 0 0
305 1 8.770067694544585 8.770067694544585 3.507930937100267 0 0 0
30 1 8.77008752378917 5.261957333224269 0 0 0 0
34 1 12.278491380892968 5.261595038192471 0 0 0 0
36 1 10.524152260251336 5.261974890709451 1.7539588110171653 0 0 0
47 1 10.52421301256281 7.015896179724632 0 0 0 0
48 1 12.278218603759068 7.015942337350921 1.7538933728481703 0 0 0
84 1 12.278193217628182 5.261997720113526 3.507943765164185 0 0 0
86 1 10.52409660567225 5.26197082637109 5.26198101319248 0 0 0
96 1 8.770074030194195 7.016024871318905 5.261994550928442 0 0 0
97 1 10.524099820258773 7.016007778202872 3.5079341935197146 0 0 0
98 1 12.278134222827731 7.0160267182822595 5.261997917707358 0 0 0
257 1 12.278264761385357 8.769947928547179 0 0 0 0
258 1 10.524120402869652 8.77004053824034 1.7539074888272121 0 0 0
307 1 12.278153162907119 8.770061120851217 3.507934193519715 0 0 0
308 1 10.524101488839273 8.770059452270718 5.261984668633766 0 0 0
100 1 15.786230884244242 7.0159961375281465 5.261997533653272 0 0 0
99 1 14.032163220996463 7.0159677234818085 3.507943765164186 0 0 0
90 1 14.032153920587698 5.262007020522293 5.2620509431764475 0 0 0
88 1 15.78614808865083 5.262054934519046 3.5081438041655995 0 0 0
50 1 15.78614578710381 7.015902870279457 1.7538648166680297 0 0 0
49 1 14.03256590291752 7.015669560217023 6.181816841147145e-19 0 0 0
24 1 17.539891465536403 5.262407096300824 1.7541981240741016 -1 0 0
38 1 15.78756790038402 5.260669928116875 0 0 0 0
40 1 14.03225635950588 5.261904581604108 1.7537152136443284 0 0 0
260 1 14.03218605040054 8.770008680858654 1.7539588110171664 0 0 0
309 1 15.786174566582417 8.769981353868841 3.5079622634811147 0 0 0
310 1 14.0321901147389 8.770064335437738 5.26198101319248 0 0 0
101 1 1.284029292308573e-06 1.2840292916054705e-06 7.016044486165891 0 0 0
102 1 1.754013346980706 1.754013346980706 7.016044486165891 0 0 0
103 1 1.7540037439161233 1.0887093875475682e-05 8.770073155049996 0 0 0
104 1 1.0887093875245348e-05 1.7540037439161236 8.770073155049996 0 0 0
105 1 3.5079711532175626 3.6651394219095156e-06 7.016021661051689 0 0 0
108 1 3.507996573344414 1.7540183733270216 8.770073155049996 0 0 0
121 1 3.665139422220654e-06 3.5079711532175626 7.016021661051689 0 0 0
123 1 1.7540183733270218 3.507996573344414 8.770073155049996 0 0 0
125 1 3.50797698565546 3.5079769856554597 7.0159204797876935 0 0 0
151 1 1.2840292928484569e-06 1.2840292923179381e-06 10.5241018239341 0 0 0
152 1 1.7540133469807053 1.7540133469807058 10.5241018239341 0 0 0
153 1 3.507971153217563 3.665139421847492e-06 10.524124649048304 0 0 0
161 1 3.6651394219645567e-06 3.5079711532175617 10.524124649048304 0 0 0
163 1 3.50797698565546 3.5079769856554606 10.524225830312298 0 0 0
106 1 5.261936994921104 1.753951679451402 7.016000081600058 0 0 0
109 1 7.015879849118219 6.087732348910028e-05 7.015871872629293 0 0 0
112 1 7.015980935820539 1.7539578383414096 8.770073155049996 0 0 0
127 1 5.261977045825361 3.5079819190903563 8.770073155049996 0 0 0
129 1 7.016002335726455 3.5079171921225907 7.015993191970468 0 0 0
154 1 5.261936994921104 1.7539516794514018 10.524146228499934 0 0 0
155 1 7.015879849118218 6.0877323487151765e-05 10.5242744374707 0 0 0
165 1 7.016002335726455 3.5079171921225907 10.524153118129522 0 0 0
110 1 8.769952265866808 1.7539587050429235 7.015909899414635 0 0 0
111 1 8.770036686400923 5.5422477148834535e-05 8.770073155049996 0 0 0
131 1 8.770045017120378 3.507919310788088 8.770073155049996 0 0 0
156 1 8.76995226586681 1.753958705042924 10.524236410685356 0 0 0
113 1 10.524208675243182 5.5925967074774004e-05 7.015909899414636 0 0 0
114 1 12.278281091991772 1.7539537536865095 7.015871872629293 0 0 0
115 1 12.278180005289451 5.6792668588465e-05 8.770073155049996 0 0 0
116 1 10.524124254709067 1.7539592085328495 8.770073155049996 0 0 0
133 1 10.524101322019655 3.5079223697383495 7.016020742607932 0 0 0
135 1 12.278183777265793 3.507922825007806 8.770073155049996 0 0 0
157 1 10.524208675243184 5.59259670761685e-05 10.524236410685358 0 0 0
158 1 12.27828109199177 1.7539537536865102 10.5242744374707 0 0 0
167 1 10.524101322019655 3.507922369738348 10.52412556749206 0 0 0
117 1 14.032223946188886 6.295155859659715e-05 7.016000081600058 0 0 0
118 1 15.786189787892429 1.754010965870576 7.016021661051688 0 0 0
120 1 14.032185666665027 1.7540168561594163 8.770073155049994 0 0 0
137 1 14.032223208076191 3.5079152424631594 7.0159000372177545 0 0 0
139 1 15.78615378695465 3.508007154155341 8.770073155049996 0 0 0
159 1 14.032223946188886 6.295155859590304e-05 10.524146228499935 0 0 0
160 1 15.786189787892429 1.7540109658705758 10.524124649048305 0 0 0
169 1 14.032223208076191 3.5079152424631608 10.524246272882237 0 0 0
122 1 1.7539516794514023 5.261936994921103 7.016000081600058 0 0 0
128 1 3.5079819190903554 5.26197704582536 8.770073155049996 0 0 0
141 1 6.0877323489035336e-05 7.015879849118219 7.015871872629293 0 0 0
142 1 1.75395783834141 7.01598093582054 8.770073155049996 0 0 0
143 1 3.5079171921225902 7.016002335726455 7.015993191970468 0 0 0
162 1 1.7539516794514034 5.261936994921104 10.524146228499934 0 0 0
171 1 6.0877323489313854e-05 7.01587984911822 10.5242744374707 0 0 0
172 1 3.5079171921225902 7.016002335726454 10.524153118129522 0 0 0
351 1 1.7539587050429246 8.769952265866808 7.015909899414633 0 0 0
352 1 5.542247714915859e-05 8.770036686400921 8.770073155049996 0 0 0
354 1 3.507919310788089 8.770045017120376 8.770073155049996 0 0 0
401 1 1.7539587050429235 8.769952265866808 10.524236410685358 0 0 0
126 1 5.261973055232835 5.261973055232836 7.015968656791252 0 0 0
132 1 7.016006051488575 5.261963417756972 8.770073155049996 0 0 0
144 1 5.261963417756973 7.016006051488575 8.770073155049996 0 0 0
145 1 7.016025868297592 7.016025868297591 7.016048168346351 0 0 0
164 1 5.261973055232835 5.261973055232835 10.52417765330874 0 0 0
173 1 7.016025868297592 7.016025868297592 10.52409814175364 0 0 0
130 1 8.770069782323636 5.261961377271851 7.016042538277739 0 0 0
146 1 8.770064464483381 7.016011854806118 8.770073155049996 0 0 0
166 1 8.770069782323636 5.261961377271851 10.52410377182225 0 0 0
353 1 5.2619613772718505 8.770069782323636 7.016042538277739 0 0 0
356 1 7.016011854806118 8.770064464483381 8.770073155049996 0 0 0
402 1 5.261961377271851 8.770069782323636 10.524103771822253 0 0 0
355 1 8.770062736882736 8.770062736882734 7.0160355081957055 0 0 0
403 1 8.770062736882734 8.770062736882734 10.524110801904285 0 0 0
134 1 12.278140784553518 5.2619653649463425 7.016046320424313 0 0 0
136 1 10.524105926792974 5.2619558960563655 8.770073155049996 0 0 0
147 1 10.524103987282475 7.016012653819975 7.016037119733856 0 0 0
148 1 12.278151509243825 7.016009431866166 8.770073155049996 0 0 0
168 1 12.278140784553518 5.2619653649463425 10.524099989675678 0 0 0
174 1 10.524103987282473 7.016012653819975 10.524109190366136 0 0 0
357 1 12.278148287290016 8.770056953827517 7.016037119733855 0 0 0
358 1 10.524104464265838 8.77005647684415 8.770073155049996 0 0 0
404 1 12.278148287290016 8.770056953827517 10.524109190366138 0 0 0
175 1 14.032195576163646 7.016020156556471 10.524099989675678 0 0 0
170 1 15.786245698646828 5.2619377330337995 10.524246272882237 0 0 0
124 1 17.540144084950576 5.261975274444961 8.770073155049996 -1 0 0
138 1 15.78624569864683 5.2619377330337995 7.0159000372177545 0 0 0
140 1 14.032214024410491 5.261946916699498 8.770073155049996 0 0 0
149 1 14.032195576163646 7.016020156556472 7.016046320424312 0 0 0
150 1 15.786238116102185 7.015977163844197 8.770073155049996 0 0 0
359 1 15.78623857137164 8.770059619090334 7.016020742607931 0 0 0
360 1 14.032205045053626 8.770055014317014 8.770073155049996 0 0 0
405 1 15.786238571371642 8.770059619090334 10.524125567492062 0 0 0
176 1 1.7539305033689405 8.412764105710241e-05 12.278158977096064 0 0 0
177 1 8.41276410573569e-05 1.7539305033689407 12.278158977096064 0 0 0
179 1 3.507930877611748 1.7538643058676229 12.278257742976228 0 0 0
186 1 1.7538643058676227 3.507930877611748 12.278257742976228 0 0 0
202 1 1.7542666906519704 1.7542666906519697 14.032147418096589 0 0 0
203 1 1.7528481385452537 0.0011664924647448555 15.788537458489948 0 0 0
204 1 0.0011664924647434057 1.7528481385452541 15.788537458489948 0 0 0
208 1 3.507392054222491 1.7543119264252023 15.786895956573641 0 0 0
223 1 1.7543119264252025 3.50739205422249 15.786895956573641 0 0 0
225 1 3.508446034444839 3.5084460344448383 14.03158741263932 0 0 0
178 1 5.261624535923875 0.00014703433146418852 12.278626072861304 0 0 0
181 1 7.015608131453632 1.7539523434557023 12.27853887789339 0 0 0
188 1 5.262044550703026 3.5078497334000924 12.278204082571047 0 0 0
206 1 5.260603201333744 1.7538686664597893 14.033455448539986 0 0 0
209 1 7.015957120925969 0.00014606861296410337 14.032179138341064 0 0 0
212 1 7.016001872291514 1.7540210018387827 15.78620655133507 0 0 0
227 1 5.262322513045498 3.5083000210483957 15.786004444094962 0 0 0
229 1 7.015860707999758 3.507840509410641 14.032167894940525 0 0 0
180 1 8.770011508355001 6.008300623178461e-05 12.278189574303575 0 0 0
190 1 8.770014655746833 3.5079212387048124 12.278188029022656 0 0 0
211 1 8.770033584726095 1.3535346036016785e-06 15.78614053708112 0 0 0
231 1 8.77003602792286 3.508011937481127 15.786125811244787 0 0 0
182 1 12.27855280965636 6.228755429510207e-05 12.278538877893387 0 0 0
183 1 10.52414943275499 1.7539545480037673 12.278189574303573 0 0 0
192 1 12.278164803581841 3.507930056865746 12.27814877644672 0 0 0
210 1 8.77008447964551 1.7540197466175529 14.032185858710386 0 0 0
214 1 12.278203820184022 1.7538685623970351 14.032179138341066 0 0 0
216 1 10.524127356383895 1.754013277475394 15.786140537081122 0 0 0
233 1 10.524179587241148 3.5079863745275723 14.032184046618877 0 0 0
235 1 12.278258070830532 3.5080151540061815 15.78628149343196 0 0 0
221 1 17.539888257510373 3.506910977867079 14.033132571621348 -1 0 0
184 1 15.786230063498241 0.00015032514237563153 12.278257742976228 0 0 0
185 1 14.032536405186116 1.753867596678533 12.278626072861304 0 0 0
194 1 15.786301533103419 3.5078594080065697 12.278349672600124 0 0 0
217 1 14.033557739776247 0.0001459645502090765 14.033455448539986 0 0 0
218 1 15.78724996324291 1.7542726835996187 14.03313257162135 0 0 0
220 1 14.031753844809167 1.7542694755735864 15.78594818602589 0 0 0
237 1 14.032106006590945 3.5080128524591614 14.032002505934392 0 0 0
239 1 15.785526535768113 3.5086344053418785 15.785637500192408 0 0 0
187 1 0.00014703433146555687 5.2616245359238745 12.278626072861307 0 0 0
189 1 3.507849733400093 5.262044550703026 12.278204082571047 0 0 0
196 1 1.7539523434557023 7.015608131453631 12.278538877893387 0 0 0
222 1 1.7538686664597878 5.260603201333743 14.033455448539984 0 0 0
228 1 3.5083000210483966 5.262322513045499 15.786004444094962 0 0 0
241 1 0.00014606861296264493 7.015957120925967 14.032179138341064 0 0 0
242 1 1.7540210018387818 7.016001872291513 15.786206551335072 0 0 0
243 1 3.507840509410642 7.0158607079997575 14.032167894940523 0 0 0
426 1 6.008300623111471e-05 8.770011508355001 12.278189574303575 0 0 0
427 1 3.5079212387048138 8.770014655746833 12.278188029022656 0 0 0
452 1 1.3535346035431407e-06 8.770033584726097 15.78614053708112 0 0 0
454 1 3.5080119374811276 8.77003602792286 15.786125811244785 0 0 0
191 1 7.016067382858211 5.261989035893287 12.278110413612227 0 0 0
197 1 5.261989035893288 7.0160673828582105 12.278110413612227 0 0 0
226 1 5.262202214864298 5.262202214864298 14.03200058411789 0 0 0
232 1 7.015892293086899 5.261993875350926 15.786333251518064 0 0 0
244 1 5.261993875350927 7.015892293086899 15.786333251518064 0 0 0
245 1 7.016064393638366 7.016064393638366 14.032194736605133 0 0 0
230 1 8.769987226954616 5.261957848087957 14.032207336051677 0 0 0
246 1 8.770016662759435 7.015982601465388 15.786243944602159 0 0 0
453 1 5.261957848087957 8.769987226954614 14.032207336051677 0 0 0
456 1 7.015982601465388 8.770016662759435 15.786243944602159 0 0 0
455 1 8.770067694544585 8.770067694544585 14.032215372999724 0 0 0
193 1 10.52409660567225 5.26197082637109 12.278165296907511 0 0 0
198 1 8.770074030194195 7.016024871318905 12.278151759171548 0 0 0
199 1 12.278134222827731 7.0160267182822595 12.278148392392634 0 0 0
234 1 12.278193217628182 5.261997720113526 14.032202544935807 0 0 0
236 1 10.524152260251336 5.26197489070945 15.786187499082827 0 0 0
247 1 10.52409982025877 7.016007778202874 14.032212116580276 0 0 0
248 1 12.278218603759068 7.015942337350921 15.786252937251822 0 0 0
429 1 10.524101488839273 8.770059452270718 12.278161641466225 0 0 0
457 1 12.278153162907117 8.770061120851219 14.032212116580276 0 0 0
458 1 10.52412040286965 8.77004053824034 15.786238821272779 0 0 0
250 1 15.78614578710381 7.015902870279457 15.78628149343196 0 0 0
249 1 14.032163220996463 7.015967723481808 14.032202544935807 0 0 0
240 1 14.03225635950588 5.26190458160411 15.786431096455663 0 0 0
238 1 15.786148088650831 5.262054934519046 14.032002505934392 0 0 0
200 1 15.786230884244244 7.015996137528147 12.27814877644672 0 0 0
195 1 14.032153920587696 5.262007020522293 12.278095366923543 0 0 0
224 1 17.539891465536403 5.262407096300823 15.78594818602589 -1 0 0
430 1 14.0321901147389 8.770064335437741 12.278165296907511 0 0 0
459 1 15.786174566582417 8.769981353868843 14.032184046618875 0 0 0
460 1 14.03218605040054 8.770008680858654 15.786187499082827 0 0 0
251 1 1.754008851819768 8.770105735454637 0 0 0 0
261 1 5.7791902290847114e-06 10.524055205655351 4.551168346540875e-19 0 0 0
262 1 1.7539306483524195 12.27808935450278 1.995189354044096e-16 0 0 0
263 1 1.7540132774753945 10.524127356383895 1.7540057730188716 0 0 0
265 1 3.507969721348994 10.52407860060656 0 0 0 0
268 1 3.5080151540061824 12.278258070830532 1.7538648166680297 0 0 0
301 1 1.7540197466175542 8.77008447964551 3.5079604513896046 0 0 0
312 1 1.7538685623970345 12.27820382018402 3.507967171758927 0 0 0
313 1 1.7539545480037666 10.524149432754989 5.261956735796419 0 0 0
314 1 6.228755429535127e-05 12.278552809656357 5.261607432206605 0 0 0
315 1 3.507986374527572 10.524179587241148 3.5079622634811143 0 0 0
318 1 3.507930056865745 12.278164803581843 5.261997533653272 0 0 0
253 1 5.26195733322427 8.77008752378917 4.1371540174795213e-19 0 0 0
266 1 5.261595038192469 12.278491380892966 0 0 0 0
267 1 5.261974890709449 10.524152260251336 1.7539588110171647 0 0 0
269 1 7.015896179724632 10.52421301256281 0 0 0 0
272 1 7.015942337350922 12.278218603759068 1.7538933728481707 0 0 0
306 1 7.016024871318905 8.770074030194195 5.261994550928441 0 0 0
316 1 5.261997720113526 12.278193217628182 3.5079437651641845 0 0 0
317 1 5.2619708263710905 10.524096605672248 5.261981013192481 0 0 0
319 1 7.016007778202875 10.524099820258773 3.507934193519715 0 0 0
322 1 7.0160267182822595 12.278134222827731 5.261997917707358 0 0 0
270 1 8.76994792854718 12.278264761385357 0 0 0 0
271 1 8.77004053824034 10.52412040286965 1.7539074888272133 0 0 0
320 1 8.770061120851217 12.278153162907117 3.5079341935197155 0 0 0
321 1 8.770059452270718 10.524101488839271 5.261984668633766 0 0 0
273 1 10.524206096818808 10.524206096818808 0 0 0 0
274 1 12.278606859524722 12.278606859524722 0 0 0 0
275 1 12.278178339644603 10.524144278350555 1.7539023654978325 0 0 0
276 1 10.524144278350557 12.278178339644603 1.7539023654978325 0 0 0
323 1 10.524093246565407 10.524093246565405 3.5079309371002676 0 0 0
324 1 12.278096547471623 12.278096547471623 3.5079515734948585 0 0 0
325 1 12.278136069791085 10.524086910915795 5.261994550928441 0 0 0
326 1 10.524086910915795 12.278136069791085 5.261994550928442 0 0 0
264 1 17.540139939271207 12.278159068818477 1.7539397587649217 -1 0 0
311 1 17.540141194492435 10.52407646146448 3.507960451389604 -1 0 0
259 1 15.786191219760997 8.77008234050343 9.67029858854498e-20 0 0 0
277 1 14.032203607885721 10.524073417320821 1.6781200639974475e-16 0 0 0
278 1 15.786249088362737 12.278105474477027 3.984532994160369e-16 0 0 0
279 1 15.786149003628863 10.52412491318713 1.7540204988552053 0 0 0
280 1 14.032167065759063 12.278268648023092 1.7538130585819272 0 0 0
327 1 14.032203093022032 10.524173714155374 3.5079389740483147 0 0 0
328 1 15.78632043169935 12.278300233110233 3.5079784151594677 0 0 0
329 1 15.786239702405178 10.524146285363159 5.261958281077336 0 0 0
330 1 14.032171905216703 12.27809355825178 5.262035896487764 0 0 0
281 1 5.4210480008953624e-05 14.0324786901832 9.464153326804905e-16 0 0 0
282 1 1.7528710012227413 15.78754987413131 5.653901136294987e-16 0 0 0
283 1 1.7542694755735861 14.031753844809169 1.7541981240741011 0 0 0
285 1 3.506593040725968 14.033491012993116 0 0 0 0
288 1 3.5086344053418794 15.785526535768112 1.7545088099075858 0 0 0
331 1 0.0001459645502098331 14.033557739776247 3.5066908615600054 0 0 0
332 1 1.7542726835996174 15.78724996324291 3.5070137384786406 0 0 0
333 1 1.7538675966785342 14.032536405186116 5.2615202372386864 0 0 0
334 1 0.0001503251423745445 15.786230063498241 5.261888567123762 0 0 0
335 1 3.5080128524591614 14.032106006590945 3.5081438041655995 0 0 0
338 1 3.507859408006571 15.786301533103419 5.2617966374998675 0 0 0
55 1 3.5069109778670793 17.539888257510373 3.507013738478643 0 -1 0
341 1 8.77006433543774 14.0321901147389 5.26198101319248 0 0 0
340 1 8.769981353868843 15.786174566582417 3.5079622634811156 0 0 0
286 1 5.260669928116877 15.787567900384023 6.285834204732394e-19 0 0 0
287 1 5.261904581604109 14.03225635950588 1.7537152136443293 0 0 0
289 1 7.015669560217024 14.03256590291752 0 0 0 0
292 1 7.015902870279458 15.78614578710381 1.7538648166680284 0 0 0
336 1 5.262054934519045 15.78614808865083 3.5081438041656 0 0 0
337 1 5.262007020522294 14.032153920587698 5.2620509431764475 0 0 0
339 1 7.015967723481808 14.032163220996463 3.5079437651641863 0 0 0
342 1 7.0159961375281465 15.786230884244242 5.261997533653271 0 0 0
291 1 8.770008680858654 14.03218605040054 1.753958811017165 0 0 0
7 1 5.262407096300823 17.539891465536403 1.754198124074101 0 -1 0
346 1 10.524146285363159 15.786239702405174 5.261958281077334 0 0 0
345 1 12.27809355825178 14.032171905216703 5.262035896487765 0 0 0
344 1 12.278300233110231 15.78632043169935 3.507978415159468 0 0 0
343 1 10.524173714155376 14.032203093022034 3.5079389740483142 0 0 0
296 1 10.524124913187132 15.786149003628863 1.754020498855207 0 0 0
290 1 8.770082340503427 15.786191219760996 1.6060017978978805e-19 0 0 0
293 1 10.524073417320821 14.03220360788572 3.8106137178171254e-16 0 0 0
294 1 12.278105474477028 15.786249088362737 5.390139117011141e-16 0 0 0
295 1 12.27826864802309 14.032167065759063 1.753813058581927 0 0 0
15 1 12.278159068818477 17.540139939271207 1.7539397587649213 0 -1 0
63 1 10.52407646146448 17.540141194492435 3.5079604513896046 0 -1 0
350 1 14.032116390406966 15.786311207709897 5.2619422275289445 0 0 0
349 1 15.786311207709899 14.032116390406966 5.2619422275289445 0 0 0
348 1 15.785714906665152 15.785714906665152 3.5085588974606723 0 0 0
347 1 14.031958726245694 14.031958726245694 3.508145725982101 0 0 0
300 1 14.031838428064493 15.785860920061593 1.754141866005029 0 0 0
299 1 15.785860920061593 14.031838428064493 1.75414186600503 0 0 0
298 1 15.788508117336686 15.788508117336688 8.190608387206566e-19 0 0 0
297 1 14.033832276468347 14.033832276468345 0 0 0 0
284 1 17.53984901468479 15.7867688868875 1.753250353526352 -1 0 0
51 1 17.53989425045802 17.53989425045802 3.5079988920034033 -1 -1 0
19 1 15.786768886887499 17.539849014684787 1.7532503535263515 0 -1 0
361 1 5.5925967073167095e-05 10.524208675243182 7.015909899414633 0 0 0
362 1 1.7539537536865102 12.278281091991772 7.015871872629293 0 0 0
363 1 1.7539592085328506 10.524124254709069 8.770073155049996 0 0 0
364 1 5.679266858883127e-05 12.278180005289451 8.770073155049996 0 0 0
365 1 3.5079223697383495 10.524101322019654 7.016020742607931 0 0 0
368 1 3.5079228250078054 12.278183777265793 8.770073155049996 0 0 0
406 1 5.592596707357842e-05 10.524208675243182 10.524236410685356 0 0 0
407 1 1.7539537536865095 12.278281091991772 10.524274437470698 0 0 0
408 1 3.5079223697383504 10.524101322019655 10.524125567492062 0 0 0
366 1 5.261965364946344 12.278140784553518 7.016046320424313 0 0 0
367 1 5.2619558960563655 10.524105926792975 8.770073155049996 0 0 0
369 1 7.016012653819975 10.524103987282475 7.016037119733855 0 0 0
372 1 7.016009431866165 12.278151509243825 8.770073155049994 0 0 0
409 1 5.2619653649463425 12.278140784553518 10.52409998967568 0 0 0
410 1 7.016012653819974 10.524103987282473 10.524109190366138 0 0 0
370 1 8.770056953827517 12.278148287290016 7.016037119733856 0 0 0
371 1 8.770056476844152 10.524104464265838 8.770073155049996 0 0 0
411 1 8.770056953827519 12.278148287290016 10.524109190366138 0 0 0
373 1 10.524098204227256 10.524098204227256 7.0160355081957055 0 0 0
374 1 12.2781350728124 12.278135072812399 7.016048168346352 0 0 0
375 1 12.278149086303873 10.52409647662661 8.770073155049996 0 0 0
376 1 10.52409647662661 12.278149086303873 8.770073155049996 0 0 0
412 1 10.524098204227256 10.524098204227258 10.524110801904287 0 0 0
413 1 12.278135072812399 12.278135072812399 10.52409814175364 0 0 0
377 1 14.03219956383814 10.524091158786355 7.016042538277739 0 0 0
378 1 15.7862437489874 12.278158605383535 7.015993191970469 0 0 0
379 1 15.786241630321902 10.524115923989614 8.770073155049996 0 0 0
380 1 14.032197523353018 12.278154889621415 8.770073155049996 0 0 0
414 1 14.03219956383814 10.524091158786355 10.524103771822253 0 0 0
415 1 15.7862437489874 12.278158605383535 10.524153118129522 0 0 0
381 1 6.29515585952934e-05 14.032223946188886 7.016000081600058 0 0 0
382 1 1.7540109658705765 15.786189787892429 7.016021661051689 0 0 0
383 1 1.754016856159416 14.032185666665029 8.770073155049996 0 0 0
385 1 3.50791524246316 14.03222320807619 7.015900037217755 0 0 0
388 1 3.5080071541553406 15.78615378695465 8.770073155049996 0 0 0
416 1 6.295155859670664e-05 14.032223946188886 10.524146228499934 0 0 0
417 1 1.7540109658705763 15.786189787892427 10.524124649048304 0 0 0
418 1 3.5079152424631594 14.03222320807619 10.524246272882237 0 0 0
421 1 8.770059619090334 15.786238571371639 10.52412556749206 0 0 0
391 1 8.770055014317016 14.032205045053626 8.770073155049996 0 0 0
390 1 8.770059619090336 15.78623857137164 7.016020742607933 0 0 0
386 1 5.2619377330338 15.786245698646828 7.015900037217755 0 0 0
387 1 5.261946916699499 14.032214024410491 8.770073155049996 0 0 0
389 1 7.016020156556471 14.032195576163646 7.016046320424313 0 0 0
392 1 7.015977163844196 15.786238116102185 8.770073155049996 0 0 0
419 1 5.261937733033802 15.78624569864683 10.524246272882237 0 0 0
420 1 7.016020156556473 14.032195576163648 10.524099989675678 0 0 0
107 1 5.2619752744449615 17.540144084950573 8.770073155049996 0 -1 0
423 1 12.278158605383537 15.7862437489874 10.524153118129524 0 0 0
422 1 10.524091158786353 14.03219956383814 10.52410377182225 0 0 0
396 1 10.524115923989614 15.786241630321902 8.770073155049994 0 0 0
395 1 12.278154889621415 14.03219752335302 8.770073155049994 0 0 0
394 1 12.278158605383535 15.786243748987399 7.015993191970469 0 0 0
393 1 10.524091158786355 14.03219956383814 7.0160425382777385 0 0 0
425 1 15.78618395545453 15.786183955454531 10.524225830312297 0 0 0
424 1 14.032187885877155 14.032187885877157 10.52417765330874 0 0 0
400 1 14.03218389528463 15.786179022019635 8.770073155049996 0 0 0
399 1 15.786179022019635 14.03218389528463 8.770073155049996 0 0 0
398 1 15.78618395545453 15.786183955454531 7.015920479787693 0 0 0
397 1 14.032187885877155 14.032187885877155 7.0159686567912525 0 0 0
384 1 17.54014256778297 15.786164367765576 8.770073155049996 -1 0 0
119 1 15.786164367765576 17.540142567782965 8.770073155049996 0 -1 0
431 1 1.753954548003767 10.52414943275499 12.278189574303575 0 0 0
432 1 6.228755429547835e-05 12.278552809656357 12.278538877893387 0 0 0
434 1 3.5079300568657468 12.278164803581843 12.27814877644672 0 0 0
451 1 1.7540197466175538 8.770084479645512 14.032185858710388 0 0 0
462 1 1.7538685623970343 12.27820382018402 14.032179138341066 0 0 0
463 1 1.7540132774753943 10.524127356383895 15.78614053708112 0 0 0
465 1 3.5079863745275706 10.524179587241147 14.032184046618877 0 0 0
468 1 3.5080151540061824 12.278258070830534 15.786281493431963 0 0 0
428 1 7.016024871318905 8.770074030194195 12.278151759171548 0 0 0
433 1 5.2619708263710905 10.52409660567225 12.27816529690751 0 0 0
436 1 7.0160267182822595 12.278134222827731 12.278148392392636 0 0 0
466 1 5.261997720113527 12.278193217628184 14.032202544935805 0 0 0
467 1 5.261974890709449 10.524152260251336 15.786187499082827 0 0 0
469 1 7.016007778202874 10.524099820258773 14.032212116580277 0 0 0
472 1 7.015942337350922 12.278218603759068 15.78625293725182 0 0 0
435 1 8.770059452270718 10.524101488839273 12.278161641466227 0 0 0
470 1 8.770061120851217 12.278153162907117 14.032212116580276 0 0 0
471 1 8.77004053824034 10.52412040286965 15.786238821272779 0 0 0
437 1 12.278136069791087 10.524086910915795 12.278151759171548 0 0 0
438 1 10.524086910915795 12.278136069791083 12.278151759171548 0 0 0
473 1 10.524093246565405 10.524093246565407 14.032215372999724 0 0 0
474 1 12.278096547471625 12.278096547471623 14.032194736605133 0 0 0
475 1 12.278178339644603 10.524144278350555 15.786243944602159 0 0 0
476 1 10.524144278350557 12.278178339644603 15.786243944602159 0 0 0
461 1 17.540141194492435 10.52407646146448 14.032185858710388 -1 0 0
464 1 17.54013993927121 12.278159068818477 15.78620655133507 -1 0 0
439 1 15.786239702405176 10.524146285363159 12.278188029022655 0 0 0
440 1 14.032171905216702 12.27809355825178 12.278110413612225 0 0 0
477 1 14.03220309302203 10.524173714155374 14.032207336051675 0 0 0
478 1 15.78632043169935 12.278300233110233 14.032167894940525 0 0 0
479 1 15.786149003628864 10.52412491318713 15.786125811244787 0 0 0
480 1 14.032167065759063 12.278268648023092 15.786333251518064 0 0 0
441 1 1.7538675966785335 14.032536405186116 12.278626072861304 0 0 0
442 1 0.0001503251423761052 15.786230063498243 12.278257742976228 0 0 0
444 1 3.5078594080065697 15.786301533103419 12.278349672600124 0 0 0
481 1 0.00014596455020951976 14.033557739776246 14.033455448539984 0 0 0
482 1 1.7542726835996183 15.787249963242912 14.033132571621348 0 0 0
483 1 1.7542694755735866 14.031753844809167 15.785948186025891 0 0 0
485 1 3.5080128524591623 14.032106006590945 14.032002505934392 0 0 0
488 1 3.50863440534188 15.785526535768112 15.785637500192406 0 0 0
205 1 3.5069109778670784 17.539888257510373 14.03313257162135 0 -1 0
491 1 8.770008680858655 14.03218605040054 15.786187499082827 0 0 0
490 1 8.769981353868843 15.786174566582417 14.032184046618877 0 0 0
443 1 5.262007020522293 14.032153920587698 12.278095366923546 0 0 0
446 1 7.0159961375281465 15.786230884244244 12.27814877644672 0 0 0
486 1 5.262054934519045 15.78614808865083 14.032002505934392 0 0 0
487 1 5.26190458160411 14.03225635950588 15.786431096455662 0 0 0
489 1 7.015967723481807 14.03216322099646 14.032202544935805 0 0 0
492 1 7.015902870279457 15.78614578710381 15.786281493431963 0 0 0
445 1 8.770064335437741 14.0321901147389 12.27816529690751 0 0 0
207 1 5.262407096300822 17.5398914655364 15.785948186025891 0 -1 0
496 1 10.524124913187132 15.786149003628863 15.786125811244785 0 0 0
495 1 12.27826864802309 14.032167065759062 15.786333251518064 0 0 0
494 1 12.278300233110231 15.78632043169935 14.032167894940523 0 0 0
493 1 10.524173714155374 14.032203093022034 14.032207336051679 0 0 0
448 1 10.524146285363159 15.786239702405176 12.278188029022656 0 0 0
447 1 12.278093558251781 14.032171905216703 12.278110413612227 0 0 0
213 1 10.52407646146448 17.540141194492435 14.032185858710388 0 -1 0
215 1 12.278159068818477 17.540139939271207 15.78620655133507 0 -1 0
500 1 14.031838428064495 15.785860920061593 15.786004444094962 0 0 0
499 1 15.785860920061591 14.031838428064493 15.78600444409496 0 0 0
498 1 15.78571490666515 15.78571490666515 14.03158741263932 0 0 0
497 1 14.031958726245694 14.031958726245694 14.03200058411789 0 0 0
450 1 14.032116390406964 15.786311207709899 12.278204082571046 0 0 0
449 1 15.786311207709899 14.032116390406964 12.278204082571047 0 0 0
484 1 17.539849014684787 15.786768886887502 15.786895956573641 -1 0 0
201 1 17.53989425045802 17.53989425045802 14.032147418096589 -1 -1 0
219 1 15.7867688868875 17.539849014684787 15.786895956573641 0 -1 0

Velocities

1 -2.0405783612531585e-09 -2.0405765917406663e-09 1.0304173354422884e-15
2 2.040579454610471e-09 2.0405798085729122e-09 -3.318585208459785e-16
3 1.2122382661729669e-09 -1.2122321810591116e-09 4.555710623593406e-09
4 -1.2122409384336851e-09 1.2122330419697742e-09 4.555709564195007e-09
5 -2.6320198857879325e-09 4.84399808679689e-10 -4.3344460443246426e-18
8 7.49282733024581e-09 -3.2037211413334597e-09 -4.594973915966237e-09
21 4.844028822503254e-10 -2.6320164394549364e-09 6.21768811875535e-16
23 -3.2037194778029603e-09 7.492831275488493e-09 -4.594975797564211e-09
25 2.724081013263865e-09 2.724082731273867e-09 -1.2820992471798891e-15
52 -3.70660201308792e-09 -3.7066035483786014e-09 -1.2027433160297767e-08
53 5.282768529708576e-10 -5.282853791251541e-10 -3.7525722247464835e-09
54 -5.282766018719143e-10 5.28278797194104e-10 -3.752570249434796e-09
58 -4.421098956426963e-09 6.028863233471153e-10 1.44884261245959e-10
73 6.028849660676488e-10 -4.421100228811073e-09 1.44883686109808e-10
75 6.786112036274173e-11 6.786325051877702e-11 3.877837747698771e-09
6 -1.5718128492959914e-08 -4.1135355313058024e-10 -1.3511514565756818e-15
9 1.12259916571704e-09 -2.0996227529475095e-09 -9.296639446792855e-16
12 3.994055094830017e-09 1.6594449494829455e-09 1.7363013158287428e-09
27 1.9732804156206708e-09 -2.7486923392989016e-09 2.632705596218241e-09
29 2.13114339072204e-09 2.8846410001061335e-09 -3.3098726776403177e-16
56 1.2022527703999993e-09 1.6291725555830686e-09 -1.389556027330227e-09
57 -5.911354139544142e-10 -1.7573053267683957e-09 -1.960274259271047e-10
59 2.2817838061794634e-09 -1.0812875544900357e-10 1.822942141104073e-09
62 -1.4465186733557127e-09 -2.174125110343656e-09 7.271152385803164e-10
77 7.451830622390375e-11 -3.1470431979538125e-09 3.414392246081991e-09
79 -1.76080872402262e-09 1.5424867615369936e-09 5.604327991485772e-09
11 -2.505977258525007e-11 -5.765556157025226e-10 -1.5855986873199269e-09
31 -1.4875579014916227e-09 -4.185731228045177e-09 5.069445539969472e-10
61 1.1413339687578827e-10 -1.6530115434577468e-09 2.0246768304638078e-10
81 -8.603935355330301e-11 -7.68056145412598e-10 5.570048436206887e-09
10 -5.998460796983919e-09 -1.8438850173780184e-10 -5.67065113523024e-16
13 5.998457362010161e-09 1.843780512389253e-10 -5.374713094962557e-16
14 -1.1225983045751758e-09 2.0996333932545563e-09 -5.872952529944476e-16
16 2.5062443799722627e-11 5.765584157546673e-10 -1.5855945453830723e-09
33 -3.3729598537772786e-10 -4.0256026453295e-09 7.260944442527282e-16
35 -6.183737786026834e-09 -2.3630493438215347e-09 -1.973613276424713e-09
60 -2.6441379784825074e-09 -2.005236867456325e-09 3.738137396647893e-09
64 -2.2817837296540712e-09 1.081247459369489e-10 1.8229411032284411e-09
65 1.4465174675670037e-09 2.1741227467253892e-09 7.271160777337739e-10
66 -1.1413490242320222e-10 1.6530089846399442e-09 2.024678934912094e-10
83 -7.673813442797111e-10 -3.573054597704033e-10 1.327012718800355e-10
85 -3.309499803780618e-09 -2.3739374243070445e-09 2.0914053245028174e-09
71 -6.647791158236407e-10 -2.753869932528782e-09 -1.324225224311913e-11
17 1.5718128633007362e-08 4.1135548360317015e-10 -1.367218799671023e-15
18 2.6320165189696018e-09 -4.844016031403514e-10 9.613502398998656e-16
20 -2.765402993681517e-09 -5.761676305478025e-10 -5.121254595561324e-09
37 -3.477210657025281e-09 -3.559078214547341e-10 -2.1232059752639213e-15
39 -4.0772843655084895e-09 4.077285792288557e-09 -1.4913420073308772e-09
67 -1.2022540510092806e-09 -1.6291756486447001e-09 -1.3895570915639834e-09
68 2.753874217053965e-09 6.647770651822708e-10 -1.3243932756426203e-11
69 4.421098926534232e-09 -6.028833064232048e-10 1.4488414511269773e-10
70 5.911372290690856e-10 1.757306516355041e-09 -1.9603031683213428e-10
87 -4.872501947284761e-10 2.515975903358502e-09 -2.2741700303557453e-09
89 3.467868544905037e-10 -3.467838876369182e-10 -4.074681502111314e-09
22 -4.113532346235278e-10 -1.571813438765707e-08 -2.965358948944859e-16
28 -2.748693251604693e-09 1.973278235478384e-09 2.6327087682655766e-09
41 -2.099633717601365e-09 1.1225982617608443e-09 -1.2560925709139413e-15
42 1.65944664021583e-09 3.994059396991911e-09 1.7363003739087782e-09
43 2.884639991525378e-09 2.1311495003479348e-09 -2.8921217571614427e-16
72 1.6291736547995197e-09 1.2022506991373154e-09 -1.3895555261789902e-09
74 -1.7573096793049441e-09 -5.911361110809335e-10 -1.9603118730847092e-10
78 -3.147042788186761e-09 7.451742542523332e-11 3.4143898858068055e-09
91 -1.0812307822146744e-10 2.281786463045425e-09 1.822946770890303e-09
92 -2.1741284009355224e-09 -1.4465181550157512e-09 7.271123658888346e-10
93 1.5424882301668844e-09 -1.7608105928414516e-09 5.604326864828728e-09
252 -5.76557269069493e-10 -2.506203008432088e-11 -1.5855944114636358e-09
254 -4.185730336345001e-09 -1.4875613269744388e-09 5.069400110129036e-10
302 -1.6530093026986057e-09 1.1412985578283371e-10 2.0246253910517177e-10
304 -7.680542630673056e-10 -8.603633506002412e-11 5.5700448884628e-09
26 1.3603391293053492e-09 1.3603366336533244e-09 -8.925099652985355e-16
32 -8.868183870742189e-10 -1.080688760301991e-09 3.821053438068639e-09
44 -1.0806888024647544e-09 -8.868160195815736e-10 3.821054794897032e-09
45 -1.5651442574540299e-09 -1.5651455860364743e-09 -1.2758217735984535e-15
76 9.853950324806027e-11 9.854093886574967e-11 2.2412391475630884e-09
82 6.612121527040849e-09 -1.2485899618049484e-09 7.96788834664529e-09
94 -1.248589763485359e-09 6.612121040774483e-09 7.967892693767721e-09
95 3.5677043724453202e-09 3.567703739686521e-09 2.425997690883848e-09
46 -2.0334008990437287e-09 -4.655360891994232e-09 -3.154036743756296e-09
80 -1.876098581520056e-09 4.442059067296778e-09 2.607498389976576e-09
256 -4.655362306922955e-09 -2.03340103486682e-09 -3.154035607533578e-09
303 4.4420608112597915e-09 -1.8760963267387715e-09 2.607495283962904e-09
255 2.0938033828316834e-09 2.0938032144874387e-09 -1.3057145049386235e-15
305 7.934209752973905e-10 7.934180165844103e-10 -2.3450558367717843e-10
30 -5.414883250044866e-09 -2.0938246226387327e-10 -1.7768076032722502e-16
34 -1.7321779558168109e-09 3.6838988117428178e-09 -5.649124865610863e-16
36 -3.2813792080596966e-09 -2.8641150789240856e-09 -2.4677978595622234e-09
47 -5.233360422300798e-09 1.6858424584889958e-09 -4.797783380097277e-16
48 -6.321556767316327e-10 6.321573592620652e-10 -1.5455520781924123e-09
84 -4.021645039383698e-09 4.148692644630807e-09 -3.1917941773969782e-09
86 -2.3861140548441626e-09 -9.98607483777079e-10 2.7883797554493593e-09
96 1.2164911330851685e-09 6.713740511086909e-10 2.5234377948121352e-09
97 -2.545763344794581e-09 2.560201338957216e-09 -3.1062672753895175e-09
98 -5.088868278044845e-09 5.0888639726343596e-09 -1.7089381222809572e-09
257 -1.6858377238026326e-09 5.233360104198559e-09 -3.066900820715999e-16
258 8.993619547374661e-10 -8.993649207509503e-10 -5.280772508636272e-09
307 -2.560199928336353e-09 2.5457631274346492e-09 -3.1062693473224524e-09
308 1.4596272681684413e-09 -1.4596307054953581e-09 -1.591200365162572e-09
100 2.3739425086122548e-09 3.30950022691223e-09 2.091407952970684e-09
99 -4.148692263846855e-09 4.0216428270308254e-09 -3.1917983472689403e-09
90 3.148213448676678e-10 -3.148241408842937e-10 4.780659000619444e-10
88 -2.5159757886451455e-09 4.872471575522401e-10 -2.2741717073379733e-09
50 2.3630449744009948e-09 6.183734857435944e-09 -1.9736139034994845e-09
49 -3.683901461548957e-09 1.7321774954640775e-09 6.181816841147146e-16
24 5.761675650041941e-10 2.7653999024741687e-09 -5.12125414208859e-09
38 3.5590707301547316e-10 3.4772116376563327e-09 -7.369305593635397e-16
40 -1.3393528472301419e-09 1.3393594033039794e-09 2.8598720919425923e-09
260 2.8641113597545253e-09 3.2813790999223027e-09 -2.4678015858301395e-09
309 3.5730538306110074e-10 7.673830053804456e-10 1.3270681384996842e-10
310 9.986120858191177e-10 2.3861209907521467e-09 2.7883795573638907e-09
101 -2.4676710266356656e-09 -2.4676711127267316e-09 -2.6793161775703693e-09
102 2.4676696085244907e-09 2.467670831735057e-09 -2.6793147881562164e-09
103 -1.0752196791750831e-09 1.0752204444290054e-09 -3.561929122448485e-16
104 1.075219277416774e-09 -1.075221310122505e-09 -1.004171577544659e-15
105 1.5350214569312958e-09 -7.880329302883869e-10 -1.095183199621333e-10
108 -8.633502032301234e-09 -2.658153277939886e-09 5.929322514532237e-16
121 -7.880325689068673e-10 1.5350193871585778e-09 -1.0951816721027616e-10
123 -2.658153123394465e-09 -8.633503385545181e-09 2.0984697400799306e-16
125 -1.184849868798202e-09 -1.1848502824283627e-09 2.514735795925672e-09
151 -2.4676720573370422e-09 -2.4676726623659246e-09 2.6793171437034463e-09
152 2.467672779545431e-09 2.467670794518607e-09 2.679317104543968e-09
153 1.5350195748849307e-09 -7.880320314355577e-10 1.0951855476953798e-10
161 -7.880314805125191e-10 1.5350241939097773e-09 1.0951933960319932e-10
163 -1.1848502238864844e-09 -1.1848525944022656e-09 -2.514737328601324e-09
106 2.65132669894738e-09 -2.7210421881448146e-09 1.2762911832689388e-09
109 2.647278269246864e-09 -2.4509673820781802e-09 4.742644797506392e-09
112 -5.317709959232875e-09 -2.017115715170255e-09 3.8591516160159407e-16
127 5.888142300189936e-11 -4.3060816494210854e-09 -7.894903883902479e-16
129 -7.439558611308696e-10 9.702826041498116e-10 2.8945945306344866e-09
154 2.651326499350708e-09 -2.721041477893518e-09 -1.2762892648281732e-09
155 2.647283258194261e-09 -2.450961996603702e-09 -4.742648401374083e-09
165 -7.439550953466994e-10 9.702823081930883e-10 -2.8945915091974743e-09
110 3.810494315947696e-09 -9.825315788616761e-10 2.0907518228377923e-09
111 -1.5899825281135179e-09 -2.7721638572407628e-09 1.824652321003974e-15
131 -1.4550418639373638e-09 -5.598930377793525e-10 -1.1714662860750091e-15
156 3.810488428873186e-09 -9.825343816041664e-10 -2.090750189274756e-09
113 -3.810492250135765e-09 9.82533549390526e-10 2.090748667585267e-09
114 -2.647280805794582e-09 2.450965033705206e-09 4.742645979390258e-09
115 5.317711650558944e-09 2.017113070234471e-09 6.332109554068758e-16
116 1.5899841645482921e-09 2.7721629245875448e-09 -1.7741336050390865e-15
133 -1.891169262833516e-09 -3.091851554182994e-10 1.0843441888016364e-09
135 4.572283062843712e-10 -2.3635055099092545e-09 -6.635765990983258e-16
157 -3.8104969911603215e-09 9.82525265516817e-10 -2.0907547109240304e-09
158 -2.6472731916675184e-09 2.450964254102773e-09 -4.742649395008473e-09
167 -1.8911698413440737e-09 -3.091798156143098e-10 -1.0843431417853675e-09
117 -2.6513278674542483e-09 2.7210405794674777e-09 1.2762905439381472e-09
118 -1.5350218222204729e-09 7.880314217733021e-10 -1.095156054032003e-10
120 4.973906416667905e-09 1.548343834207317e-09 5.522532651439698e-15
137 -2.045355704660463e-09 2.3033592671280695e-09 -2.367412884908496e-09
139 5.409986501204028e-09 -5.409986713666616e-09 -5.787232787456902e-16
159 -2.6513273340184576e-09 2.721044887010064e-09 -1.2762962349163397e-09
160 -1.5350238833242987e-09 7.88031577215505e-10 1.0951226048129516e-10
169 -2.045357238990912e-09 2.3033548467582753e-09 2.3674135839511862e-09
122 -2.721041657249906e-09 2.6513278259033514e-09 1.276291786130598e-09
128 -4.3060790140778904e-09 5.888364694838619e-11 -1.3401746354443042e-15
141 -2.4509657654792696e-09 2.647277177713779e-09 4.742645352315486e-09
142 -2.0171148973051256e-09 -5.317711523220579e-09 -6.071213735188517e-16
143 9.702846012084607e-10 -7.439573183688273e-10 2.894595069156712e-09
162 -2.7210468753250887e-09 2.6513256087391797e-09 -1.2762889730751154e-09
171 -2.450965158058969e-09 2.647272999008865e-09 -4.742647330018591e-09
172 9.702852062933918e-10 -7.439533310776957e-10 -2.8945918912265806e-09
351 -9.825353046917103e-10 3.810494215508119e-09 2.0907581996299733e-09
352 -2.7721621712907153e-09 -1.5899764012993024e-09 -2.1451024009705956e-15
354 -5.598950884207224e-10 -1.4550374123118127e-09 1.1762544568545101e-15
401 -9.825309331786792e-10 3.810495889052683e-09 -2.0907538862583045e-09
126 2.199988356501797e-09 2.1999874668941122e-09 3.950656294184031e-09
132 8.280742590073678e-10 -6.3902302680278e-10 -4.0086152727167904e-16
144 -6.390242366690444e-10 8.280734169781688e-10 2.0476520968016416e-16
145 1.4927648018851219e-09 1.4927676268124492e-09 1.8282689905554685e-09
164 2.1999896781738828e-09 2.1999892410129624e-09 -3.950655668878886e-09
173 1.4927638684836723e-09 1.4927635153661806e-09 -1.8282666610149152e-09
130 4.624602830351137e-10 4.233244876752517e-09 2.1132361733290415e-09
146 3.760574645685493e-09 3.1930168776798976e-10 -1.6926759121371235e-15
166 4.6245931510187724e-10 4.233243339317382e-09 -2.1132337572210064e-09
353 4.233248276751779e-09 4.624581418187678e-10 2.113236878498574e-09
356 3.192996092850911e-10 3.760576414886797e-09 -1.6979071401216531e-15
402 4.233244221877505e-09 4.6245734652265043e-10 -2.113238669073181e-09
355 3.1906361228067352e-09 3.190639648056542e-09 -4.133709357280559e-09
403 3.1906406570856885e-09 3.190641612905773e-09 4.133711074767438e-09
134 -3.76933447917894e-10 2.4600150149730726e-09 1.1542369421614516e-09
136 1.669811448284411e-09 4.85383805597971e-09 -5.385782747036964e-16
147 4.4126675047442186e-09 2.734097878016039e-09 -2.694087659402876e-09
148 1.3728538364870307e-09 -1.3728574251212917e-09 -7.476487383077358e-16
168 -3.769354612820938e-10 2.4600147852427616e-09 -1.1542353828191139e-09
174 4.412671084122715e-09 2.734098459429664e-09 2.694089377039219e-09
357 -2.734099592214718e-09 -4.41266736868284e-09 -2.6940844173866987e-09
358 2.74457268327027e-09 -2.7445643073269483e-09 7.915595258877003e-16
404 -2.7341001901887954e-09 -4.4126679843236415e-09 2.6940837300780736e-09
175 -2.46001217107845e-09 3.7693641790087484e-10 -1.15423408160992e-09
170 -2.3033528084298042e-09 2.045358231429593e-09 2.3674143409098756e-09
124 -1.5483506963827236e-09 -4.973898613768243e-09 1.3474148651581605e-15
138 -2.303358423480459e-09 2.045357846411213e-09 -2.3674114708340077e-09
140 -3.591115760570942e-10 3.5911396254330077e-10 -2.2634776170776686e-15
149 -2.4600123641854944e-09 3.7693255067822136e-10 1.1542392829451733e-09
150 2.363506898707357e-09 -4.5723496738445205e-10 -7.628625038011372e-16
359 3.091831693452292e-10 1.8911700166580686e-09 1.0843455311347374e-09
360 -4.8538380840298345e-09 -1.6698038089780769e-09 8.060575005876827e-16
405 3.0917867885912724e-10 1.89117075859566e-09 -1.084345555273118e-09
176 5.282785628350903e-10 -5.282753815011574e-10 3.752569953048365e-09
177 -5.282768960163907e-10 5.282759209154944e-10 3.752572282140528e-09
179 -4.4210984924544075e-09 6.028808063472256e-10 -1.4488504533346973e-10
186 6.028832538119976e-10 -4.42109957266562e-09 -1.448856215146986e-10
202 -3.7066041103619506e-09 -3.706602842910142e-09 1.2027432928778563e-08
203 1.212235639947055e-09 -1.212235629484599e-09 -4.555708114995392e-09
204 -1.2122335489504978e-09 1.2122343524671162e-09 -4.555709229396416e-09
208 7.492829217672867e-09 -3.203719479297597e-09 4.594973856479701e-09
223 -3.2037189492994705e-09 7.492830097490682e-09 4.59497406856863e-09
225 6.786211997567774e-11 6.786485157346761e-11 -3.877835454278212e-09
178 -5.91142463398441e-10 -1.7573035333593806e-09 1.9603296413242177e-10
181 -1.4465183231623649e-09 -2.1741242542158307e-09 -7.271196994726143e-10
188 7.451910009460174e-11 -3.1470426334918766e-09 -3.414392803785775e-09
206 1.2022504157168564e-09 1.62916882661313e-09 1.389555876675794e-09
209 2.281783590951798e-09 -1.0812982441307629e-10 -1.8229393814071157e-09
212 3.994055097221435e-09 1.6594423284882615e-09 -1.7362991722957102e-09
227 1.973278816770569e-09 -2.748690201374839e-09 -2.6327057870173565e-09
229 -1.7608083010404715e-09 1.5424870458168687e-09 -5.604328800158886e-09
180 1.1413383061932001e-10 -1.6530108188579392e-09 -2.0246906767769647e-10
190 -8.603892172329482e-11 -7.680541474571671e-10 -5.570049762246113e-09
211 -2.5060281957392104e-11 -5.765547308776749e-10 1.5855987471053894e-09
231 -1.487558860450444e-09 -4.1857328560033264e-09 -5.06943488321075e-10
182 1.4465141728975822e-09 2.174127345580816e-09 -7.271118329658975e-10
183 -1.1413389963051449e-10 1.6530068897573317e-09 -2.024608966490483e-10
192 -3.3094966618142914e-09 -2.373937394545094e-09 -2.091406427232832e-09
210 -2.6441370482207083e-09 -2.0052370372470387e-09 -3.73813452634783e-09
214 -2.2817877029118477e-09 1.0812328226549971e-10 -1.822944963769602e-09
216 2.506128396174663e-11 5.76556129259647e-10 1.585593256408497e-09
233 -7.673821010889368e-10 -3.573059810996379e-10 -1.3270558271082207e-10
235 -6.183732564663451e-09 -2.363047464166588e-09 1.9736169006194606e-09
221 -6.647773880237693e-10 -2.753873427288003e-09 1.3244964667524283e-11
184 4.421103243044638e-09 -6.028839258005981e-10 -1.4488303101060067e-10
185 5.911361929870173e-10 1.7573081942340512e-09 1.9603255054320297e-10
194 3.4678577452450463e-10 -3.4678263398947927e-10 4.074680638823246e-09
217 -1.2022528002974013e-09 -1.6291714289867441e-09 1.3895553525022212e-09
218 2.753874013484465e-09 6.647741344988901e-10 1.3241040349753945e-11
220 -2.765401764193477e-09 -5.761665211574962e-10 5.121256501521874e-09
237 -4.872487831937023e-10 2.515977202130537e-09 2.274171680583979e-09
239 -4.0772902183558224e-09 4.07728797353489e-09 1.4913400214820025e-09
187 -1.7573090910159913e-09 -5.911392936853074e-10 1.960197443709139e-10
189 -3.147042588054925e-09 7.451738403898489e-11 -3.4143921628856154e-09
196 -2.1741239672456098e-09 -1.4465154843991332e-09 -7.271128668162801e-10
222 1.6291755018713892e-09 1.2022515863535816e-09 1.389560442935441e-09
228 -2.74869339987264e-09 1.973276212562522e-09 -2.6327077699230816e-09
241 -1.081212440034724e-10 2.281791575898193e-09 -1.8229398333852137e-09
242 1.6594461810634766e-09 3.994057995620666e-09 -1.7363055753000803e-09
243 1.5424826662328e-09 -1.7608072890967839e-09 -5.604325855949045e-09
426 -1.6530071671618787e-09 1.1413356188366527e-10 -2.0246568382050875e-10
427 -7.680571021014402e-10 -8.604088269845946e-11 -5.570049211151426e-09
452 -5.765548638255976e-10 -2.5065798959888247e-11 1.585596367643975e-09
454 -4.185733680444856e-09 -1.4875617362059306e-09 -5.069380584920889e-10
191 6.612122117959057e-09 -1.2485890919451493e-09 -7.967893725889003e-09
197 -1.2485892134544315e-09 6.6121224477506156e-09 -7.967894744633286e-09
226 9.853951291649056e-11 9.853783645388211e-11 -2.2412356884842288e-09
232 -8.868191952715018e-10 -1.0806866212435266e-09 -3.8210527633911585e-09
244 -1.0806878412639781e-09 -8.868195134510187e-10 -3.821052567289405e-09
245 3.567705329778038e-09 3.5677040020647156e-09 -2.425998081637895e-09
230 -1.876097148278605e-09 4.442060429910229e-09 -2.607497913459741e-09
246 -2.033401427059455e-09 -4.655360345555103e-09 3.1540384480903737e-09
453 4.4420620150774e-09 -1.876092665747356e-09 -2.607499320980942e-09
456 -4.655359882719945e-09 -2.033400929494942e-09 3.1540380141973783e-09
455 7.934185883296046e-10 7.934193751062935e-10 2.3450403410804686e-10
193 -2.386114694147217e-09 -9.986082776346087e-10 -2.7883812857616167e-09
198 1.2164892201488692e-09 6.713736484535998e-10 -2.5234374115873194e-09
199 -5.08886744343278e-09 5.088865088333941e-09 1.7089358624704544e-09
234 -4.021647380576579e-09 4.148694125831437e-09 3.191796063921998e-09
236 -3.281378960662898e-09 -2.8641111850735473e-09 2.467795659630598e-09
247 -2.5457592005479723e-09 2.5601961532724426e-09 3.106271823026785e-09
248 -6.321583743261899e-10 6.32159281065763e-10 1.5455479781053817e-09
429 1.4596255770397038e-09 -1.4596277719955218e-09 1.5911991302027609e-09
457 -2.5601971178384864e-09 2.545759409377827e-09 3.106273109498428e-09
458 8.993651642272471e-10 -8.993649803869493e-10 5.280775069247639e-09
250 2.3630456254646835e-09 6.183735390124417e-09 1.9736154161464223e-09
249 -4.148691812071532e-09 4.0216470713869396e-09 3.191795469495694e-09
240 -1.3393520559695434e-09 1.3393534591343524e-09 -2.8598715675493527e-09
238 -2.5159829631248627e-09 4.872466890584082e-10 2.2741718588941214e-09
200 2.373934577771703e-09 3.3094987750222688e-09 -2.0914074247661212e-09
195 3.148255288038098e-10 -3.1482313095836535e-10 -4.78062850505914e-10
224 5.761690022467169e-10 2.7654028268800757e-09 5.121255806515871e-09
430 9.986124783382825e-10 2.3861101699167756e-09 -2.7883817072888297e-09
459 3.5730316400863637e-10 7.673795908468225e-10 -1.327034455299949e-10
460 2.8641116263976888e-09 3.281380303580386e-09 2.4677953412385628e-09
251 -1.8438327887978207e-10 -5.998459545973113e-09 -9.588093577359513e-16
261 1.843897213612405e-10 5.998464263643973e-09 4.551168346540875e-16
262 2.099634576933318e-09 -1.1226026449320408e-09 9.830224701214888e-16
263 5.765552471251452e-10 2.506192486190656e-11 -1.5855984075239615e-09
265 -4.025608563492451e-09 -3.372991129047443e-10 -1.1248634803305953e-15
268 -2.3630518548109674e-09 -6.183731283311522e-09 -1.9736136058426125e-09
301 -2.00524092808495e-09 -2.6441398318318504e-09 3.738139284224413e-09
312 1.0812406199125584e-10 -2.281783468989454e-09 1.8229415049867503e-09
313 1.6530090563824993e-09 -1.1413124459913177e-10 2.0246229518048404e-10
314 2.174126884776189e-09 1.4465184573807287e-09 7.271125069825265e-10
315 -3.5730374273191515e-10 -7.673824413429512e-10 1.327090670823189e-10
318 -2.3739338860538994e-09 -3.30950208952832e-09 2.0914080581930984e-09
253 -2.093851193516949e-10 -5.4148843200117005e-09 4.137154017479521e-16
266 3.683905338131772e-09 -1.7321725679478814e-09 -4.448972571271669e-16
267 -2.8641084994685272e-09 -3.2813805025994575e-09 -2.4677946890282074e-09
269 1.685842582020708e-09 -5.233358824510735e-09 -7.269912261929332e-16
272 6.3215610585984e-10 -6.321570047342714e-10 -1.5455539862454538e-09
306 6.713751419528418e-10 1.216489618644667e-09 2.5234407595732296e-09
316 4.148694017220957e-09 -4.021647896510525e-09 -3.191791983850253e-09
317 -9.986104361747264e-10 -2.3861102892437042e-09 2.7883741438533e-09
319 2.5601930625882175e-09 -2.5457636469422955e-09 -3.1062685709965424e-09
322 5.0888654162264425e-09 -5.088867821725295e-09 -1.7089376939981036e-09
270 5.23335753553616e-09 -1.6858397649297065e-09 -3.436076052767098e-16
271 -8.993627273717882e-10 8.993650787340354e-10 -5.2807750947311926e-09
320 2.545766581663031e-09 -2.5601953650011174e-09 -3.1062702162924756e-09
321 -1.4596284862589834e-09 1.4596294906547565e-09 -1.5911985895343304e-09
273 -2.093802716409144e-09 -2.093803169050487e-09 -1.284191738373701e-15
274 1.5651469142452597e-09 1.5651445572033934e-09 -5.108667786035044e-16
275 4.655362342557704e-09 2.033401558334085e-09 -3.154037389194694e-09
276 2.033397584712356e-09 4.655360078613012e-09 -3.154035061692304e-09
323 -7.934224393868295e-10 -7.934196262052367e-10 -2.3450752079623037e-10
324 -3.5676996046318548e-09 -3.5676991785735867e-09 2.425996411680459e-09
325 -6.713716124223023e-10 -1.2164894672210513e-09 2.52343998501001e-09
326 -1.2164889394818109e-09 -6.713723128463635e-10 2.5234379816417064e-09
264 -1.6594423237054244e-09 -3.994055738121595e-09 1.7363024652042628e-09
311 2.005238961442155e-09 2.644140023145331e-09 3.73813970795388e-09
259 4.0256009635644346e-09 3.372965806914725e-10 9.670298588544979e-17
277 2.0938131258709055e-10 5.414878729323622e-09 -1.0972512374399312e-15
278 -2.884636341025027e-09 -2.1311421175906124e-09 -2.8069274728419583e-15
279 4.185731712307425e-09 1.487559202199095e-09 5.069445322499852e-10
280 1.0806840812254495e-09 8.868188339431118e-10 3.8210565728734015e-09
327 -4.442058083136983e-09 1.8760982526988435e-09 2.6074995758164767e-09
328 -1.542487317317601e-09 1.7608055808766514e-09 5.604328745679383e-09
329 7.68051021051128e-10 8.603574557536208e-11 5.570042563032497e-09
330 1.2485878386923877e-09 -6.612118904042048e-09 7.967892315923597e-09
281 4.113438224486744e-10 1.5718134138351693e-08 -2.9169070351077884e-15
282 -4.843980213932822e-10 2.632018155297715e-09 -2.984490297002568e-15
283 -5.761640594835898e-10 -2.7654085847432548e-09 -5.121251194515816e-09
285 -3.5590357437019707e-10 -3.477208890486298e-09 -3.348727389958449e-16
288 4.077285821284506e-09 -4.077285079047986e-09 -1.4913427416458226e-09
331 -1.6291709232017298e-09 -1.2022542627992822e-09 -1.389555275080047e-09
332 6.647802747648348e-10 2.7538751996280443e-09 -1.3236525351612327e-11
333 1.7573046334118939e-09 5.911383936898986e-10 -1.960302944125858e-10
334 -6.028795853760076e-10 4.421103193721631e-09 1.4488662277173486e-10
335 2.5159742368387297e-09 -4.872503303340494e-10 -2.2741722954774625e-09
338 -3.4678912095739394e-10 3.4678590143549677e-10 -4.074678042625516e-09
55 -2.7538740828356013e-09 -6.647779464947225e-10 -1.3245032673488082e-11
341 2.3861154268986324e-09 9.986106046809873e-10 2.788379293647529e-09
340 7.673772793989001e-10 3.573043050825012e-10 1.3270410024386624e-10
286 3.47720616269049e-09 3.558987569490518e-10 6.285834204732394e-16
287 1.3393578422261462e-09 -1.339353211885266e-09 2.8598683035417192e-09
289 1.7321725250781984e-09 -3.6839057246167637e-09 -6.716855863167559e-16
292 6.183731420818086e-09 2.3630446612746343e-09 -1.9736056135724974e-09
336 4.872521736833397e-10 -2.5159753853238903e-09 -2.274175359897537e-09
337 -3.1482644180605984e-10 3.148199852341487e-10 4.780666929088428e-10
339 4.021647011863973e-09 -4.148691716751085e-09 -3.1917994098632924e-09
342 3.3095034320856164e-09 2.373941123980939e-09 2.091411040291977e-09
291 3.2813812503824706e-09 2.8641104142567747e-09 -2.4677957731377704e-09
7 2.76540360629568e-09 5.761678069455692e-10 -5.121251085419023e-09
346 8.603652383262253e-11 7.680609896791754e-10 5.5700511290188576e-09
345 -6.612117695581675e-09 1.2485852314705464e-09 7.967890408563576e-09
344 1.760813527421889e-09 -1.542485930841373e-09 5.604327637481101e-09
343 1.876093759666605e-09 -4.442066669805378e-09 2.6074990958378808e-09
296 1.4875548695466145e-09 4.185732799057673e-09 5.069360972685192e-10
290 3.3731133507107554e-10 4.0256058707552115e-09 -1.0235271210874191e-15
293 5.414879325851755e-09 2.093872577282313e-10 -3.2133868811310117e-16
294 -2.131146769721659e-09 -2.8846395885713595e-09 -2.984490297002568e-15
295 8.868240810108869e-10 1.0806845981641891e-09 3.821056114994171e-09
15 -3.994054204923405e-09 -1.6594420708129175e-09 1.7363036071066e-09
63 2.644140148096364e-09 2.005240005175478e-09 3.7381386437025835e-09
350 -7.452217194257918e-11 3.1470453825769144e-09 3.414393016846218e-09
349 3.1470415845559337e-09 -7.452221573543059e-11 3.414393786957709e-09
348 -6.786383253025622e-11 -6.786222998092907e-11 3.8778344022273966e-09
347 -9.854359827668024e-11 -9.854186395937598e-11 2.241236753156612e-09
300 -1.973280639761831e-09 2.7486924714044046e-09 2.632710506826831e-09
299 2.748694362568053e-09 -1.973277768180261e-09 2.632704858445781e-09
298 -2.7240791612596947e-09 -2.7240888131742536e-09 8.190608387206566e-16
297 -1.3603391406038675e-09 -1.3603353331666767e-09 -9.2518003497826e-16
284 3.203712633563193e-09 -7.492830840997642e-09 -4.594976778344726e-09
51 3.706603437532617e-09 3.7066041142585147e-09 -1.2027432524119724e-08
19 -7.49282540425713e-09 3.203723266706658e-09 -4.594974338499994e-09
361 9.825369691189914e-10 -3.810493820625138e-09 2.090759261569254e-09
362 2.4509624748874037e-09 -2.6472803278098077e-09 4.742645775783391e-09
363 2.7721607531795403e-09 1.5899771844888635e-09 -1.3419594416885796e-15
364 2.0171142540135473e-09 5.31771049730204e-09 -1.4934408577548907e-15
365 -3.091833684308199e-10 -1.8911646528137836e-09 1.084346257079718e-09
368 -2.3635027076530084e-09 4.5722794625678206e-10 -9.738397967129303e-16
406 9.825363856128756e-10 -3.810493724968397e-09 -2.090751880904423e-09
407 2.4509644932446237e-09 -2.647280329304444e-09 -4.742643752157577e-09
408 -3.0918708671293945e-10 -1.8911694032510477e-09 -1.084346720023544e-09
366 2.4600090901840944e-09 -3.7693407460966507e-10 1.154235378655533e-09
367 4.853838119901112e-09 1.6698070639228608e-09 -1.886231347564724e-16
369 2.734100953214428e-09 4.412664810761819e-09 -2.694085618925035e-09
372 -1.3728533633294658e-09 1.3728534641427023e-09 6.552785637078655e-15
409 2.460017459401551e-09 -3.769314631806552e-10 -1.1542379740919316e-09
410 2.7341030650541594e-09 4.4126725314564696e-09 2.6940844662613146e-09
370 -4.412667728292398e-09 -2.734099921483154e-09 -2.6940867110559744e-09
371 -2.744569146661225e-09 2.744572297056181e-09 5.959115992662879e-16
411 -4.412675526334491e-09 -2.7341008876162304e-09 2.6940833189782857e-09
373 -3.190638063741781e-09 -3.190638753367093e-09 -4.133706701610306e-09
374 -1.4927670318723637e-09 -1.4927637849986175e-09 1.8282643213108332e-09
375 -3.193055241077152e-10 -3.760580520003046e-09 6.341947298660201e-16
376 -3.760577748178396e-09 -3.1930481529500623e-10 -1.5632275409011898e-15
412 -3.190638660699626e-09 -3.190644810830172e-09 4.133704206762949e-09
413 -1.4927634438320024e-09 -1.4927604322298702e-09 -1.828266954561537e-09
377 -4.2332446275966006e-09 -4.6246386224130067e-10 2.113235122674267e-09
378 -9.702842915758127e-10 7.439598007615396e-10 2.894593512085206e-09
379 5.598924363375979e-10 1.4550366805377494e-09 -2.0327057311315567e-16
380 6.390271091877088e-10 -8.280724264620813e-10 1.625566730278442e-15
414 -4.233244297431383e-09 -4.62463566901115e-10 -2.113240314070187e-09
415 -9.702847988554636e-10 7.439597610042069e-10 -2.8945940982069356e-09
381 2.721043254717469e-09 -2.6513267718856447e-09 1.2762912592712082e-09
382 7.8803144703266e-10 -1.5350218401561116e-09 -1.0952118973907379e-10
383 1.5483450885063242e-09 4.973901904659037e-09 -1.1517646031671122e-15
385 2.30336013699721e-09 -2.0453531709929278e-09 -2.3674144085596955e-09
388 -5.409984045217221e-09 5.4099854002039385e-09 4.208949118512738e-16
416 2.721040341969727e-09 -2.651326525121147e-09 -1.2762903074866424e-09
417 7.880324968653847e-10 -1.535018444939686e-09 1.0951794002551797e-10
418 2.303361942153865e-09 -2.0453524192363748e-09 2.367414082636677e-09
421 1.8911725085588467e-09 3.0919095954048006e-10 -1.0843427567156098e-09
391 -1.6698093473746024e-09 -4.853839530202811e-09 -2.0542261623268432e-15
390 1.8911652366608634e-09 3.0918290539241146e-10 1.0843402954228431e-09
386 2.0453559824499505e-09 -2.3033569548505686e-09 -2.3674138830279634e-09
387 3.591100121160979e-10 -3.591118204044839e-10 1.142198929138258e-15
389 3.769373501507898e-10 -2.4600111398165845e-09 1.1542358796919676e-09
392 -4.5722890409229063e-10 2.3635068269648018e-09 -1.8987862947275954e-15
419 2.0453507453555174e-09 -2.303362862469917e-09 2.3674136996343052e-09
420 3.76931867528196e-10 -2.4600187607909516e-09 -1.1542338705613983e-09
107 -4.973901548337679e-09 -1.5483444157038473e-09 -9.350446363205161e-16
423 7.439519985344644e-10 -9.70283519521294e-10 -2.8945985769601404e-09
422 -4.6245477397512556e-10 -4.233243666750801e-09 -2.1132349244165648e-09
396 1.4550401179029262e-09 5.598941279672645e-10 6.700754657212496e-15
395 -8.280738220807184e-10 6.390231964813963e-10 5.2778647323172695e-15
394 7.439590254935523e-10 -9.702786872865412e-10 2.8945911767155697e-09
393 -4.624621854787426e-10 -4.233247071803803e-09 2.113237051764902e-09
425 1.184854376622088e-09 1.1848491524936272e-09 -2.514732197737601e-09
424 -2.1999877685117716e-09 -2.1999930613187827e-09 -3.9506568005669e-09
400 -5.888729222276405e-11 4.306081173827729e-09 -3.73061287125321e-16
399 4.306080042387849e-09 -5.888483055633819e-11 -2.391418507213596e-18
398 1.1848542346316141e-09 1.1848492117559672e-09 2.514736421188197e-09
397 -2.199986694167007e-09 -2.1999893694169984e-09 3.9506529627885865e-09
384 2.658153312316527e-09 8.63350200270743e-09 -5.308949086014183e-16
119 8.633502382942972e-09 2.6581621240958714e-09 8.130822924526227e-17
431 1.653007611965721e-09 -1.1413402761241954e-10 -2.024681024414015e-10
432 2.1741267625149176e-09 1.4465164892432972e-09 -7.271149199238003e-10
434 -2.3739405006614417e-09 -3.3095009953189015e-09 -2.0914051390219224e-09
451 -2.005240248922094e-09 -2.644145736244145e-09 -3.73813923505087e-09
462 1.0812964117063317e-10 -2.2817818643476356e-09 -1.8229458310628297e-09
463 5.765578404690526e-10 2.5061558974874958e-11 1.58560026804756e-09
465 -3.572984576970142e-10 -7.673754610165241e-10 -1.3270658613508134e-10
468 -2.3630495733977118e-09 -6.18373679590484e-09 1.9736109625031117e-09
428 6.713743627637688e-10 1.2164898362637512e-09 -2.5234353143132888e-09
433 -9.986098985679656e-10 -2.386114967516245e-09 -2.7883726288266206e-09
436 5.0888665624192556e-09 -5.088867111025608e-09 1.708929683343959e-09
466 4.14868942833172e-09 -4.021653956353929e-09 3.191800485444051e-09
467 -2.8641098506386665e-09 -3.281377765070413e-09 2.4677929122083437e-09
469 2.560194308017491e-09 -2.5457646226410467e-09 3.1062682409807888e-09
472 6.321567271793852e-10 -6.32157181699241e-10 1.545554591722727e-09
435 -1.4596304041766262e-09 1.4596241864885075e-09 1.5911959482125893e-09
470 2.545765711409054e-09 -2.5601938201447617e-09 3.10627272040658e-09
471 -8.993643580202829e-10 8.993654828837632e-10 5.280775987851273e-09
437 -6.713781471882272e-10 -1.2164886083789423e-09 -2.5234380140407133e-09
438 -1.2164856151111586e-09 -6.713667025785455e-10 -2.5234341650872325e-09
473 -7.934178725481527e-10 -7.934221969801319e-10 2.3450518654757185e-10
474 -3.5677047009544393e-09 -3.5677000356715357e-09 -2.4259986435365874e-09
475 4.655361384789921e-09 2.0334009344914652e-09 3.1540388701553554e-09
476 2.0333979361657817e-09 4.655359428147178e-09 3.1540373970619397e-09
461 2.0052379364203973e-09 2.64414037707527e-09 -3.738140575739871e-09
464 -1.6594516018113779e-09 -3.994054810251215e-09 -1.7362979684406874e-09
439 7.680563323916326e-10 8.603866310594089e-11 -5.5700444037521604e-09
440 1.248592008130555e-09 -6.612118085579063e-09 -7.96789019860821e-09
477 -4.442053893670686e-09 1.876099424194985e-09 -2.6074928385926873e-09
478 -1.5424888322064936e-09 1.7608032359413415e-09 -5.60433010990891e-09
479 4.185726159433651e-09 1.4875609503260238e-09 -5.069451632855438e-10
480 1.080684911645526e-09 8.868165378824176e-10 -3.821054442530355e-09
441 1.7573062882735008e-09 5.911358584873536e-10 1.96032605718573e-10
442 -6.028861829633757e-10 4.421098974362602e-09 -1.4488539358262216e-10
444 -3.467833878304502e-10 3.467865376649174e-10 4.074679088721649e-09
481 -1.6291690387639462e-09 -1.202247631694689e-09 1.3895598905177659e-09
482 6.647767835927415e-10 2.7538675997000285e-09 1.3245048367172036e-11
483 -5.761665027659859e-10 -2.765399589273076e-09 5.121249200820099e-09
485 2.5159707857228967e-09 -4.872499835176462e-10 2.2741724696026227e-09
488 4.077282463732922e-09 -4.077287999866766e-09 1.4913447775650224e-09
205 -2.7538698835047026e-09 -6.647769219213558e-10 1.3239300667521775e-11
491 3.281375366393851e-09 2.8641098027262234e-09 2.4677953071912087e-09
490 7.673758621752272e-10 3.573034868501349e-10 -1.3270793183111443e-10
443 -3.148233204280716e-10 3.1482399953838187e-10 -4.780743570531014e-10
446 3.3095045975226003e-09 2.3739350094963075e-09 -2.091404503328469e-09
486 4.872521760654167e-10 -2.515974780613786e-09 2.274171291269103e-09
487 1.3393561670047868e-09 -1.3393531276963583e-09 -2.8598659190309298e-09
489 4.021651845692101e-09 -4.148685075987403e-09 3.1918007895144322e-09
492 6.1837347267432595e-09 2.3630427545667655e-09 1.973606663031563e-09
445 2.3861129044034177e-09 9.98611463956891e-10 -2.788374807797136e-09
207 2.7654057728461153e-09 5.761764246732121e-10 5.121251185858017e-09
496 1.4875562389551151e-09 4.1857328796185835e-09 -5.06935136516134e-10
495 8.868244993876864e-10 1.0806897583595709e-09 -3.821054347373967e-09
494 1.7608118805572628e-09 -1.542487893073462e-09 -5.604325304030555e-09
493 1.8760985405653505e-09 -4.4420665772500085e-09 -2.607503910622752e-09
448 8.603724590035062e-11 7.680573237519561e-10 -5.570050666601657e-09
447 -6.612125865169401e-09 1.2485850875446349e-09 -7.967892752896939e-09
213 2.6441408926898552e-09 2.005242169231155e-09 -3.738140014055449e-09
215 -3.9940541045352054e-09 -1.6594435850292234e-09 -1.7362999437523742e-09
500 -1.9732854479218697e-09 2.748690971209512e-09 -2.632706106018923e-09
499 2.748700128726465e-09 -1.9732797376628654e-09 -2.632699876224248e-09
498 -6.785926223056162e-11 -6.786013001655242e-11 -3.877838906353882e-09
497 -9.854353284429379e-11 -9.85416581753613e-11 -2.241238020722718e-09
450 -7.451553949281307e-11 3.1470411245067984e-09 -3.4143887167113515e-09
449 3.1470397766435424e-09 -7.451710527408068e-11 -3.4143953832295627e-09
484 3.2037217717711637e-09 -7.492837024608048e-09 4.5949729446019314e-09
201 3.7066006141080933e-09 3.7066050848649923e-09 1.2027432144094364e-08
219 -7.492831422261803e-09 3.2037242808923002e-09 4.59497248799046e-09
