LAMMPS data file via write_data, version 29 Aug 2024, timestep = 27, units = metal

500 atoms
3 atom types

0 17.56928811777293 xlo xhi
0 17.56928811777293 ylo yhi
0 17.56928811777293 zlo zhi

Masses

1 55.7136
2 58.71
3 58.71

Atoms # atomic

1 2 0.0030305347324802866 0.0030305347324832443 2.4023390495177265e-17 0 0 0
2 3 1.7538982770448093 1.7538982770448106 1.6646490079914004e-16 0 0 0
3 1 1.7527955331715597 0.004133278605730993 1.7484520686441258 0 0 0
4 1 0.0041332786057305575 1.7527955331715603 1.7484520686441263 0 0 0
5 1 3.508966087171016 0.004085801345552299 3.70486690020406e-19 0 0 0
8 1 3.5089861260967674 1.7563587294835514 1.752303666479172 0 0 0
21 1 0.004085801345551674 3.5089660871710175 0 0 0 0
23 1 1.7563587294835512 3.5089861260967674 1.752303666479171 0 0 0
25 1 3.5094064571732337 3.5094064571732355 6.968096061379146e-19 0 0 0
51 1 0.0006319915011108535 0.0006319915011105973 3.5118833729466044 0 0 0
52 1 1.7562968202761808 1.756296820276181 3.511883372946605 0 0 0
53 1 1.756686670644297 0.00024214113299476074 5.270414307806864 0 0 0
54 1 0.00024214113299549593 1.7566866706442974 5.270414307806864 0 0 0
55 1 3.5125682688920596 0.000614818456179518 3.5122412317158744 0 0 0
58 1 3.5132747956249935 1.756767263469393 5.270237495175206 0 0 0
71 1 0.0006148184561788065 3.51256826889206 3.5122412317158735 0 0 0
73 1 1.7567672634693936 3.5132747956249926 5.270237495175206 0 0 0
75 1 3.5128720104135542 3.5128720104135542 3.5125762683622916 0 0 0
6 1 5.269645890614582 1.7567486698836277 0 0 0 0
7 1 5.269774418713414 0.0006085323129119051 1.7560957802608241 0 0 0
9 1 7.02760350671573 0.0002448773758031082 1.5621894525993183e-19 0 0 0
12 1 7.027515062252058 1.7568842206383157 1.7566377043528003 0 0 0
27 1 5.269624870477127 3.512974670718212 1.7562121441925866 0 0 0
29 1 7.027451859272848 3.513528172523692 5.912297971188476e-19 0 0 0
56 1 5.2698240894939286 1.7567786700047676 3.5128903411412407 0 0 0
57 1 5.270128067761119 0.00015763394665368221 5.270112105682933 0 0 0
59 1 7.027275575480194 0.00015525203038448723 3.5134090183944364 0 0 0
62 1 7.027265675038646 1.7568587605498038 5.270327348366025 0 0 0
77 1 5.270243935669816 3.513535033018472 5.270233126141015 0 0 0
79 1 7.027260802394572 3.5135884418581957 3.51342537848821 0 0 0
11 1 8.784599683553692 5.884021573392079e-05 1.7568593045412648 0 0 0
31 1 8.784604051498762 3.5137447739764163 1.7568346522630225 0 0 0
60 1 8.784536515270341 1.7568898456192046 3.5136759449827304 0 0 0
61 1 8.784497747562488 6.816238817516416e-05 5.2705338895181875 0 0 0
81 1 8.784504285623761 3.5137003830530853 5.270540180325983 0 0 0
10 1 8.784697788787865 1.756924942644774 4.2931360977320463e-17 0 0 0
13 1 10.541519140762357 3.869132516887578e-06 9.541372502798915e-19 0 0 0
14 1 12.298613422834492 1.7566839344014884 3.2355816339608903e-19 0 0 0
15 1 12.298701867298163 4.4591138976241235e-05 1.7566377043527999 0 0 0
16 1 10.541617245996532 1.756869971561558 1.7568593045412648 0 0 0
33 1 10.541684694524319 3.5137289865918864 3.460844612006039e-19 0 0 0
35 1 12.298874411727564 3.513475247885837 1.7567167765240668 0 0 0
63 1 10.541680414279881 3.8966158086539504e-05 3.5136759449827295 0 0 0
64 1 12.29894135407003 1.7567735597469083 3.5134090183944364 0 0 0
65 1 12.298951254511577 7.00512274909844e-05 5.270327348366025 0 0 0
66 1 10.541719181987734 1.756860649389116 5.270533889518187 0 0 0
83 1 10.541709614896206 3.5136945992709276 3.5136757603650075 0 0 0
85 1 12.298875688540212 3.5136158572891776 5.270406988110487 0 0 0
17 1 14.056571038935644 0.00018014189366524368 6.092900960058485e-16 0 0 0
18 1 15.817250842379206 1.7528430104317403 2.38546457663418e-16 0 0 0
19 1 15.817230803453455 0.0005700822937398138 1.7523036664791705 0 0 0
20 1 14.056442510836808 1.7563202794643817 1.7560957802608246 0 0 0
37 1 14.056209859883483 3.5129966680102114 6.433516755272e-19 0 0 0
39 1 15.813876719894687 3.5123402096555365 1.7556654178172337 0 0 0
67 1 14.056392840056294 0.0001501417725231484 3.51289034114124 0 0 0
68 1 15.813648660658162 1.7563139933211138 3.512241231715873 0 0 0
69 1 15.812942133925228 0.00016154830789667966 5.270237495175204 0 0 0
70 1 14.056088861789103 1.7567711778306403 5.270112105682933 0 0 0
87 1 14.056183281695906 3.51329382825 3.513106638939628 0 0 0
89 1 15.812862627680353 3.5133543018698687 5.270072282038024 0 0 0
22 1 1.7567486698836279 5.26964589061458 1.3572970166312018e-18 0 0 0
24 1 0.0006085323129102089 5.269774418713413 1.7560957802608248 0 0 0
28 1 3.512974670718213 5.269624870477129 1.7562121441925866 0 0 0
41 1 0.00024487737580266986 7.02760350671573 1.8660022143630348e-16 0 0 0
42 1 1.7568842206383162 7.027515062252059 1.7566377043528012 0 0 0
43 1 3.5135281725236935 7.027451859272848 0 0 0 0
72 1 1.7567786700047678 5.26982408949393 3.51289034114124 0 0 0
74 1 0.00015763394665313927 5.270128067761119 5.270112105682933 0 0 0
78 1 3.5135350330184716 5.270243935669816 5.270233126141015 0 0 0
91 1 0.00015525203038411077 7.027275575480193 3.5134090183944355 0 0 0
92 1 1.7568587605498036 7.027265675038645 5.270327348366025 0 0 0
93 1 3.513588441858196 7.027260802394572 3.513425378488209 0 0 0
252 1 5.884021573424418e-05 8.784599683553692 1.7568593045412653 0 0 0
254 1 3.5137447739764167 8.784604051498762 1.7568346522630236 0 0 0
301 1 1.756889845619207 8.784536515270341 3.51367594498273 0 0 0
302 1 6.81623881754989e-05 8.78449774756249 5.270533889518188 0 0 0
304 1 3.5137003830530853 8.784504285623761 5.270540180325984 0 0 0
26 1 5.269920087275336 5.269920087275338 1.1442685684373706e-18 0 0 0
32 1 7.027261077575363 5.270328045267051 1.7567254655804394 0 0 0
44 1 5.27032804526705 7.027261077575362 1.7567254655804394 0 0 0
45 1 7.027326322580147 7.027326322580147 0 0 0 0
76 1 5.270196009650213 5.270196009650214 3.513318919603252 0 0 0
82 1 7.027412688756249 5.270510787441782 5.270477646339373 0 0 0
94 1 5.270510787441783 7.027412688756249 5.270477646339373 0 0 0
95 1 7.027425481897159 7.027425481897159 3.5136217908551455 0 0 0
30 1 8.784541097218007 5.270578229550365 0 0 0 0
46 1 8.784510297329751 7.027487058060343 1.7568230830709448 0 0 0
80 1 8.784516741038562 5.2705680889676625 3.513662767322625 0 0 0
96 1 8.784555713032063 7.02754420045869 5.270610486696391 0 0 0
253 1 5.270578229550365 8.784541097218007 6.02699946669909e-16 0 0 0
256 1 7.027487058060343 8.784510297329751 1.756823083070944 0 0 0
303 1 5.2705680889676625 8.784516741038562 3.5136627673226255 0 0 0
306 1 7.027544200458689 8.784555713032063 5.270610486696391 0 0 0
255 1 8.784536684472993 8.784536684472993 1.4492357957077183e-16 0 0 0
305 1 8.784560148017771 8.784560148017771 3.5137072233129474 0 0 0
34 1 12.298911025009096 5.270369596762299 0 0 0 0
36 1 10.541718227850604 5.270571446295508 1.7568268984003779 0 0 0
47 1 10.541690342151636 7.027505702597238 0 0 0 0
48 1 12.298805571273856 7.027411358276367 1.7568012903674095 0 0 0
84 1 12.298860386763021 5.270442210264693 3.5135688184180416 0 0 0
86 1 10.541676510745098 5.270581831753341 5.270583632830227 0 0 0
97 1 10.541666842475083 7.027525367717924 3.513693534346821 0 0 0
98 1 12.298717007111508 7.0274999224387145 5.270571443400167 0 0 0
257 1 12.298711226952985 8.784526587398588 0 0 0 0
258 1 10.54165605495029 8.784560874599935 1.7568385662911628 0 0 0
307 1 12.2986915618323 8.78455008707514 3.5136935343468196 0 0 0
308 1 10.541636510851113 8.784580418699111 5.270638184820485 0 0 0
38 1 15.813220261540012 5.270007069666742 0 0 0 0
40 1 14.056101644743391 5.270115284806834 1.7566180124306785 0 0 0
49 1 14.055847332787923 7.027305904541128 2.3145637610921917e-16 0 0 0
50 1 15.812741681664386 7.0273425178226585 1.7567167765240657 0 0 0
88 1 15.812923101300221 5.270033647854317 3.5131066389396275 0 0 0
90 1 14.05582777214152 5.270389157408704 5.2703451146029545 0 0 0
99 1 14.05577471928553 7.0273565427871985 3.5135688184180416 0 0 0
100 1 15.812601072261046 7.02734124101001 5.270406988110488 0 0 0
259 1 15.812487942958336 8.784532235025903 0 0 0 0
260 1 14.055645483254715 8.78449870169962 1.7568268984003765 0 0 0
309 1 15.812522330279295 8.784507314654018 3.513675760365007 0 0 0
310 1 14.055635097796884 8.784540418805124 5.270583632830228 0 0 0
101 1 6.219767519757582e-05 6.219767519756628e-05 7.027702035266204 0 0 0
102 1 1.7568666141020943 1.7568666141020952 7.027702035266203 0 0 0
103 1 1.7569126025306656 1.6209246629118404e-05 8.784644058886466 0 0 0
104 1 1.6209246625362477e-05 1.7569126025306656 8.784644058886466 0 0 0
105 1 3.5136626815246914 6.474893673016553e-05 7.027540644678089 0 0 0
108 1 3.5137712249366855 1.7568856446863312 8.784644058886466 0 0 0
121 1 6.474893673040793e-05 3.5136626815246905 7.027540644678089 0 0 0
123 1 1.7568856446863315 3.5137712249366864 8.784644058886466 0 0 0
125 1 3.5136635842666877 3.513663584266688 7.027514205324676 0 0 0
151 1 6.219767519745852e-05 6.219767519523605e-05 10.541586082506727 0 0 0
152 1 1.7568666141020943 1.7568666141020945 10.541586082506727 0 0 0
153 1 3.51366268152469 6.474893672974963e-05 10.541747473094842 0 0 0
161 1 6.474893673037893e-05 3.513662681524691 10.541747473094842 0 0 0
163 1 3.5136635842666877 3.5136635842666886 10.541773912448253 0 0 0
106 1 5.270488352569774 1.756856926173198 7.027442898228169 0 0 0
107 1 5.270603525883047 4.549831671740883e-05 8.784644058886464 0 0 0
109 1 7.027422515492855 6.980531880353845e-05 7.027445955199759 0 0 0
112 1 7.027515755313655 1.7568733364558509 8.784644058886466 0 0 0
127 1 5.27060628717293 3.513718788974574 8.784644058886466 0 0 0
129 1 7.027463258722924 3.51369279500694 7.0274857700330875 0 0 0
154 1 5.270488352569775 1.7568569261731999 10.541845219544763 0 0 0
155 1 7.027422515492857 6.980531880354015e-05 10.541842162573174 0 0 0
165 1 7.027463258722923 3.5136927950069388 10.541802347739843 0 0 0
110 1 8.784525119732583 1.7568744473773452 7.027521944226019 0 0 0
111 1 8.784550448463921 5.401576916907253e-05 8.784644058886466 0 0 0
131 1 8.784562314255856 3.5137200353984213 8.784644058886466 0 0 0
156 1 8.784525119732583 1.7568744473773452 10.541766173546913 0 0 0
113 1 10.54169180981764 5.436439994665419e-05 7.02752194422602 0 0 0
114 1 12.298794414057367 1.7568590064584884 7.027445955199758 0 0 0
115 1 12.298701174236568 5.547532144226921e-05 8.784644058886464 0 0 0
116 1 10.5416664810863 1.7568747960081235 8.784644058886466 0 0 0
133 1 10.541672483412114 3.5137081770335645 7.027547844762751 0 0 0
135 1 12.298705562657686 3.5137080456557594 8.784644058886466 0 0 0
157 1 10.541691809817639 5.436439994542588e-05 10.541766173546913 0 0 0
158 1 12.298794414057367 1.7568590064584892 10.541842162573174 0 0 0
167 1 10.541672483412114 3.5137081770335645 10.541740273010182 0 0 0
117 1 14.05572857698045 7.188560409393852e-05 7.027442898228169 0 0 0
118 1 15.812554248025531 1.7568640628405625 7.02754064467809 0 0 0
119 1 15.812445704613538 4.316709095960409e-05 8.784644058886466 0 0 0
120 1 14.055613403667174 1.7568833134605732 8.784644058886466 0 0 0
137 1 14.055732742533937 3.5136533150649263 7.027419046550719 0 0 0
139 1 15.812477430135418 3.5137394994148043 8.784644058886466 0 0 0
159 1 14.05572857698045 7.188560409612243e-05 10.541845219544761 0 0 0
160 1 15.812554248025531 1.756864062840562 10.541747473094844 0 0 0
169 1 14.055732742533937 3.513653315064925 10.54186907122221 0 0 0
122 1 1.7568569261731988 5.270488352569774 7.027442898228169 0 0 0
124 1 4.549831671824593e-05 5.270603525883047 8.784644058886466 0 0 0
128 1 3.5137187889745722 5.270606287172929 8.784644058886466 0 0 0
141 1 6.980531880280746e-05 7.027422515492857 7.027445955199758 0 0 0
142 1 1.7568733364558518 7.0275157553136545 8.784644058886466 0 0 0
143 1 3.513692795006939 7.027463258722924 7.0274857700330875 0 0 0
162 1 1.7568569261731999 5.270488352569774 10.541845219544761 0 0 0
171 1 6.980531880063181e-05 7.027422515492856 10.541842162573175 0 0 0
172 1 3.513692795006939 7.027463258722925 10.541802347739843 0 0 0
351 1 1.7568744473773457 8.784525119732583 7.02752194422602 0 0 0
352 1 5.4015769168652365e-05 8.784550448463923 8.784644058886466 0 0 0
354 1 3.5137200353984195 8.784562314255858 8.784644058886466 0 0 0
401 1 1.7568744473773463 8.784525119732585 10.541766173546911 0 0 0
126 1 5.270544262304831 5.270544262304831 7.0274865357108744 0 0 0
132 1 7.027548612683064 5.270608059940402 8.784644058886466 0 0 0
144 1 5.270608059940404 7.027548612683065 8.784644058886466 0 0 0
145 1 7.027546130065349 7.02754613006535 7.027575156620707 0 0 0
164 1 5.2705442623048295 5.27054426230483 10.541801582062057 0 0 0
173 1 7.02754613006535 7.027546130065351 10.541712961152225 0 0 0
130 1 8.784560595291229 5.270606736463705 7.0275760931678 0 0 0
146 1 8.784586532028655 7.027579596622191 8.784644058886466 0 0 0
166 1 8.78456059529123 5.270606736463705 10.54171202460513 0 0 0
353 1 5.270606736463704 8.784560595291229 7.0275760931678 0 0 0
356 1 7.027579596622189 8.784586532028653 8.784644058886466 0 0 0
402 1 5.270606736463705 8.78456059529123 10.54171202460513 0 0 0
355 1 8.784587806347144 8.784587806347142 7.027621762341373 0 0 0
403 1 8.784587806347144 8.784587806347142 10.541666355431559 0 0 0
134 1 12.298717347594334 5.270571009793853 7.027532305286747 0 0 0
136 1 10.541644946882716 5.270614671553919 8.784644058886466 0 0 0
147 1 10.541638033720611 7.027568419254854 7.027606679093885 0 0 0
148 1 12.298657810613324 7.0275591189369 8.784644058886466 0 0 0
168 1 12.298717347594334 5.270571009793853 10.541755812486183 0 0 0
174 1 10.54163803372061 7.027568419254854 10.541681438679047 0 0 0
357 1 12.298648510295369 8.784578895829611 7.027606679093885 0 0 0
358 1 10.541625580749265 8.784591348800959 8.784644058886466 0 0 0
404 1 12.298648510295369 8.784578895829613 10.541681438679047 0 0 0
138 1 15.812563614485297 5.270484187016284 7.02741904655072 0 0 0
140 1 14.055637501702046 5.270579427848175 8.784644058886466 0 0 0
149 1 14.055645919756369 7.027499581955889 7.027532305286746 0 0 0
150 1 15.812508883894465 7.027511366892537 8.784644058886466 0 0 0
170 1 15.812563614485299 5.270484187016286 10.54186907122221 0 0 0
175 1 14.05564591975637 7.027499581955889 10.541755812486183 0 0 0
359 1 15.812508752516658 8.784544446138108 7.02754784476275 0 0 0
360 1 14.055602257996304 8.784571982667506 8.784644058886466 0 0 0
405 1 15.812508752516658 8.784544446138106 10.541740273010182 0 0 0
176 1 1.756686670644298 0.0002421411329925495 12.298873809966068 0 0 0
177 1 0.00024214113299367735 1.7566866706442985 12.298873809966066 0 0 0
179 1 3.513274795624993 1.7567672634693925 12.299050622597727 0 0 0
186 1 1.756767263469394 3.5132747956249935 12.299050622597727 0 0 0
201 1 0.000631991501110318 0.0006319915011103852 14.057404744826327 0 0 0
202 1 1.756296820276182 1.7562968202761808 14.057404744826327 0 0 0
203 1 1.7527955331715606 0.004133278605731135 15.820836049128804 0 0 0
204 1 0.0041332786057329375 1.7527955331715603 15.820836049128804 0 0 0
205 1 3.5125682688920596 0.0006148184561790816 14.057046886057057 0 0 0
208 1 3.5089861260967674 1.7563587294835512 15.816984451293758 0 0 0
221 1 0.0006148184561787465 3.5125682688920605 14.057046886057057 0 0 0
223 1 1.7563587294835512 3.508986126096768 15.81698445129376 0 0 0
225 1 3.5128720104135533 3.512872010413554 14.056711849410641 0 0 0
178 1 5.270128067761118 0.00015763394665294913 12.29917601209 0 0 0
181 1 7.027265675038644 1.7568587605498036 12.298960769406905 0 0 0
188 1 5.270243935669816 3.513535033018471 12.299054991631916 0 0 0
206 1 5.2698240894939286 1.756778670004767 14.056397776631691 0 0 0
207 1 5.269774418713413 0.0006085323129121226 15.813192337512108 0 0 0
209 1 7.027275575480194 0.00015525203038352305 14.055879099378496 0 0 0
212 1 7.02751506225206 1.7568842206383157 15.812650413420132 0 0 0
227 1 5.269624870477128 3.5129746707182132 15.813075973580345 0 0 0
229 1 7.027260802394573 3.513588441858197 14.055862739284722 0 0 0
180 1 8.784497747562488 6.81623881762299e-05 12.298754228254744 0 0 0
190 1 8.784504285623763 3.5137003830530857 12.298747937446947 0 0 0
210 1 8.784536515270341 1.7568898456192066 14.055612172790202 0 0 0
211 1 8.784599683553692 5.8840215733182206e-05 15.812428813231666 0 0 0
231 1 8.784604051498762 3.5137447739764167 15.812453465509908 0 0 0
182 1 12.298951254511577 7.005122748780944e-05 12.298960769406907 0 0 0
183 1 10.541719181987734 1.756860649389117 12.298754228254744 0 0 0
192 1 12.298875688540214 3.513615857289177 12.298881129662446 0 0 0
213 1 10.541680414279883 3.896615808667172e-05 14.055612172790202 0 0 0
214 1 12.298941354070031 1.7567735597469074 14.055879099378496 0 0 0
215 1 12.298701867298162 4.4591138976152615e-05 15.812650413420132 0 0 0
216 1 10.541617245996532 1.7568699715615577 15.812428813231666 0 0 0
233 1 10.541709614896204 3.513694599270927 14.055612357407924 0 0 0
235 1 12.298874411727562 3.513475247885836 15.812571341248866 0 0 0
184 1 15.81294213392523 0.00016154830790025176 12.29905062259773 0 0 0
185 1 14.056088861789103 1.756771177830639 12.299176012089998 0 0 0
194 1 15.812862627680355 3.513354301869867 12.299215835734907 0 0 0
217 1 14.056392840056294 0.00015014177252503576 14.05639777663169 0 0 0
218 1 15.813648660658162 1.7563139933211132 14.057046886057057 0 0 0
219 1 15.817230803453457 0.0005700822937397969 15.81698445129376 0 0 0
220 1 14.056442510836808 1.7563202794643824 15.813192337512106 0 0 0
237 1 14.056183281695906 3.5132938282499997 14.056181478833302 0 0 0
239 1 15.813876719894685 3.512340209655537 15.813622699955697 0 0 0
187 1 0.00015763394665204477 5.270128067761119 12.299176012089998 0 0 0
189 1 3.5135350330184716 5.270243935669817 12.299054991631916 0 0 0
196 1 1.756858760549805 7.027265675038645 12.298960769406909 0 0 0
222 1 1.7567786700047676 5.26982408949393 14.056397776631691 0 0 0
224 1 0.0006085323129110585 5.269774418713413 15.813192337512108 0 0 0
228 1 3.512974670718213 5.269624870477127 15.813075973580347 0 0 0
241 1 0.00015525203038393328 7.027275575480194 14.055879099378496 0 0 0
242 1 1.7568842206383155 7.027515062252059 15.81265041342013 0 0 0
243 1 3.5135884418581957 7.027260802394573 14.055862739284722 0 0 0
426 1 6.816238817460733e-05 8.784497747562488 12.298754228254744 0 0 0
427 1 3.513700383053086 8.78450428562376 12.298747937446945 0 0 0
451 1 1.7568898456192066 8.784536515270341 14.055612172790203 0 0 0
452 1 5.8840215734282576e-05 8.784599683553692 15.812428813231666 0 0 0
454 1 3.513744773976416 8.784604051498762 15.812453465509908 0 0 0
191 1 7.027412688756249 5.270510787441783 12.298810471433558 0 0 0
197 1 5.270510787441782 7.02741268875625 12.298810471433558 0 0 0
226 1 5.270196009650215 5.270196009650214 14.055969198169679 0 0 0
232 1 7.027261077575362 5.27032804526705 15.812562652192492 0 0 0
244 1 5.270328045267051 7.027261077575362 15.81256265219249 0 0 0
245 1 7.027425481897157 7.027425481897158 14.055666326917786 0 0 0
198 1 8.784555713032063 7.027544200458689 12.29867763107654 0 0 0
230 1 8.784516741038562 5.27056808896766 14.055625350450304 0 0 0
246 1 8.784510297329751 7.027487058060344 15.812465034701987 0 0 0
428 1 7.027544200458689 8.784555713032063 12.29867763107654 0 0 0
453 1 5.270568088967662 8.784516741038562 14.055625350450304 0 0 0
456 1 7.027487058060344 8.784510297329751 15.812465034701987 0 0 0
455 1 8.784560148017771 8.784560148017771 14.055580894459984 0 0 0
193 1 10.541676510745097 5.270581831753341 12.298704484942705 0 0 0
199 1 12.29871700711151 7.0274999224387145 12.298716674372768 0 0 0
234 1 12.298860386763021 5.270442210264694 14.05571929935489 0 0 0
236 1 10.541718227850604 5.270571446295508 15.812461219372555 0 0 0
247 1 10.541666842475085 7.027525367717925 14.05559458342611 0 0 0
248 1 12.298805571273856 7.0274113582763675 15.812486827405518 0 0 0
429 1 10.541636510851111 8.78458041869911 12.298649932952447 0 0 0
457 1 12.298691561832298 8.78455008707514 14.055594583426112 0 0 0
458 1 10.54165605495029 8.784560874599935 15.812449551481766 0 0 0
195 1 14.055827772141518 5.270389157408704 12.298943003169978 0 0 0
200 1 15.812601072261048 7.02734124101001 12.298881129662442 0 0 0
238 1 15.812923101300221 5.270033647854317 14.056181478833302 0 0 0
240 1 14.056101644743391 5.270115284806833 15.812670105342253 0 0 0
249 1 14.055774719285528 7.027356542787199 14.055719299354891 0 0 0
250 1 15.812741681664386 7.027342517822659 15.812571341248866 0 0 0
430 1 14.055635097796884 8.784540418805125 12.298704484942704 0 0 0
459 1 15.812522330279297 8.78450731465402 14.055612357407924 0 0 0
460 1 14.055645483254715 8.784498701699619 15.812461219372555 0 0 0
251 1 1.7569249426447733 8.784697788787868 9.643515659315025e-19 0 0 0
261 1 3.869132520018664e-06 10.541519140762356 0 0 0 0
262 1 1.7566839344014902 12.298613422834492 5.827167664083191e-16 0 0 0
263 1 1.7568699715615586 10.541617245996532 1.7568593045412635 0 0 0
264 1 4.4591138976178446e-05 12.298701867298163 1.7566377043528019 0 0 0
265 1 3.513728986591886 10.541684694524319 1.1362534853006122e-16 0 0 0
268 1 3.5134752478858364 12.298874411727564 1.7567167765240663 0 0 0
311 1 3.8966158084985904e-05 10.541680414279881 3.51367594498273 0 0 0
312 1 1.7567735597469079 12.298941354070031 3.513409018394435 0 0 0
313 1 1.756860649389118 10.541719181987734 5.270533889518189 0 0 0
314 1 7.005122748714799e-05 12.298951254511577 5.270327348366025 0 0 0
315 1 3.5136945992709276 10.541709614896204 3.5136757603650066 0 0 0
318 1 3.513615857289177 12.298875688540214 5.270406988110488 0 0 0
266 1 5.270369596762299 12.298911025009096 1.9147734527746978e-19 0 0 0
267 1 5.270571446295507 10.541718227850604 1.7568268984003783 0 0 0
269 1 7.02750570259724 10.541690342151636 1.3103602226041612e-16 0 0 0
272 1 7.0274113582763675 12.298805571273856 1.7568012903674093 0 0 0
316 1 5.270442210264693 12.298860386763023 3.513568818418042 0 0 0
317 1 5.270581831753341 10.541676510745098 5.270583632830227 0 0 0
319 1 7.027525367717924 10.541666842475083 3.513693534346821 0 0 0
322 1 7.0274999224387145 12.298717007111508 5.270571443400166 0 0 0
270 1 8.784526587398586 12.298711226952985 0 0 0 0
271 1 8.784560874599935 10.54165605495029 1.756838566291162 0 0 0
320 1 8.78455008707514 12.298691561832298 3.51369353434682 0 0 0
321 1 8.784580418699111 10.541636510851113 5.270638184820485 0 0 0
273 1 10.54168024507723 10.54168024507723 0 0 0 0
274 1 12.298890606970076 12.298890606970078 4.390549417506155e-16 0 0 0
275 1 12.29872987148988 10.54170663222047 1.7568230830709437 0 0 0
276 1 10.541706632220471 12.29872987148988 1.7568230830709437 0 0 0
323 1 10.541656781532453 10.541656781532453 3.513707223312948 0 0 0
324 1 12.298791447653063 12.298791447653064 3.513621790855146 0 0 0
325 1 12.298672729091534 10.541661216518161 5.270610486696391 0 0 0
326 1 10.541661216518163 12.298672729091534 5.270610486696391 0 0 0
277 1 14.055638699999859 10.541675832332214 5.982007966707692e-16 0 0 0
278 1 15.812688757026528 12.298765070277378 0 0 0 0
279 1 15.812472155573806 10.541612878051462 1.7568346522630245 0 0 0
280 1 14.055888884283172 12.298955851974862 1.7567254655804385 0 0 0
327 1 14.055648840582561 10.54170018851166 3.513662767322625 0 0 0
328 1 15.812628487692027 12.298956127155648 3.513425378488209 0 0 0
329 1 15.812516546497138 10.541712643926461 5.270540180325983 0 0 0
330 1 14.05570614210844 12.298804240793974 5.270477646339374 0 0 0
281 1 0.00018014189366397676 14.056571038935644 3.5742960810839654e-16 0 0 0
282 1 1.7528430104317407 15.817250842379206 0 0 0 0
283 1 1.7563202794643813 14.056442510836808 1.756095780260825 0 0 0
284 1 0.0005700822937399594 15.817230803453455 1.752303666479171 0 0 0
285 1 3.5129966680102127 14.056209859883483 0 0 0 0
288 1 3.512340209655537 15.813876719894685 1.7556654178172326 0 0 0
331 1 0.00015014177252448097 14.056392840056294 3.5128903411412398 0 0 0
332 1 1.7563139933211134 15.813648660658163 3.512241231715875 0 0 0
333 1 1.7567711778306399 14.056088861789105 5.270112105682933 0 0 0
334 1 0.00016154830789968626 15.812942133925231 5.270237495175205 0 0 0
335 1 3.51329382825 14.056183281695905 3.513106638939629 0 0 0
338 1 3.5133543018698674 15.812862627680355 5.270072282038023 0 0 0
341 1 8.784540418805124 14.055635097796884 5.270583632830228 0 0 0
340 1 8.784507314654018 15.812522330279295 3.5136757603650066 0 0 0
291 1 8.78449870169962 14.055645483254715 1.7568268984003779 0 0 0
286 1 5.270007069666741 15.81322026154001 0 0 0 0
287 1 5.270115284806833 14.056101644743393 1.756618012430678 0 0 0
289 1 7.0273059045411275 14.055847332787923 0 0 0 0
292 1 7.027342517822659 15.812741681664386 1.7567167765240674 0 0 0
336 1 5.270033647854318 15.81292310130022 3.5131066389396284 0 0 0
337 1 5.2703891574087045 14.055827772141521 5.270345114602954 0 0 0
339 1 7.027356542787199 14.055774719285532 3.5135688184180425 0 0 0
342 1 7.027341241010009 15.812601072261046 5.270406988110487 0 0 0
290 1 8.784532235025905 15.812487942958338 0 0 0 0
346 1 10.541712643926461 15.812516546497136 5.270540180325984 0 0 0
345 1 12.298804240793974 14.05570614210844 5.270477646339372 0 0 0
344 1 12.29895612715565 15.812628487692026 3.5134253784882086 0 0 0
343 1 10.541700188511662 14.055648840582561 3.5136627673226264 0 0 0
296 1 10.54161287805146 15.812472155573808 1.756834652263022 0 0 0
295 1 12.298955851974862 14.055888884283172 1.7567254655804398 0 0 0
294 1 12.298765070277375 15.812688757026532 1.6344964569687845e-18 0 0 0
293 1 10.541675832332215 14.055638699999859 0 0 0 0
350 1 14.05597299388041 15.812681896531751 5.270233126141014 0 0 0
349 1 15.812681896531751 14.05597299388041 5.270233126141015 0 0 0
348 1 15.813344919136668 15.81334491913667 3.512576268362292 0 0 0
347 1 14.056020919900007 14.056020919900009 3.5133189196032513 0 0 0
300 1 14.056592059073097 15.81324225883201 1.7562121441925884 0 0 0
299 1 15.813242258832013 14.056592059073095 1.7562121441925869 0 0 0
298 1 15.81681047237699 15.816810472376988 5.188038484390831e-16 0 0 0
297 1 14.056296842274886 14.056296842274884 4.44172520320787e-19 0 0 0
361 1 5.436439994567552e-05 10.541691809817639 7.027521944226019 0 0 0
362 1 1.7568590064584892 12.298794414057369 7.027445955199757 0 0 0
363 1 1.7568747960081237 10.541666481086299 8.784644058886466 0 0 0
364 1 5.5475321439487434e-05 12.298701174236571 8.784644058886466 0 0 0
365 1 3.513708177033564 10.541672483412114 7.027547844762751 0 0 0
368 1 3.5137080456557594 12.298705562657686 8.784644058886466 0 0 0
406 1 5.4364399948857205e-05 10.541691809817639 10.541766173546913 0 0 0
407 1 1.7568590064584901 12.298794414057365 10.541842162573175 0 0 0
408 1 3.5137081770335636 10.541672483412116 10.541740273010182 0 0 0
366 1 5.270571009793853 12.298717347594332 7.027532305286747 0 0 0
367 1 5.270614671553918 10.541644946882718 8.784644058886464 0 0 0
369 1 7.0275684192548535 10.541638033720611 7.027606679093884 0 0 0
372 1 7.0275591189369 12.298657810613323 8.784644058886466 0 0 0
409 1 5.270571009793853 12.298717347594332 10.541755812486185 0 0 0
410 1 7.0275684192548535 10.541638033720611 10.541681438679047 0 0 0
370 1 8.784578895829611 12.298648510295369 7.027606679093885 0 0 0
371 1 8.784591348800959 10.541625580749265 8.784644058886466 0 0 0
411 1 8.784578895829613 12.298648510295369 10.541681438679047 0 0 0
373 1 10.54162912320308 10.54162912320308 7.027621762341373 0 0 0
374 1 12.298670799484873 12.298670799484873 7.027575156620706 0 0 0
375 1 12.298637332928033 10.541630397521569 8.784644058886466 0 0 0
376 1 10.541630397521569 12.298637332928031 8.784644058886466 0 0 0
412 1 10.54162912320308 10.54162912320308 10.541666355431556 0 0 0
413 1 12.298670799484873 12.298670799484873 10.541712961152225 0 0 0
377 1 14.05561019308652 10.541656334258994 7.0275760931678 0 0 0
378 1 15.812524134543283 12.298753670827297 7.0274857700330875 0 0 0
379 1 15.812496894151803 10.541654615294366 8.784644058886464 0 0 0
380 1 14.05560886960982 12.298668316867158 8.784644058886466 0 0 0
414 1 14.055610193086519 10.541656334258994 10.54171202460513 0 0 0
415 1 15.812524134543283 12.298753670827299 10.541802347739843 0 0 0
381 1 7.188560409437544e-05 14.05572857698045 7.027442898228169 0 0 0
382 1 1.756864062840561 15.812554248025531 7.027540644678088 0 0 0
383 1 1.756883313460573 14.055613403667174 8.784644058886464 0 0 0
384 1 4.316709095765192e-05 15.812445704613538 8.784644058886466 0 0 0
385 1 3.5136533150649245 14.055732742533936 7.027419046550719 0 0 0
388 1 3.5137394994148057 15.812477430135418 8.784644058886466 0 0 0
416 1 7.188560409112481e-05 14.05572857698045 10.541845219544761 0 0 0
417 1 1.756864062840562 15.812554248025533 10.541747473094844 0 0 0
418 1 3.513653315064925 14.055732742533937 10.541869071222212 0 0 0
421 1 8.784544446138108 15.812508752516658 10.541740273010182 0 0 0
391 1 8.784571982667506 14.055602257996306 8.784644058886464 0 0 0
390 1 8.784544446138108 15.812508752516656 7.027547844762751 0 0 0
386 1 5.270484187016285 15.812563614485299 7.027419046550721 0 0 0
387 1 5.270579427848175 14.05563750170205 8.784644058886464 0 0 0
389 1 7.02749958195589 14.05564591975637 7.027532305286747 0 0 0
392 1 7.027511366892537 15.812508883894463 8.784644058886464 0 0 0
419 1 5.270484187016285 15.812563614485297 10.541869071222212 0 0 0
420 1 7.027499581955889 14.055645919756369 10.541755812486185 0 0 0
423 1 12.298753670827297 15.812524134543283 10.541802347739845 0 0 0
422 1 10.541656334258994 14.055610193086519 10.54171202460513 0 0 0
396 1 10.541654615294366 15.812496894151804 8.784644058886466 0 0 0
395 1 12.298668316867158 14.05560886960982 8.784644058886466 0 0 0
394 1 12.298753670827297 15.812524134543283 7.027485770033088 0 0 0
393 1 10.541656334258994 14.05561019308652 7.0275760931678 0 0 0
425 1 15.812553345283538 15.812553345283535 10.541773912448253 0 0 0
424 1 14.055672667245393 14.055672667245393 10.541801582062055 0 0 0
400 1 14.055610642377296 15.81249814057565 8.784644058886464 0 0 0
399 1 15.81249814057565 14.055610642377294 8.784644058886467 0 0 0
398 1 15.812553345283535 15.812553345283536 7.027514205324677 0 0 0
397 1 14.055672667245393 14.055672667245393 7.0274865357108744 0 0 0
431 1 1.7568606493891163 10.541719181987736 12.298754228254742 0 0 0
432 1 7.005122748878443e-05 12.298951254511577 12.298960769406905 0 0 0
434 1 3.5136158572891776 12.298875688540214 12.298881129662442 0 0 0
461 1 3.896615808249882e-05 10.541680414279881 14.055612172790202 0 0 0
462 1 1.756773559746907 12.298941354070031 14.055879099378496 0 0 0
463 1 1.756869971561559 10.54161724599653 15.812428813231666 0 0 0
464 1 4.459113897572062e-05 12.298701867298163 15.81265041342013 0 0 0
465 1 3.513694599270928 10.541709614896204 14.055612357407925 0 0 0
468 1 3.513475247885837 12.298874411727564 15.812571341248866 0 0 0
433 1 5.270581831753342 10.541676510745098 12.298704484942704 0 0 0
436 1 7.027499922438714 12.298717007111508 12.298716674372766 0 0 0
466 1 5.270442210264694 12.298860386763021 14.05571929935489 0 0 0
467 1 5.270571446295507 10.541718227850605 15.812461219372553 0 0 0
469 1 7.027525367717924 10.541666842475083 14.05559458342611 0 0 0
472 1 7.027411358276368 12.298805571273856 15.812486827405522 0 0 0
435 1 8.784580418699111 10.541636510851113 12.298649932952447 0 0 0
470 1 8.78455008707514 12.298691561832298 14.05559458342611 0 0 0
471 1 8.784560874599933 10.54165605495029 15.812449551481768 0 0 0
437 1 12.298672729091535 10.541661216518161 12.29867763107654 0 0 0
438 1 10.541661216518161 12.298672729091534 12.29867763107654 0 0 0
473 1 10.541656781532451 10.541656781532453 14.055580894459984 0 0 0
474 1 12.298791447653064 12.298791447653064 14.055666326917786 0 0 0
475 1 12.298729871489877 10.54170663222047 15.812465034701987 0 0 0
476 1 10.541706632220471 12.29872987148988 15.812465034701987 0 0 0
439 1 15.812516546497138 10.541712643926461 12.298747937446949 0 0 0
440 1 14.05570614210844 12.298804240793974 12.298810471433558 0 0 0
477 1 14.055648840582561 10.541700188511662 14.055625350450303 0 0 0
478 1 15.812628487692027 12.298956127155646 14.055862739284722 0 0 0
479 1 15.812472155573808 10.54161287805146 15.812453465509906 0 0 0
480 1 14.055888884283174 12.298955851974862 15.81256265219249 0 0 0
441 1 1.7567711778306407 14.056088861789103 12.299176012089998 0 0 0
442 1 0.00016154830789869275 15.81294213392523 12.299050622597726 0 0 0
444 1 3.513354301869867 15.812862627680355 12.299215835734906 0 0 0
481 1 0.00015014177252536473 14.056392840056294 14.056397776631691 0 0 0
482 1 1.7563139933211138 15.813648660658162 14.057046886057059 0 0 0
483 1 1.7563202794643815 14.056442510836808 15.813192337512104 0 0 0
484 1 0.0005700822937406663 15.817230803453457 15.81698445129376 0 0 0
485 1 3.5132938282499997 14.056183281695906 14.056181478833302 0 0 0
488 1 3.5123402096555365 15.813876719894687 15.813622699955697 0 0 0
491 1 8.784498701699619 14.055645483254715 15.812461219372553 0 0 0
490 1 8.784507314654016 15.812522330279295 14.055612357407925 0 0 0
445 1 8.784540418805124 14.055635097796884 12.298704484942704 0 0 0
443 1 5.2703891574087045 14.05582777214152 12.298943003169976 0 0 0
446 1 7.027341241010009 15.812601072261046 12.298881129662444 0 0 0
486 1 5.270033647854318 15.812923101300221 14.056181478833302 0 0 0
487 1 5.270115284806832 14.056101644743393 15.812670105342253 0 0 0
489 1 7.0273565427872 14.055774719285532 14.055719299354891 0 0 0
492 1 7.02734251782266 15.812741681664386 15.812571341248864 0 0 0
496 1 10.541612878051462 15.812472155573808 15.81245346550991 0 0 0
495 1 12.298955851974862 14.055888884283172 15.812562652192492 0 0 0
494 1 12.29895612715565 15.812628487692026 14.05586273928472 0 0 0
493 1 10.541700188511662 14.055648840582561 14.055625350450304 0 0 0
448 1 10.541712643926461 15.812516546497136 12.298747937446945 0 0 0
447 1 12.298804240793974 14.055706142108441 12.29881047143356 0 0 0
500 1 14.056592059073097 15.81324225883201 15.813075973580345 0 0 0
499 1 15.81324225883201 14.056592059073095 15.813075973580345 0 0 0
498 1 15.81334491913667 15.81334491913667 14.056711849410641 0 0 0
497 1 14.056020919900007 14.056020919900009 14.055969198169679 0 0 0
450 1 14.055972993880408 15.812681896531751 12.299054991631918 0 0 0
449 1 15.812681896531751 14.05597299388041 12.299054991631916 0 0 0

Velocities

1 -8.5324680549031e-09 -8.532475583516741e-09 -3.113164987247633e-16
2 8.532476327027208e-09 8.532473443073268e-09 -2.6433697688150014e-16
3 6.655343523747476e-10 -6.655324501837732e-10 -4.865391206266065e-09
4 -6.655318672918338e-10 6.655342388155912e-10 -4.86539126214438e-09
5 5.866850341437325e-09 -1.6641182227687883e-09 3.70486690020406e-16
8 -5.046871263371436e-09 4.979029461622453e-09 4.4098381176985664e-09
21 -1.6641201465431374e-09 5.866847098157401e-09 -1.5321473477416393e-16
23 4.979029493532288e-09 -5.0468704290927955e-09 4.409842220007248e-09
25 -4.201623548692058e-09 -4.201629938499898e-09 6.968096061379145e-16
51 -5.945887183867859e-09 -5.945884504112106e-09 7.331593971832745e-10
52 5.945885893259035e-09 5.945886296123661e-09 7.331581626780807e-10
53 1.0453716138148158e-10 -1.0453541728708406e-10 9.289066354312295e-09
54 -1.0454103080458724e-10 1.0453472166214609e-10 9.28906461667695e-09
55 3.601829522902565e-09 -8.460561550075403e-09 -1.0385046618605185e-08
58 2.8408894248612536e-09 -3.6504569726551676e-09 3.7737231454175135e-09
71 -8.460558099915102e-09 3.6018271519890378e-09 -1.0385042311442208e-08
73 -3.650458681650131e-09 2.8408921679870717e-09 3.773721297133928e-09
75 7.313879424602751e-09 7.313881167212645e-09 2.1750420635319517e-10
6 2.0313361806043915e-08 9.95126179020137e-10 -5.835678868604185e-16
7 8.268105648674109e-09 -5.119426064888722e-09 6.4712135292644704e-09
9 3.01812056636808e-09 1.2047187304952635e-09 1.5621894525993183e-16
12 5.704791374599312e-09 -5.310367506707372e-09 -5.841441983772716e-10
27 -2.486145312390417e-09 5.031016347841179e-09 5.748961778798828e-09
29 4.597650320395619e-09 2.764359633624335e-09 5.912297971188476e-16
56 -3.5214859099889023e-09 -2.00755411574191e-09 5.672568390666742e-10
57 4.145539295300232e-09 2.245837805056318e-09 -2.8962520189303e-10
59 -2.8608617391044896e-09 2.9569668893344095e-09 1.4924134796042435e-09
62 5.503000149235288e-09 -1.178289032527775e-09 8.203338990049475e-09
77 -6.191852610466584e-09 -9.710930712476833e-10 -1.8200081534914998e-09
79 -1.4876266002192094e-09 -3.4040485985358163e-09 2.9220349853810216e-09
11 2.1001064078096117e-09 5.575221558334318e-09 2.3403521801700248e-09
31 -3.2862785583802366e-09 -5.1795997185779584e-09 2.6876739078867727e-09
60 -2.626445282365113e-10 1.100554591114642e-09 1.7784885075783482e-09
61 1.8297282896287643e-09 -2.0011089594735316e-09 4.256307292574037e-09
81 2.0361782430465078e-09 4.468809910792945e-09 3.2944579796930584e-09
10 -4.791889177810449e-09 1.6765545737437308e-09 -4.326063099505805e-17
13 4.791891134230944e-09 -1.676550276521052e-09 9.541372502798915e-16
14 -3.018118066104515e-09 -1.2047201500487162e-09 3.23558163396089e-16
15 -5.704788279583044e-09 5.310368166708945e-09 -5.841435144207571e-10
16 -2.100110120507105e-09 -5.575220130733495e-09 2.340352205555603e-09
33 -4.8386057038155794e-09 4.874412950817502e-09 3.460844612006039e-16
35 3.108352796035283e-10 -3.284371387624262e-09 -5.729930202557201e-09
63 2.6264680792706975e-10 -1.1005550068973732e-09 1.7784910333683142e-09
64 2.8608637891513207e-09 -2.956966781182832e-09 1.4924126122135712e-09
65 -5.503000100628101e-09 1.1782803338474619e-09 8.20333729060281e-09
66 -1.8297288070563462e-09 2.0011103726541444e-09 4.256307667199084e-09
83 -4.3489752134286016e-09 1.2159578008710993e-09 -2.8542836676349097e-09
85 4.700617355301889e-10 7.194886765200513e-09 -4.328456097713052e-09
17 -2.0313367116962315e-08 -9.951252256339394e-10 -1.645856714627955e-15
18 -5.866850409999041e-09 1.6641202024214524e-09 -2.042863130322186e-15
19 5.046869473979177e-09 -4.9790274410556836e-09 4.409843469157968e-09
20 -8.268108328129441e-09 5.119418094117461e-09 6.471211720128916e-09
37 -7.740157391043517e-09 2.4265950686367927e-09 6.433516755272001e-16
39 -2.681013698550743e-09 2.6810158623943687e-09 9.102558920781377e-09
67 3.5214840964796394e-09 2.0075593657499443e-09 5.672563478782597e-10
68 -3.6018246910900184e-09 8.460554791302989e-09 -1.0385041613413902e-08
69 -2.8408844965853856e-09 3.6504662282268714e-09 3.7737261244495464e-09
70 -4.145539437098967e-09 -2.2458425976733057e-09 -2.8962502426908504e-10
87 -1.4257048100854654e-09 -8.481061707205535e-10 -2.316945250950967e-09
89 2.5827996618068656e-09 -2.582794336627852e-09 -7.713741884515732e-09
22 9.95122703749447e-10 2.0313369201558153e-08 1.3572970166312018e-15
24 -5.119417657906098e-09 8.268109129878114e-09 6.471210726336087e-09
28 5.031013226560366e-09 -2.486149453659439e-09 5.748962610366638e-09
41 1.2047238208295106e-09 3.018121239907377e-09 3.7162083708949173e-16
42 -5.310369559183976e-09 5.704789793371849e-09 -5.841491583287836e-10
43 2.7643540414179498e-09 4.597656054050974e-09 -1.171340494881191e-15
72 -2.007554481053905e-09 -3.5214913885950575e-09 5.672567378247808e-10
74 2.2458381895952603e-09 4.145538595844926e-09 -2.8962422807820105e-10
78 -9.710917314824645e-10 -6.191851995484976e-09 -1.820008506319592e-09
91 2.9569665600729403e-09 -2.8608575040689676e-09 1.4924160560151562e-09
92 -1.178289484361032e-09 5.503003153201682e-09 8.20333854294785e-09
93 -3.4040482552625213e-09 -1.4876257583909686e-09 2.9220393175822163e-09
252 5.575218993940247e-09 2.1001075535967146e-09 2.340352474732863e-09
254 -5.17959967499813e-09 -3.2862794244935328e-09 2.6876689293016628e-09
301 1.1005478712966274e-09 -2.6264365689635817e-10 1.7784910844398923e-09
302 -2.001108844111849e-09 1.8297236901825104e-09 4.256302222067579e-09
304 4.46881048708501e-09 2.036176096504425e-09 3.2944570238647663e-09
26 4.5518854130090604e-10 4.551827042769406e-10 1.1442685684373707e-15
32 -4.250555444096091e-09 -3.326749175952716e-09 -5.743531609620529e-10
44 -3.3267454951224622e-09 -4.2505517525222454e-09 -5.743526634647965e-10
45 4.068080856891222e-09 4.0680809017760045e-09 -2.403368388614336e-18
76 -3.020334869331308e-09 -3.0203372588280428e-09 8.262835063637957e-09
82 -4.478563852873206e-09 3.6914143279933767e-09 1.6422846090641792e-09
94 3.6914112444224466e-09 -4.4785642776602315e-09 1.6422851556873184e-09
95 -5.825325259928265e-09 -5.825325424208541e-09 6.535315370059405e-09
30 -2.3227787276519424e-09 -4.663973545577147e-09 -1.7506684549896254e-16
46 -1.2423625542385448e-09 2.9496925205012235e-09 -6.686409466542915e-10
80 2.0417219279202076e-10 -5.790923423441849e-09 2.9355124099761914e-09
96 -1.0322513767323208e-09 1.399811700698091e-09 -1.7932730198895383e-09
253 -4.663973921995332e-09 -2.3227773612153375e-09 -2.2567629169088614e-15
256 2.9496915233691444e-09 -1.2423629818758102e-09 -6.686381416229609e-10
303 -5.790922341180615e-09 2.0417135274553128e-10 2.935510958998856e-09
306 1.3998140484192014e-09 -1.032250976871905e-09 -1.793272352203758e-09
255 -1.898695424690824e-09 -1.898697796138303e-09 -4.5663999383672385e-17
305 -2.215128561627746e-09 -2.215127748087876e-09 -1.0404798171472663e-08
34 -7.256956079717707e-09 1.0118323258399088e-09 -5.930751568801251e-16
36 -4.242957014082015e-09 -5.011601422321116e-09 4.4824933969818315e-09
47 -5.226305527992444e-09 3.818051110117713e-09 -5.653173081593783e-16
48 -5.588680269632758e-09 5.5886807800132894e-09 -1.5071705175092782e-09
84 -1.3761664422707198e-09 -4.501095284141042e-09 -1.5032511630021508e-10
86 1.8198682766442687e-09 6.457688241159506e-09 -2.4457833014005227e-09
97 7.729310469441219e-10 -3.3575102607905004e-09 1.0300246730067168e-09
98 1.0411844501406804e-09 -1.0411833403464018e-09 -3.0618236223782262e-09
257 -3.8180498159719e-09 5.226301205081403e-09 -1.3364247948734407e-15
258 -1.3364988894593968e-09 1.3364951897964118e-09 -7.406302655661244e-09
307 3.3575105138915683e-09 -7.729306807103713e-10 1.0300285655951018e-09
308 -1.5424153089346054e-09 1.5424154844249448e-09 -5.319439998861131e-09
38 -2.426596184625883e-09 7.740154155659036e-09 -1.6583241881438918e-16
40 -1.3723484320521316e-10 1.3723115643810501e-10 -1.0677524322533942e-08
49 -1.0118336371942152e-09 7.256955949438242e-09 -7.172552534770909e-16
50 3.2843719634844714e-09 -3.108314841960717e-10 -5.729927868293192e-09
88 8.481099524301012e-10 1.4256992585408968e-09 -2.3169436579155485e-09
90 7.003260507717952e-10 -7.003304792784722e-10 -8.135633429020194e-09
99 4.501095118018764e-09 1.3761733558908224e-09 -1.5032569004313066e-10
100 -7.194884480022337e-09 -4.700584609970883e-10 -4.328459394781251e-09
259 -4.8744106200289614e-09 4.838606848032206e-09 -8.892463037873043e-17
260 5.0116027082118045e-09 4.242952122386646e-09 4.4824972126295695e-09
309 -1.2159603465498773e-09 4.34896864216941e-09 -2.854282054483016e-09
310 -6.457690248054257e-09 -1.8198679622016387e-09 -2.44578704155339e-09
101 8.403128730833806e-09 8.403131273597561e-09 -1.0489468850583498e-08
102 -8.403129033658223e-09 -8.403130879745566e-09 -1.0489467256624519e-08
103 3.6916342992400672e-09 -3.691643978280516e-09 -1.2281212465819257e-15
104 -3.6916318958716787e-09 3.691635234751213e-09 1.4570420855974412e-15
105 -4.605177706397105e-09 2.30039448095753e-09 -3.229073692231096e-09
108 2.1068908177860096e-09 -1.4773246568509642e-09 1.1372450529071672e-15
121 2.3003942626711268e-09 -4.605173586328963e-09 -3.22907322283905e-09
123 -1.4773269137564987e-09 2.106886013950173e-09 -1.7754883970888408e-16
125 -3.973172790681773e-09 -3.973174614802001e-09 3.608712304577213e-09
151 8.40312996135842e-09 8.403134176866575e-09 1.0489469705882223e-08
152 -8.403129721021582e-09 -8.403129672353372e-09 1.048947006278243e-08
153 -4.60517049873286e-09 2.3003964086831197e-09 3.2290716981860835e-09
161 2.3003953513970065e-09 -4.60517412708685e-09 3.2290720804880126e-09
163 -3.973173719236294e-09 -3.973177083438036e-09 -3.6087102279554408e-09
106 -4.4073023089001604e-09 -1.219749492532393e-09 2.3175700433123576e-09
107 -6.88593128620323e-09 -3.863275319523321e-09 7.044272747028619e-15
109 4.234382748607005e-09 -3.897766202118534e-09 4.598609566670189e-09
112 7.719226120791102e-11 -3.962489725162433e-09 -3.908477841984064e-16
127 -7.894074527825696e-09 2.9688791208004457e-09 -9.610299183612032e-16
129 1.3643434568219163e-10 -2.7065864298177194e-10 3.167290593845249e-09
154 -4.407308129160593e-09 -1.2197567362847163e-09 -2.3175757444025962e-09
155 4.234375983481742e-09 -3.897767264407362e-09 -4.598614230406547e-09
165 1.3643872429970554e-10 -2.706528592194158e-10 -3.1672876595888603e-09
110 1.4370468537157383e-09 -1.2022246878240834e-09 9.468578466903521e-09
111 -2.67295898659778e-09 -6.038119394713947e-11 -8.245055678190057e-16
131 2.9736320332947435e-09 -9.8792643081737e-09 1.8234154869687733e-16
156 1.4370466128191305e-09 -1.202223534207257e-09 -9.468578666082677e-09
113 -1.4370512608925208e-09 1.2022256323478602e-09 9.46857594516924e-09
114 -4.2343821192249085e-09 3.897767115398522e-09 4.598611725946476e-09
115 -7.718952089164568e-11 3.9624859038066955e-09 5.099947720639621e-15
116 2.6729600186347363e-09 6.037904052906328e-11 1.0541774594559632e-15
133 3.962934339640502e-09 1.0873800172150646e-11 1.1516492689131747e-09
135 1.4208081982154296e-09 3.009154549167e-09 -8.13066684338528e-16
157 -1.4370449715168458e-09 1.20222916770276e-09 -9.468578298667734e-09
158 -4.23438408266129e-09 3.897762005837327e-09 -4.598611801201948e-09
167 3.962935842598472e-09 1.0874640938007719e-11 -1.1516510230071337e-09
117 4.407301892065955e-09 1.2197508592979536e-09 2.3175685772576404e-09
118 4.605173519935911e-09 -2.3003979103834983e-09 -3.229075760796068e-09
119 -2.1068902725687475e-09 1.4773292498305724e-09 7.859014630768879e-16
120 6.885936843992628e-09 3.8632794528663175e-09 -8.405780939178641e-16
137 2.6795653314233443e-09 3.011465054677126e-09 2.1195804139599946e-09
139 -8.272534422425491e-10 8.272523477640754e-10 9.757675657774204e-16
159 4.407302472179e-09 1.2197452352657138e-09 -2.317570720761822e-09
160 4.6051751381538895e-09 -2.300396520635728e-09 3.2290679510504897e-09
169 2.6795677870649952e-09 3.0114698210460764e-09 -2.1195753209219582e-09
122 -1.2197531792995012e-09 -4.407302201049004e-09 2.317569517725733e-09
124 -3.8632767217385655e-09 -6.885931346435302e-09 -3.717663535348961e-16
128 2.9688851798517524e-09 -7.89407080992074e-09 -1.366312581887808e-15
141 -3.897761195902181e-09 4.234377811487493e-09 4.598613339958559e-09
142 -3.9624945270924735e-09 7.719473379768059e-11 1.1585792517638728e-15
143 -2.706556725545719e-10 1.3643440396013677e-10 3.1672917649498663e-09
162 -1.2197565199815615e-09 -4.40730064084808e-09 -2.3175687223610067e-09
171 -3.8977529355250285e-09 4.234380674049455e-09 -4.598617344571137e-09
172 -2.7065480825729735e-10 1.3643408099378028e-10 -3.1672904482900773e-09
351 -1.2022261538788005e-09 1.437045333735443e-09 9.468576937159542e-09
352 -6.038104493829937e-11 -2.6729640697688626e-09 5.846193605304372e-16
354 -9.879258511512015e-09 2.9736285696360313e-09 4.54240782909446e-16
401 -1.2022274084370994e-09 1.4370391817132103e-09 -9.468572863299913e-09
126 -1.1211298857206212e-09 -1.121128344917392e-09 1.957730645141957e-09
132 -1.544468071198266e-09 5.174382319028078e-09 1.9689589656124343e-15
144 5.174375687736541e-09 -1.5444711815424621e-09 1.1644319842836458e-15
145 3.7673854313572246e-09 3.767382822332636e-09 1.9743383031432767e-09
164 -1.121125249537889e-09 -1.1211254930062955e-09 -1.957729379696329e-09
173 3.767382541589166e-09 3.767379516950049e-09 -1.974338380501697e-09
130 8.625592579394998e-10 4.314456775415087e-09 -3.078831733552335e-10
146 9.526091751394633e-10 -5.802249789806957e-10 6.155627285338469e-16
166 8.625533611448976e-10 4.314455756758311e-09 3.0788020275435256e-10
353 4.314456941766202e-09 8.625595490474959e-10 -3.078829666655521e-10
356 -5.80220237435286e-10 9.526162882086303e-10 1.7544589236884652e-16
402 4.314454339005664e-09 8.625574506064715e-10 3.0787830653424656e-10
355 2.461214202404643e-09 2.4612194292802566e-09 3.6005214163637137e-10
403 2.4612139925605407e-09 2.46122083833008e-09 -3.600568468308342e-10
134 9.129856862955121e-10 4.30522456292987e-09 -5.2739372345579115e-09
136 1.3468765365158798e-09 -8.13422881574474e-09 2.871772917654116e-16
147 -3.7160961780423815e-09 1.183098120700551e-09 5.864372785939008e-10
148 1.0066797072753765e-09 -1.0066814714384958e-09 1.0964265164515165e-15
168 9.129846477493353e-10 4.305225650542081e-09 5.273940575219122e-09
174 -3.7160896197656722e-09 1.18309853588244e-09 -5.864383736286228e-10
357 -1.183097830193397e-09 3.7160996058576484e-09 5.86436544064437e-10
358 -1.9351862763254476e-09 1.9351839396980593e-09 5.768084132674407e-16
404 -1.1830988531270672e-09 3.716092969706896e-09 -5.864373272621106e-10
138 -3.0114651349634776e-09 -2.679565348847765e-09 2.119578857178121e-09
140 -2.787309420955121e-09 2.787314416206106e-09 -5.643409397515038e-16
149 -4.3052244307234855e-09 -9.129873204921346e-10 -5.2739340747243775e-09
150 -3.0091566996262138e-09 -1.4208098789374152e-09 -2.3264606001786772e-15
170 -3.0114704199705643e-09 -2.679572102312937e-09 -2.1195757894285835e-09
175 -4.305230095462778e-09 -9.129869293439294e-10 5.2739389968228375e-09
359 -1.0873190833770712e-11 -3.962934210871697e-09 1.151651200754885e-09
360 8.134228887315361e-09 -1.3468748475045806e-09 1.0815157748764512e-17
405 -1.0872897472616778e-11 -3.962925779404759e-09 -1.151653312564646e-09
176 1.0453209508091838e-10 -1.0452955982768944e-10 -9.289062757821711e-09
177 -1.0453270072975231e-10 1.0453207885818175e-10 -9.289060892958052e-09
179 2.8408895985609485e-09 -3.650456017618421e-09 -3.773725721873019e-09
186 -3.6504594555347524e-09 2.8408897100922627e-09 -3.773723795285157e-09
201 -5.9458831870662295e-09 -5.945884338279687e-09 -7.331632741169065e-10
202 5.945881735431723e-09 5.945885984286612e-09 -7.331629163154377e-10
203 6.655332948926565e-10 -6.655321367695144e-10 4.865395529324954e-09
204 -6.65538820236582e-10 6.655353221338924e-10 4.865392311815524e-09
205 3.601829122676011e-09 -8.460561735714489e-09 1.0385044584370652e-08
208 -5.046870463359571e-09 4.9790306552375986e-09 -4.409835878737357e-09
221 -8.460558280768574e-09 3.601826183431577e-09 1.0385044212506603e-08
223 4.979029959785755e-09 -5.046870925463473e-09 -4.409842026235671e-09
225 7.313882874994822e-09 7.313883215377738e-09 -2.1750638374400558e-10
178 4.145540636417346e-09 2.2458381487379974e-09 2.896218708244434e-10
181 5.503005909062536e-09 -1.1782877683560026e-09 -8.203334544193484e-09
188 -6.191853451184977e-09 -9.710893891558777e-10 1.820012264237201e-09
206 -3.521484999355788e-09 -2.0075523805099333e-09 -5.672554955837449e-10
207 8.268108922212064e-09 -5.119424774279897e-09 -6.471215143426764e-09
209 -2.860861365249271e-09 2.9569695642834263e-09 -1.4924140927636036e-09
212 5.704787303621847e-09 -5.310367694170106e-09 5.841427680726593e-10
227 -2.486146325598689e-09 5.03101175505113e-09 -5.748961343711111e-09
229 -1.4876292892316862e-09 -3.4040525149044046e-09 -2.922038235337099e-09
180 1.8297286895173443e-09 -2.0011114565732875e-09 -4.256303488642719e-09
190 2.036171161143746e-09 4.468807460920317e-09 -3.294460593272861e-09
210 -2.626453995847324e-10 1.100548957619139e-09 -1.7784904986188477e-09
211 2.1001083307155562e-09 5.575221962100206e-09 -2.340354256530102e-09
231 -3.286277522198363e-09 -5.1795999642238005e-09 -2.6876692424554005e-09
182 -5.5030019475650734e-09 1.178290761403382e-09 -8.20334121649801e-09
183 -1.8297256672997853e-09 2.0011064840040914e-09 -4.256305359289484e-09
192 4.700575465762423e-10 7.194887686463129e-09 4.328454383928322e-09
213 2.626413289764862e-10 -1.1005549948805312e-09 -1.7784915358225178e-09
214 2.8608596968656715e-09 -2.9569653303911717e-09 -1.4924140943402275e-09
215 -5.704782741799809e-09 5.310367767425315e-09 5.841429669041868e-10
216 -2.1001112599312376e-09 -5.5752195491183445e-09 -2.340352904860699e-09
233 -4.348968357008892e-09 1.2159584720164157e-09 2.854285308976507e-09
235 3.1083783906529555e-10 -3.2843696863961932e-09 5.729926955694432e-09
184 -2.840886988878405e-09 3.6504543796207154e-09 -3.773728190745519e-09
185 -4.145541517815149e-09 -2.245838886872514e-09 2.8962637209632013e-10
194 2.582794217093133e-09 -2.5827890442956554e-09 7.713738880615055e-09
217 3.521485346381412e-09 2.0075515958101543e-09 -5.672494918192997e-10
218 -3.6018232729524584e-09 8.460557802197842e-09 1.0385046385151627e-08
219 5.046864974873553e-09 -4.979025020863717e-09 -4.4098420022019874e-09
220 -8.268108268646073e-09 5.119414982957082e-09 -6.471210773201771e-09
237 -1.4257044959312472e-09 -8.481061592014307e-10 2.3169455361479443e-09
239 -2.6810082055020802e-09 2.6810131439640993e-09 -9.102558974106112e-09
187 2.2458415014369e-09 4.145538148668195e-09 2.8962593011365175e-10
189 -9.710895756328555e-10 -6.1918539423170165e-09 1.8200117904608853e-09
196 -1.1782934258851893e-09 5.503004420978507e-09 -8.203345860303331e-09
222 -2.0075548175254794e-09 -3.521490851071684e-09 -5.672553027134317e-10
224 -5.119420373712377e-09 8.26810884620554e-09 -6.471215095359396e-09
228 5.031012862576796e-09 -2.4861440242741845e-09 -5.748966621953443e-09
241 2.956966089012736e-09 -2.860860994961552e-09 -1.4924137094263457e-09
242 -5.3103673240513745e-09 5.70478846731334e-09 5.841507293806571e-10
243 -3.404046326625107e-09 -1.487629485419173e-09 -2.9220354483082756e-09
426 -2.0011022102142544e-09 1.8297290905512798e-09 -4.2563044283597595e-09
427 4.468805978422242e-09 2.0361833714054822e-09 -3.294454943404411e-09
451 1.1005478184225228e-09 -2.626420150953277e-10 -1.7784967460247633e-09
452 5.5752192898549796e-09 2.1001063398956784e-09 -2.340353001971803e-09
454 -5.17959587493004e-09 -3.28628024295078e-09 -2.6876677748674797e-09
191 -4.478565006481695e-09 3.691411126356974e-09 -1.6422893805085244e-09
197 3.691413520727483e-09 -4.478567368241769e-09 -1.6422880841916998e-09
226 -3.0203410004870657e-09 -3.020338342633941e-09 -8.262838181570718e-09
232 -4.250551340889667e-09 -3.3267458607442848e-09 5.743533048731233e-10
244 -3.326748581506686e-09 -4.250551576475512e-09 5.743551233123422e-10
245 -5.825319782657705e-09 -5.825323330124796e-09 -6.535315395538865e-09
198 -1.032253108659666e-09 1.39981271461913e-09 1.7932788268781968e-09
230 2.0417218230350002e-10 -5.7909143026494996e-09 -2.9355079233480166e-09
246 -1.242362994820026e-09 2.9496880228977053e-09 6.686371493322375e-10
428 1.3998148527157326e-09 -1.0322511873168498e-09 1.7932762657887577e-09
453 -5.790920367018023e-09 2.0417337875163757e-10 -2.9355096500080185e-09
456 2.9496872532827154e-09 -1.2423629371130738e-09 6.686387755113734e-10
455 -2.215130590836424e-09 -2.2151302699794096e-09 1.0404793726407622e-08
193 1.8198754605608007e-09 6.457688454540598e-09 2.4457823081193486e-09
199 1.0411814155336867e-09 -1.041182364263358e-09 3.0618146163824365e-09
234 -1.376168227933533e-09 -4.501100320743342e-09 1.5032884619038824e-10
236 -4.242957401481719e-09 -5.011600420520537e-09 -4.4824961196039135e-09
247 7.729239626355103e-10 -3.3575137021951714e-09 -1.0300257203120448e-09
248 -5.58868143133057e-09 5.588677682672279e-09 1.5071780112119139e-09
429 -1.5424110293717943e-09 1.5424205632598722e-09 5.319441495258374e-09
457 3.3575135654050186e-09 -7.729257780722677e-10 -1.0300328771992647e-09
458 -1.3365001780396873e-09 1.336494920318731e-09 7.406309036454105e-09
195 7.003335049690629e-10 -7.0033110610699e-10 8.135628338685947e-09
200 -7.194892521092123e-09 -4.700592375854988e-10 4.328465146642648e-09
238 8.481094573362132e-10 1.4257010322267677e-09 2.3169449677513203e-09
240 -1.3723608875088057e-10 1.372333097059707e-10 1.0677523535581005e-08
249 4.501102918751711e-09 1.3761729530261961e-09 1.5032256842141007e-10
250 3.2843718505261573e-09 -3.108338060001456e-10 5.729927514697617e-09
430 -6.457688347440494e-09 -1.8198739767812417e-09 2.4457882131954795e-09
459 -1.2159657927704092e-09 4.348963782659451e-09 2.854283770445799e-09
460 5.01160303657201e-09 4.242958636506894e-09 -4.48249719850978e-09
251 1.67655830377147e-09 -4.791901605817324e-09 9.643515659315024e-16
261 -1.6765640718556027e-09 4.7918993012874605e-09 -2.3132420740412984e-16
262 -1.2047250561608624e-09 -3.0181167453831747e-09 -2.184061023153278e-15
263 -5.57522067389475e-09 -2.100109046088484e-09 2.340358232302259e-09
264 5.310368496895148e-09 -5.704790681116047e-09 -5.841503999689773e-10
265 4.8744161808507356e-09 -4.838605439904182e-09 -3.843779035474949e-16
268 -3.2843693785491116e-09 3.108354672340759e-10 -5.7299287663432405e-09
311 -1.1005448358423525e-09 2.626455753851744e-10 1.7784912424613639e-09
312 -2.9569674252855605e-09 2.8608574516454947e-09 1.492418117354181e-09
313 2.0011046718643265e-09 -1.8297257672936404e-09 4.256300821955282e-09
314 1.1782922314111001e-09 -5.502999879213095e-09 8.203337847322913e-09
315 1.2159584505785576e-09 -4.348968373411097e-09 -2.8542804675176285e-09
318 7.194888580070232e-09 4.700575475228831e-10 -4.3284593441608915e-09
266 1.0118325685965453e-09 -7.256956328269184e-09 1.9147734527746979e-16
267 -5.011598354509969e-09 -4.24295603861487e-09 4.482492671164578e-09
269 3.818044300117055e-09 -5.226306808466783e-09 7.210105165843008e-18
272 5.588677163198225e-09 -5.588679094651207e-09 -1.507168827941301e-09
316 -4.501095019951535e-09 -1.3761699698451837e-09 -1.5032710793366458e-10
317 6.457685809612562e-09 1.8198696322422476e-09 -2.445784598529423e-09
319 -3.3575111774942315e-09 7.729305463711144e-10 1.0300236912682828e-09
322 -1.0411840143431302e-09 1.0411864409769872e-09 -3.061820892478562e-09
270 5.2263083492164695e-09 -3.818046818753244e-09 -2.4001588121773924e-16
271 1.336495903887856e-09 -1.3364990675562015e-09 -7.4063011268185275e-09
320 -7.729289228573351e-10 3.357514175658744e-09 1.0300279260033835e-09
321 1.5424158743691187e-09 -1.5424158929975708e-09 -5.319438949340197e-09
273 1.898698109303776e-09 1.8986995578073317e-09 -6.441027281486421e-16
274 -4.068081392769615e-09 -4.068088074161487e-09 -1.1198370613658074e-15
275 -2.949691871753704e-09 1.2423715865155337e-09 -6.686383257040263e-10
276 1.242366177797465e-09 -2.9496917658435496e-09 -6.686385907524286e-10
323 2.2151280494688638e-09 2.2151269533310334e-09 -1.0404799146003339e-08
324 5.8253287274268646e-09 5.825321711155765e-09 6.535310923846663e-09
325 -1.3998110223661397e-09 1.0322465411967828e-09 -1.7932726935131673e-09
326 1.032242660062904e-09 -1.3998117220279854e-09 -1.7932715506804003e-09
277 4.663974474232589e-09 2.3227862305459545e-09 -3.1356446945202666e-15
278 -2.764350285328685e-09 -4.597661116991201e-09 -6.729431488120141e-16
279 5.179601989545158e-09 3.2862772743313873e-09 2.687665676535593e-09
280 3.3267466032378038e-09 4.250548660288393e-09 -5.743496084831535e-10
327 5.79091979014272e-09 -2.0416952630232115e-10 2.935512778292397e-09
328 3.4040455062315518e-09 1.4876325179015092e-09 2.922040325920235e-09
329 -4.468811842697439e-09 -2.036176418707173e-09 3.294457261213824e-09
330 -3.691408127704278e-09 4.478564312959704e-09 1.6422824196026184e-09
281 -9.95121429964201e-10 -2.03133688250766e-08 -2.4922930189930664e-15
282 1.6641164597760293e-09 -5.866850976142507e-09 -1.431205875419837e-15
283 5.119419748836596e-09 -8.268106405735152e-09 6.471210469175669e-09
284 -4.979027039693163e-09 5.046870704503792e-09 4.409842927799238e-09
285 2.4265906218419843e-09 -7.740157443007485e-09 -9.670952550392075e-16
288 2.681015036823245e-09 -2.6810087947110767e-09 9.10256490042471e-09
331 2.007552212274146e-09 3.5214876322570066e-09 5.672587395302275e-10
332 8.4605574347829e-09 -3.6018283735010214e-09 -1.0385047722626135e-08
333 -2.2458434385518208e-09 -4.145543352486493e-09 -2.896260701098604e-10
334 3.650455600531857e-09 -2.840891906170128e-09 3.7737240136912595e-09
335 -8.481077902012389e-10 -1.4256980475876753e-09 -2.3169467791676107e-09
338 -2.582790222985904e-09 2.582795128435053e-09 -7.713739136125505e-09
341 -1.8198676989700912e-09 -6.457691119031206e-09 -2.44578742381277e-09
340 4.348972637336169e-09 -1.2159599600863629e-09 -2.8542813793712027e-09
291 4.2429545023513195e-09 5.011602195712272e-09 4.482494123611159e-09
286 7.74015742874636e-09 -2.4265890658487157e-09 -4.0376588928720846e-16
287 1.3723442558499758e-10 -1.3724004873215605e-10 -1.0677522023242084e-08
289 7.256959588971099e-09 -1.0118304366679623e-09 -5.2575443780520107e-17
292 -3.1083385110496284e-10 3.284373089237246e-09 -5.729932771465126e-09
336 1.4256933983254083e-09 8.481168499823715e-10 -2.316947749345115e-09
337 -7.003328728015621e-10 7.003236910113993e-10 -8.135626733136114e-09
339 1.3761732987852944e-09 4.5010894864713036e-09 -1.503285616235911e-10
342 -4.700557079385992e-10 -7.1948828385217274e-09 -4.328454047286587e-09
290 4.838601243400007e-09 -4.874417445595185e-09 -3.3166483762877835e-16
346 -2.036174457258147e-09 -4.4688054281072095e-09 3.2944554779144795e-09
345 4.478565952573294e-09 -3.691407600877243e-09 1.642288534844396e-09
344 1.4876244356335007e-09 3.404053228311687e-09 2.922040866948032e-09
343 -2.0417580069038902e-10 5.7909214781334865e-09 2.935508208021604e-09
296 3.2862812639237922e-09 5.1795966225982306e-09 2.6876747629204176e-09
295 4.250548553066243e-09 3.3267492578591117e-09 -5.743552132087117e-10
294 -4.5976471157109806e-09 -2.7643614417776582e-09 1.6344964569687845e-15
293 2.322779118124568e-09 4.663974147872061e-09 -5.614834192308613e-16
350 6.191842633570932e-09 9.710926997207277e-10 -1.8200057641349366e-09
349 9.710931200097746e-10 6.191847527429814e-09 -1.8200091958445746e-09
348 -7.313875367458736e-09 -7.3138843067874575e-09 2.1750099017512304e-10
347 3.0203405134318445e-09 3.0203327626438967e-09 8.262837756274262e-09
300 2.4861459176570868e-09 -5.031015111843269e-09 5.748955690923531e-09
299 -5.031016848877772e-09 2.4861488677917837e-09 5.7489636801706865e-09
298 4.201620981566034e-09 4.201623465447263e-09 -6.272791494283418e-16
297 -4.5518528091551603e-10 -4.5517700957299607e-10 4.44172520320787e-16
361 1.2022296099225434e-09 -1.4370430203431584e-09 9.468579666184347e-09
362 3.897759871646198e-09 -4.234387698945044e-09 4.598614581598753e-09
363 6.037634394973125e-11 2.6729698372521534e-09 -2.773487120460944e-15
364 3.962494454991422e-09 -7.720138151464349e-11 4.842787303057887e-16
365 1.0874800959156876e-11 3.962935219770072e-09 1.1516492822388108e-09
368 3.0091550742826235e-09 1.420810226330351e-09 7.372584838814491e-16
406 1.2022172037349214e-09 -1.4370440369679867e-09 -9.468580184410657e-09
407 3.897758650735057e-09 -4.2343758410258356e-09 -4.598620056171521e-09
408 1.0878277149886274e-11 3.96292989120252e-09 -1.151652108136176e-09
366 4.305225736203152e-09 9.129925640411165e-10 -5.2739388162697875e-09
367 -8.134227976790798e-09 1.346871709907149e-09 4.898064775996017e-15
369 1.1831018742080725e-09 -3.7160990008096565e-09 5.864386142658827e-10
372 -1.0066829978337689e-09 1.006685669572329e-09 8.05306785183395e-16
409 4.305224816664784e-09 9.129915353994462e-10 5.273932234345034e-09
410 1.1831022745496313e-09 -3.7160975708054652e-09 -5.864403801408063e-10
370 3.7160993495984938e-09 -1.1830978794624489e-09 5.864357564355529e-10
371 1.9351824249023744e-09 -1.935189409764512e-09 2.1540189182955988e-16
411 3.716094139605428e-09 -1.1830973314944563e-09 -5.864389513382993e-10
373 -2.4612175911869294e-09 -2.461218177125326e-09 3.600510697340701e-10
374 -3.767380420316142e-09 -3.767380534926772e-09 1.9743418634331234e-09
375 5.802273630939727e-10 -9.526130101086167e-10 -1.5333408172978994e-15
376 -9.526133012704112e-10 5.802311943917697e-10 -1.33177941705785e-15
412 -2.461217137468413e-09 -2.461218696252898e-09 -3.6004659240897263e-10
413 -3.767380183598731e-09 -3.7673792515280524e-09 -1.974338465971485e-09
377 -4.314463128719422e-09 -8.625593021013939e-10 -3.078834263097564e-10
378 2.706572219338832e-10 -1.3642906873956238e-10 3.1672904889941956e-09
379 9.879265666001734e-09 -2.9736317147574844e-09 6.750460961520516e-15
380 -5.174380389325108e-09 1.544470753442468e-09 -6.447035702457957e-16
414 -4.314455566670998e-09 -8.625575812145223e-10 3.078800321527496e-10
415 2.706557343990612e-10 -1.3643804486986228e-10 -3.1672876758514966e-09
381 1.219747209332424e-09 4.407303942364507e-09 2.3175681563677515e-09
382 -2.300392873524198e-09 4.605176953748496e-09 -3.229067402181234e-09
383 3.863278713079486e-09 6.8859384806865005e-09 6.687522751843679e-15
384 1.4773361402877426e-09 -2.10688777787236e-09 -9.481288293083557e-16
385 3.0114709513731525e-09 2.6795725610655574e-09 2.1195782977401464e-09
388 8.272448899687962e-10 -8.272521121189684e-10 4.584061410168335e-16
416 1.2197606345482427e-09 4.407301592846591e-09 -2.3175696722923626e-09
417 -2.30039731494898e-09 4.6051701566471665e-09 3.229062678360666e-09
418 3.0114690369447145e-09 2.6795671566317092e-09 -2.1195827143690436e-09
421 -3.96293533279469e-09 -1.0872377143360642e-11 -1.1516524369875e-09
391 -1.3468732167171575e-09 8.134223543648718e-09 5.843448155917086e-15
390 -3.962933634513916e-09 -1.086630052681108e-11 1.151648745413655e-09
386 -2.679569327135948e-09 -3.0114679083003876e-09 2.1195731422685138e-09
387 2.7873141654234588e-09 -2.7873203858751093e-09 3.882243221861179e-15
389 -9.129906470395749e-10 -4.305230989177845e-09 -5.27393841782581e-09
392 -1.4208098412873785e-09 -3.0091506969654634e-09 6.294874788393253e-15
419 -2.6795668451194416e-09 -3.0114625489390915e-09 -2.119580874805883e-09
420 -9.129867344028055e-10 -4.305226948495965e-09 5.2739323808243525e-09
423 -1.3642873754743317e-10 2.706575157456687e-10 -3.167294027954148e-09
422 -8.625583382160966e-10 -4.314459070275149e-09 3.0787881771474294e-10
396 -2.973631884194956e-09 9.879261199341583e-09 5.960353603763553e-16
395 1.5444700744768159e-09 -5.174379649567614e-09 -4.9469137079024915e-17
394 -1.3642899288324761e-10 2.706572187794622e-10 3.167287649114023e-09
393 -8.625579977540962e-10 -4.314463481357405e-09 -3.0788196361013225e-10
425 3.973166593244328e-09 3.973179471243206e-09 -3.6087087662656304e-09
424 1.1211247596362693e-09 1.1211279379407526e-09 -1.957726170370438e-09
400 7.894065217583643e-09 -2.9688788734524136e-09 5.276217423852612e-15
399 -2.9688828601036847e-09 7.894070130841418e-09 -6.578019279637438e-15
398 3.973176715781349e-09 3.973171479142051e-09 3.6087098751197203e-09
397 1.1211270583079224e-09 1.1211261603494082e-09 1.9577306783384826e-09
431 2.001109204617107e-09 -1.829733149239646e-09 -4.256296449026499e-09
432 1.178287307510114e-09 -5.502998934689318e-09 -8.203336418670615e-09
434 7.194888224930306e-09 4.700579571370079e-10 4.328465685106304e-09
461 -1.1005402958794665e-09 2.6264556997759554e-10 -1.7784918285828297e-09
462 -2.956963892334029e-09 2.8608560567905663e-09 -1.4924159522196838e-09
463 -5.575222817699353e-09 -2.1001035832321367e-09 -2.3403554893078748e-09
464 5.310369606650501e-09 -5.704790301383842e-09 5.841505498790806e-10
465 1.2159571076823882e-09 -4.34896838066873e-09 2.8542762003775933e-09
468 -3.2843719495524454e-09 3.1083582807906816e-10 5.729927161999786e-09
433 6.457683895458728e-09 1.8198687958700484e-09 2.445787420083911e-09
436 -1.04117985642355e-09 1.0411858593618374e-09 3.0618218864216014e-09
466 -4.501097320824857e-09 -1.3761644036439958e-09 1.503270227642973e-10
467 -5.01159796908854e-09 -4.242961143369328e-09 -4.482490373544398e-09
469 -3.3575111269607124e-09 7.729297388393359e-10 -1.0300259130321474e-09
472 5.5886748848798045e-09 -5.588679282113941e-09 1.507168200812362e-09
435 1.5424152156771936e-09 -1.5424164577891421e-09 5.319439619128925e-09
470 -7.729299133917397e-10 3.3575143775416887e-09 -1.0300280572873816e-09
471 1.3364999119059878e-09 -1.3364980653515835e-09 7.406304276432801e-09
437 -1.3998200283977222e-09 1.0322474323717664e-09 1.7932762827562326e-09
438 1.0322495262137669e-09 -1.3998136927900641e-09 1.7932754351245584e-09
473 2.2151320447402242e-09 2.2151282607634365e-09 1.0404792739073846e-08
474 5.825322295580321e-09 5.825321733174202e-09 -6.535312580417612e-09
475 -2.949685802647681e-09 1.242371744820997e-09 6.686388210962593e-10
476 1.242364893957062e-09 -2.9496910063791386e-09 6.686393285865239e-10
439 -4.4688097445568355e-09 -2.036175652032657e-09 -3.2944665147829623e-09
440 -3.691407940391754e-09 4.478567648835028e-09 -1.6422886847675227e-09
477 5.790918408205896e-09 -2.0417586022949883e-10 -2.9355045940719815e-09
478 3.404048208819305e-09 1.4876376876971235e-09 -2.922040543875706e-09
479 5.179596928051331e-09 3.286279894002931e-09 -2.6876631002748907e-09
480 3.3267435215186875e-09 4.2505464212503176e-09 5.74354719546453e-10
441 -2.2458452362713754e-09 -4.1455398144278034e-09 2.896256396064978e-10
442 3.650458293205715e-09 -2.8408888923461687e-09 -3.773718652377226e-09
444 -2.582788767103256e-09 2.582794644793544e-09 7.713744883778072e-09
481 2.007549756031653e-09 3.5214871397918024e-09 -5.672581263708673e-10
482 8.460554339244415e-09 -3.601824895526542e-09 1.0385039211247197e-08
483 5.1194188643970295e-09 -8.268107563858293e-09 -6.471204722947168e-09
484 -4.979027924583361e-09 5.046865611766177e-09 -4.409840188259696e-09
485 -8.481040691251083e-10 -1.42570399677115e-09 2.3169435940849505e-09
488 2.6810166123391873e-09 -2.6810119478564705e-09 -9.102559159308061e-09
491 4.242960140675771e-09 5.0116022149533015e-09 -4.482490943527621e-09
490 4.348977967724008e-09 -1.2159581764959855e-09 2.8542790742639676e-09
445 -1.819869113899835e-09 -6.4576904012736865e-09 2.4457885086959596e-09
443 -7.003329335043084e-10 7.003272484096934e-10 8.135634650818516e-09
446 -4.700554551342867e-10 -7.194883384987615e-09 4.328457472386962e-09
486 1.425694244802282e-09 8.481122164031232e-10 2.3169461237715156e-09
487 1.3723608394251185e-10 -1.3723933191345192e-10 1.0677522220668e-08
489 1.3761684622076021e-09 4.501089231014836e-09 1.5032252099969015e-10
492 -3.1083714880568975e-10 3.2843742718447034e-09 5.729934683344678e-09
496 3.2862767819431954e-09 5.179596056004133e-09 -2.687676686967023e-09
495 4.250550007876294e-09 3.3267493686628437e-09 5.743521986631723e-10
494 1.4876262547962467e-09 3.4040531077561734e-09 -2.9220312302288122e-09
493 -2.0417600410167348e-10 5.790921060604558e-09 -2.9355087027669567e-09
448 -2.0361793445077653e-09 -4.468805407077736e-09 -3.2944524091134685e-09
447 4.478565319271642e-09 -3.6914145812201562e-09 -1.6422929902439678e-09
500 2.4861442581312143e-09 -5.031011888625838e-09 -5.748961649474608e-09
499 -5.031011724896367e-09 2.486148733203154e-09 -5.748963944991841e-09
498 -7.3138808680179255e-09 -7.313882039660015e-09 -2.1750648307357523e-10
497 3.0203418104246166e-09 3.0203345842469245e-09 -8.262837135604375e-09
450 6.191853262768052e-09 9.710934414602966e-10 1.8200046510583666e-09
449 9.710916515516892e-10 6.1918459868706765e-09 1.820013686688619e-09
