LAMMPS data file via write_data, version 29 Aug 2024, timestep = 26, units = metal

500 atoms
3 atom types

0 17.570289887559902 xlo xhi
0 17.570289887559902 ylo yhi
0 17.570289887559902 zlo zhi

Masses

1 55.7897
2 58.71
3 58.71

Atoms # atomic

1 2 0.0031012178306805303 0.0031012178306804566 0 0 0 0
2 3 1.7539277709253085 1.7539277709253085 3.019085825545095e-19 0 0 0
3 1 1.7530277595998798 0.004001229156107651 1.748842211938218 0 0 0
4 1 0.004001229156109367 1.75302775959988 1.7488422119382172 0 0 0
5 1 3.5096271741558733 0.003959798186915864 0 0 0 0
8 1 3.5093859446117466 1.7565022577887015 1.7525677393265482 0 0 0
21 1 0.0039597981869157976 3.5096271741558738 8.567188055019556e-16 0 0 0
23 1 1.7565022577887013 3.5093859446117466 1.7525677393265484 0 0 0
25 1 3.509704347053444 3.5097043470534444 2.8721038790350837e-19 0 0 0
51 1 0.0005764756659442276 0.0005764756659443802 3.512558911011209 0 0 0
52 1 1.756452513090044 1.7564525130900444 3.512558911011209 0 0 0
53 1 1.7568449796493357 0.00018400910665283948 5.2708728643618885 0 0 0
54 1 0.00018400910665263473 1.7568449796493362 5.2708728643618885 0 0 0
55 1 3.5128431014563883 0.0005602035876221161 3.512567235073774 0 0 0
58 1 3.5135693798276484 1.756886433018976 5.270654130457542 0 0 0
71 1 0.0005602035876221957 3.512843101456389 3.512567235073774 0 0 0
73 1 1.7568864330189757 3.5135693798276484 5.270654130457542 0 0 0
75 1 3.513165519302393 3.513165519302393 3.512916302223855 0 0 0
6 1 5.270383003269098 1.7568970658198484 0 0 0 0
7 1 5.270243167485437 0.0005544485439975634 1.7563053555275072 0 0 0
9 1 7.028086605013524 0.00018656967213747476 0 0 0 0
12 1 7.028011523777272 1.7569987994647789 1.7568108012900585 0 0 0
27 1 5.270048272874924 3.513255462282386 1.756378073149467 0 0 0
29 1 7.027952341416153 3.51380943814272 6.626164684572789e-19 0 0 0
56 1 5.270169561497673 1.7568960641790532 3.5131388234006637 0 0 0
57 1 5.270478409703468 0.0001394362966487843 5.270462270523356 0 0 0
59 1 7.027735362443859 0.00013732199523412117 3.513672905357461 0 0 0
62 1 7.0276888045576955 1.756967424451103 5.270656800687578 0 0 0
77 1 5.2706033527918255 3.5137741725042875 5.270591579432505 0 0 0
79 1 7.027706164543158 3.5138226479008305 3.51367571097481 0 0 0
11 1 8.785122122845044 4.212189616680602e-05 1.7569835940579481 0 0 0
31 1 8.785125708733961 3.5139779152687454 1.7569608662871956 0 0 0
60 1 8.78506325461232 1.7569999235602158 3.5139217238220235 0 0 0
61 1 8.785010401653095 6.0059320707090545e-05 5.270872514022506 0 0 0
81 1 8.785016044575585 3.513920299138128 5.270871411438001 0 0 0
10 1 8.785205271732627 1.7570314369338256 0 0 0 0
14 1 12.299232271302365 1.75684241908385 0 0 0 0
15 1 12.299307352538621 3.0189291210133514e-05 1.7568108012900583 0 0 0
16 1 10.542196753470847 1.7569868668598225 1.7569835940579477 0 0 0
33 1 10.54225923475952 3.5139644898721354 0 0 0 0
35 1 12.299521367627891 3.513726812760561 1.7568513945867867 0 0 0
63 1 10.542255621703571 2.906519577316066e-05 3.5139217238220235 0 0 0
64 1 12.299583513872033 1.7568916667607557 3.5136729053574607 0 0 0
65 1 12.299630071758195 6.156430488509399e-05 5.270656800687578 0 0 0
66 1 10.542308474662796 1.7569689294352824 5.270872514022505 0 0 0
83 1 10.542297209960516 3.5139224167895837 3.513910442999413 0 0 0
85 1 12.29953916353331 3.5138462785446234 5.2707511624237355 0 0 0
17 1 14.056935873046793 0.0001319229361408908 0 0 0 0
18 1 15.817691702160017 1.7530691905690725 0 0 0 0
19 1 15.817932931704144 0.0005267309672868104 1.7525677393265477 0 0 0
20 1 14.057075708830453 1.7564745402119915 1.7563053555275077 0 0 0
37 1 14.056924948998969 3.5132659497875385 0 0 0 0
39 1 15.81462460196878 3.5126942743471092 1.7558791114339085 0 0 0
67 1 14.057149314818218 0.00013292457693626778 3.513138823400664 0 0 0
68 1 15.8144757748595 1.7564687851683665 3.512567235073774 0 0 0
69 1 15.813749496488242 0.00014255573701247914 5.270654130457541 0 0 0
70 1 14.056840466612423 1.75688955245934 5.270462270523356 0 0 0
87 1 14.056904816533052 3.5135573607487802 3.513389133893487 0 0 0
89 1 15.813707785637341 3.51361109067855 5.270447002755237 0 0 0
22 1 1.7568970658198482 5.270383003269098 0 0 0 0
24 1 0.0005544485439981479 5.270243167485437 1.7563053555275068 0 0 0
28 1 3.5132554622823857 5.2700482728749245 1.756378073149467 0 0 0
41 1 0.0001865696721378875 7.028086605013525 0 0 0 0
42 1 1.7569987994647787 7.028011523777271 1.756810801290059 0 0 0
43 1 3.5138094381427196 7.027952341416153 8.763334732762677e-19 0 0 0
72 1 1.7568960641790534 5.2701695614976725 3.5131388234006633 0 0 0
74 1 0.0001394362966491716 5.270478409703468 5.270462270523355 0 0 0
78 1 3.5137741725042875 5.2706033527918255 5.270591579432505 0 0 0
91 1 0.00013732199523287342 7.027735362443859 3.5136729053574602 0 0 0
92 1 1.7569674244511035 7.0276888045576955 5.270656800687577 0 0 0
93 1 3.5138226479008305 7.027706164543158 3.51367571097481 0 0 0
252 1 4.2121896165904484e-05 8.785122122845042 1.7569835940579486 0 0 0
254 1 3.5139779152687454 8.785125708733961 1.7569608662871958 0 0 0
301 1 1.756999923560216 8.78506325461232 3.513921723822024 0 0 0
302 1 6.0059320705414796e-05 8.785010401653095 5.270872514022506 0 0 0
304 1 3.5139202991381273 8.785016044575586 5.270871411438001 0 0 0
26 1 5.270234765726462 5.270234765726462 6.042572470826949e-19 0 0 0
32 1 7.027702968210016 5.270677913696934 1.7568488552568566 0 0 0
44 1 5.270677913696934 7.027702968210015 1.7568488552568569 0 0 0
45 1 7.027739771337683 7.027739771337683 0 0 0 0
76 1 5.27056063013971 5.27056063013971 3.513579855905487 0 0 0
82 1 7.0278480477234515 5.2708461749750315 5.270814272578012 0 0 0
94 1 5.2708461749750315 7.0278480477234515 5.270814272578013 0 0 0
95 1 7.027858643187543 7.027858643187543 3.513850775683325 0 0 0
30 1 8.785067031379217 5.2709253161116205 0 0 0 0
46 1 8.78502105372566 7.027913720397641 1.756934657196326 0 0 0
80 1 8.785029622128212 5.270899019401185 3.513889447469642 0 0 0
96 1 8.78506716472365 7.027967175478855 5.270933317491455 0 0 0
253 1 5.2709253161116205 8.785067031379217 1.7280648514017935e-19 0 0 0
256 1 7.02791372039764 8.78502105372566 1.756934657196327 0 0 0
303 1 5.270899019401185 8.785029622128214 3.513889447469642 0 0 0
306 1 7.027967175478855 8.78506716472365 5.270933317491454 0 0 0
255 1 8.785042399807848 8.785042399807848 0 0 0 0
305 1 8.785070733927297 8.785070733927297 3.513924871102956 0 0 0
34 1 12.299575620084186 5.270708287638479 0 0 0 0
36 1 10.542307581408952 5.270907075587556 1.7569443691534252 0 0 0
47 1 10.54228513212179 7.0279317705847975 0 0 0 0
48 1 12.299476808915541 7.027842067400351 1.7569164540274762 0 0 0
84 1 12.299522990192939 5.270785275075558 3.513807250816641 0 0 0
86 1 10.542264729040072 5.27090887911827 5.270911126564479 0 0 0
97 1 10.542256698100173 7.027950428883278 3.5139139998069964 0 0 0
98 1 12.299390784852092 7.0279280914638 5.270899748492545 0 0 0
257 1 12.299387105731094 8.7850337441941 0 0 0 0
258 1 10.54224775437318 8.785071121942709 1.7569474569446024 0 0 0
307 1 12.299368447432615 8.785062178215716 3.513913999806997 0 0 0
308 1 10.542229089147975 8.785089787167916 5.270957309571859 0 0 0
100 1 15.813472597771268 7.027779712782579 5.2707511624237355 0 0 0
38 1 15.814052926528353 5.2703939273169205 0 0 0 0
40 1 14.056833698244397 5.270485178071493 1.7567540672419872 0 0 0
49 1 14.056610588677412 7.027743256231707 0 0 0 0
50 1 15.813592063555332 7.027797508688001 1.7568513945867865 0 0 0
88 1 15.81376151556711 5.270414059782839 3.5133891338934875 0 0 0
90 1 14.056581543403999 5.270737332911891 5.270695959167936 0 0 0
99 1 14.05653360124033 7.027795886122952 3.513807250816641 0 0 0
259 1 15.813354386443754 8.785059641556371 0 0 0 0
260 1 14.056411800728334 8.785011294906937 1.7569443691534254 0 0 0
309 1 15.813396459526308 8.785021666355375 3.513910442999413 0 0 0
310 1 14.056409997197619 8.785054147275819 5.270911126564478 0 0 0
101 1 4.5038930250835094e-05 4.5038930249845204e-05 7.028134375095497 0 0 0
102 1 1.7569839498257387 1.756983949825739 7.028134375095497 0 0 0
103 1 1.7570210276655398 7.961090448843433e-06 8.78514494377995 0 0 0
104 1 7.961090448516397e-06 1.7570210276655405 8.785144943779951 0 0 0
105 1 3.513910364093375 4.7192584275722176e-05 7.0279921801200205 0 0 0
108 1 3.513998346423006 1.7569963841183436 8.785144943779951 0 0 0
121 1 4.719258427538172e-05 3.513910364093375 7.027992180120021 0 0 0
123 1 1.7569963841183431 3.513998346423006 8.78514494377995 0 0 0
125 1 3.513899736813448 3.513899736813448 7.027952713071363 0 0 0
151 1 4.50389302511583e-05 4.50389302490007e-05 10.542155512464403 0 0 0
152 1 1.7569839498257385 1.7569839498257385 10.542155512464403 0 0 0
153 1 3.5139103640933755 4.719258427553801e-05 10.54229770743988 0 0 0
161 1 4.719258427586281e-05 3.513910364093375 10.54229770743988 0 0 0
163 1 3.513899736813448 3.5138997368134484 10.542337174488539 0 0 0
106 1 5.270838244208683 1.756965884701576 7.027883763201896 0 0 0
107 1 5.270944853678327 3.465879429235131e-05 8.785144943779951 0 0 0
109 1 7.02785034263794 6.148468569412798e-05 7.02786533274732 0 0 0
112 1 7.027948395434617 1.7569794429255434 8.785144943779951 0 0 0
127 1 5.270940519406959 3.513942111290317 8.78514494377995 0 0 0
129 1 7.027893567793916 3.5139131847791103 7.027907820927957 0 0 0
154 1 5.270838244208683 1.7569658847015759 10.542406124358005 0 0 0
155 1 7.02785034263794 6.148468569551221e-05 10.54242455481258 0 0 0
165 1 7.027893567793916 3.51391318477911 10.542382066631944 0 0 0
110 1 8.78503236719649 1.7569803492216838 7.027937287414402 0 0 0
111 1 8.78506217173263 4.8386680306823225e-05 8.785144943779951 0 0 0
131 1 8.785072396153975 3.513935950776937 8.785144943779951 0 0 0
156 1 8.785032367196488 1.756980349221685 10.542352600145499 0 0 0
113 1 10.542286509119402 4.863953430291722e-05 7.027937287414402 0 0 0
114 1 12.29946853367795 1.7569675040702941 7.02786533274732 0 0 0
115 1 12.299370480881274 4.954583044473327e-05 8.78514494377995 0 0 0
116 1 10.542256704583261 1.7569806020756826 8.785144943779951 0 0 0
133 1 10.542261566505255 3.5139258780514786 7.027967805879503 0 0 0
135 1 12.299380510987922 3.5139264855959307 8.78514494377995 0 0 0
157 1 10.542286509119402 4.8639534302773025e-05 10.542352600145499 0 0 0
158 1 12.29946853367795 1.7569675040702937 10.542424554812582 0 0 0
167 1 10.542261566505255 3.5139258780514786 10.542322081680398 0 0 0
117 1 14.056480632107208 6.31040544125258e-05 7.027883763201896 0 0 0
118 1 15.813408512222516 1.7569817961717136 7.0279921801200205 0 0 0
119 1 15.813320529892884 3.260463764416163e-05 8.78514494377995 0 0 0
120 1 14.056374022637565 1.7569943299616957 8.78514494377995 0 0 0
137 1 14.056494985997073 3.5138812220468023 7.02784698868879 0 0 0
139 1 15.813349144044265 3.5139697322716277 8.785144943779951 0 0 0
159 1 14.056480632107208 6.31040544135434e-05 10.542406124358005 0 0 0
160 1 15.813408512222516 1.7569817961717147 10.54229770743988 0 0 0
169 1 14.056494985997075 3.5138812220468014 10.54244289887111 0 0 0
122 1 1.756965884701576 5.270838244208683 7.027883763201896 0 0 0
124 1 3.465879429114128e-05 5.270944853678326 8.785144943779951 0 0 0
128 1 3.513942111290317 5.270940519406959 8.785144943779951 0 0 0
141 1 6.148468569480247e-05 7.027850342637939 7.02786533274732 0 0 0
142 1 1.7569794429255445 7.027948395434616 8.785144943779951 0 0 0
143 1 3.5139131847791103 7.027893567793916 7.027907820927957 0 0 0
162 1 1.7569658847015763 5.270838244208683 10.542406124358006 0 0 0
171 1 6.148468569532707e-05 7.02785034263794 10.542424554812582 0 0 0
172 1 3.5139131847791103 7.027893567793916 10.542382066631944 0 0 0
351 1 1.7569803492216851 8.78503236719649 7.027937287414401 0 0 0
352 1 4.838668030585317e-05 8.78506217173263 8.785144943779951 0 0 0
354 1 3.5139359507769368 8.785072396153975 8.785144943779951 0 0 0
401 1 1.7569803492216842 8.785032367196488 10.542352600145499 0 0 0
126 1 5.270877682281156 5.2708776822811565 7.027911725204586 0 0 0
132 1 7.027971950970496 5.270931633175589 8.785144943779951 0 0 0
144 1 5.270931633175589 7.027971950970497 8.785144943779951 0 0 0
145 1 7.027968981370514 7.027968981370516 7.0279932883558365 0 0 0
164 1 5.2708776822811565 5.270877682281156 10.542378162355316 0 0 0
173 1 7.027968981370515 7.027968981370515 10.542296599204063 0 0 0
130 1 8.78507115860913 5.270929819010473 7.027993772372061 0 0 0
146 1 8.785094938154229 7.02799807401744 8.785144943779951 0 0 0
166 1 8.78507115860913 5.270929819010473 10.54229611518784 0 0 0
353 1 5.270929819010474 8.78507115860913 7.027993772372062 0 0 0
356 1 7.02799807401744 8.785094938154229 8.785144943779951 0 0 0
402 1 5.270929819010474 8.78507115860913 10.54229611518784 0 0 0
355 1 8.785096181631811 8.785096181631811 7.028034688501604 0 0 0
403 1 8.785096181631811 8.785096181631811 10.542255199058296 0 0 0
134 1 12.299391254536781 5.2708990837461265 7.027955048579642 0 0 0
136 1 10.542236237415578 5.27093658711935 8.78514494377995 0 0 0
147 1 10.542230189944538 7.027988480373836 7.028021645912402 0 0 0
148 1 12.299338390049304 7.027980486266587 8.78514494377995 0 0 0
168 1 12.299391254536781 5.270899083746128 10.54233483898026 0 0 0
174 1 10.542230189944538 7.027988480373836 10.5422682416475 0 0 0
357 1 12.299330395942054 8.78508868637135 7.028021645912401 0 0 0
358 1 10.542219496293033 8.785099380022857 8.785144943779951 0 0 0
404 1 12.299330395942052 8.78508868637135 10.5422682416475 0 0 0
138 1 15.813437654269089 5.270823890318817 7.027846988688791 0 0 0
140 1 14.056410922065142 5.270907954250749 8.78514494377995 0 0 0
149 1 14.056419792569763 7.02792762177911 7.027955048579642 0 0 0
150 1 15.81339239071996 7.027938365327968 8.785144943779951 0 0 0
170 1 15.813437654269089 5.270823890318816 10.54244289887111 0 0 0
175 1 14.056419792569763 7.027927621779111 10.54233483898026 0 0 0
359 1 15.813392998264414 8.785057309810636 7.027967805879502 0 0 0
360 1 14.056382289196542 8.785082638900313 8.785144943779951 0 0 0
405 1 15.813392998264414 8.785057309810636 10.542322081680398 0 0 0
176 1 1.7568449796493362 0.00018400910665295514 12.29941702319801 0 0 0
177 1 0.00018400910665257705 1.7568449796493362 12.29941702319801 0 0 0
179 1 3.5135693798276484 1.7568864330189757 12.299635757102356 0 0 0
186 1 1.7568864330189757 3.513569379827649 12.299635757102358 0 0 0
201 1 0.0005764756659445247 0.0005764756659441818 14.057730976548692 0 0 0
202 1 1.756452513090044 1.7564525130900446 14.057730976548692 0 0 0
203 1 1.7530277595998796 0.0040012291561094815 15.821447675621684 0 0 0
204 1 0.004001229156110067 1.753027759599879 15.821447675621682 0 0 0
205 1 3.5128431014563892 0.0005602035876221103 14.057722652486126 0 0 0
208 1 3.5093859446117457 1.7565022577887022 15.817722148233353 0 0 0
221 1 0.0005602035876228391 3.512843101456389 14.057722652486127 0 0 0
223 1 1.7565022577887026 3.509385944611746 15.817722148233353 0 0 0
225 1 3.5131655193023925 3.5131655193023925 14.057373585336046 0 0 0
178 1 5.270478409703467 0.0001394362966498469 12.299827617036547 0 0 0
181 1 7.0276888045576955 1.7569674244511044 12.299633086872323 0 0 0
188 1 5.2706033527918255 3.5137741725042875 12.299698308127395 0 0 0
206 1 5.2701695614976725 1.7568960641790536 14.057151064159237 0 0 0
207 1 5.270243167485438 0.0005544485439958389 15.813984532032393 0 0 0
209 1 7.027735362443858 0.0001373219952323718 14.05661698220244 0 0 0
212 1 7.028011523777271 1.7569987994647798 15.813479086269842 0 0 0
227 1 5.270048272874924 3.5132554622823866 15.813911814410435 0 0 0
229 1 7.027706164543157 3.513822647900831 14.056614176585091 0 0 0
180 1 8.785010401653095 6.005932070582272e-05 12.299417373537395 0 0 0
190 1 8.785016044575586 3.513920299138128 12.2994184761219 0 0 0
210 1 8.78506325461232 1.7569999235602158 14.056368163737876 0 0 0
211 1 8.785122122845044 4.212189616609319e-05 15.813306293501952 0 0 0
231 1 8.785125708733961 3.5139779152687454 15.813329021272706 0 0 0
182 1 12.299630071758195 6.156430488588319e-05 12.299633086872323 0 0 0
183 1 10.542308474662796 1.7569689294352824 12.299417373537395 0 0 0
192 1 12.29953916353331 3.5138462785446234 12.299538725136165 0 0 0
213 1 10.54225562170357 2.906519577248481e-05 14.056368163737876 0 0 0
214 1 12.299583513872033 1.7568916667607557 14.05661698220244 0 0 0
215 1 12.29930735253862 3.0189291210774904e-05 15.813479086269842 0 0 0
216 1 10.542196753470847 1.7569868668598223 15.813306293501952 0 0 0
233 1 10.542297209960516 3.5139224167895833 14.056379444560488 0 0 0
235 1 12.299521367627891 3.5137268127605608 15.813438492973113 0 0 0
184 1 15.813749496488242 0.00014255573701295738 12.29963575710236 0 0 0
185 1 14.056840466612423 1.75688955245934 12.299827617036545 0 0 0
194 1 15.813707785637341 3.513611090678549 12.299842884804663 0 0 0
217 1 14.05714931481822 0.00013292457693586416 14.057151064159237 0 0 0
218 1 15.8144757748595 1.7564687851683656 14.057722652486127 0 0 0
219 1 15.817932931704144 0.0005267309672867221 15.817722148233353 0 0 0
220 1 14.057075708830453 1.7564745402119912 15.813984532032393 0 0 0
237 1 14.056904816533052 3.513557360748781 14.056900753666413 0 0 0
239 1 15.814624601968779 3.5126942743471097 15.814410776125992 0 0 0
187 1 0.000139436296649294 5.270478409703468 12.299827617036547 0 0 0
189 1 3.513774172504287 5.2706033527918255 12.299698308127395 0 0 0
196 1 1.7569674244511038 7.0276888045576955 12.299633086872323 0 0 0
222 1 1.756896064179053 5.270169561497673 14.057151064159237 0 0 0
224 1 0.0005544485439978176 5.270243167485438 15.813984532032395 0 0 0
228 1 3.513255462282386 5.2700482728749245 15.813911814410435 0 0 0
241 1 0.00013732199523184708 7.027735362443859 14.05661698220244 0 0 0
242 1 1.756998799464779 7.028011523777271 15.813479086269842 0 0 0
243 1 3.513822647900831 7.027706164543157 14.05661417658509 0 0 0
426 1 6.005932070585372e-05 8.785010401653095 12.299417373537395 0 0 0
427 1 3.513920299138128 8.785016044575586 12.299418476121902 0 0 0
451 1 1.7569999235602154 8.78506325461232 14.056368163737877 0 0 0
452 1 4.212189616621985e-05 8.785122122845042 15.813306293501952 0 0 0
454 1 3.513977915268745 8.785125708733961 15.813329021272706 0 0 0
191 1 7.0278480477234515 5.2708461749750315 12.299475614981889 0 0 0
197 1 5.2708461749750315 7.0278480477234515 12.299475614981889 0 0 0
226 1 5.27056063013971 5.27056063013971 14.056710031654415 0 0 0
232 1 7.027702968210016 5.270677913696932 15.813441032303045 0 0 0
244 1 5.270677913696932 7.027702968210015 15.813441032303045 0 0 0
245 1 7.027858643187543 7.027858643187543 14.056439111876577 0 0 0
198 1 8.78506716472365 7.027967175478855 12.299356570068445 0 0 0
230 1 8.785029622128212 5.270899019401185 14.05640044009026 0 0 0
246 1 8.78502105372566 7.02791372039764 15.813355230363575 0 0 0
428 1 7.027967175478855 8.78506716472365 12.299356570068447 0 0 0
453 1 5.2708990194011855 8.785029622128212 14.05640044009026 0 0 0
456 1 7.02791372039764 8.78502105372566 15.813355230363575 0 0 0
455 1 8.785070733927297 8.785070733927297 14.056365016456944 0 0 0
193 1 10.542264729040072 5.270908879118271 12.29937876099542 0 0 0
199 1 12.299390784852092 7.0279280914638 12.299390139067356 0 0 0
234 1 12.29952299019294 5.270785275075558 14.05648263674326 0 0 0
236 1 10.542307581408952 5.270907075587556 15.813345518406475 0 0 0
247 1 10.542256698100173 7.027950428883279 14.056375887752903 0 0 0
248 1 12.299476808915541 7.027842067400351 15.813373433532425 0 0 0
429 1 10.542229089147975 8.785089787167916 12.299332577988041 0 0 0
457 1 12.299368447432613 8.785062178215718 14.056375887752903 0 0 0
458 1 10.542247754373182 8.785071121942709 15.813342430615297 0 0 0
195 1 14.056581543403999 5.270737332911892 12.299593928391966 0 0 0
200 1 15.813472597771268 7.02777971278258 12.299538725136166 0 0 0
238 1 15.81376151556711 5.27041405978284 14.056900753666413 0 0 0
240 1 14.056833698244397 5.270485178071493 15.813535820317913 0 0 0
249 1 14.056533601240332 7.02779588612295 14.05648263674326 0 0 0
250 1 15.813592063555332 7.027797508688001 15.813438492973114 0 0 0
430 1 14.05640999719762 8.785054147275819 12.29937876099542 0 0 0
459 1 15.813396459526306 8.785021666355373 14.056379444560488 0 0 0
460 1 14.056411800728334 8.785011294906939 15.813345518406475 0 0 0
251 1 1.7570314369338265 8.785205271732627 1.0815405884207406e-19 0 0 0
262 1 1.7568424190838496 12.299232271302367 0 0 0 0
263 1 1.756986866859823 10.542196753470849 1.7569835940579481 0 0 0
264 1 3.018929121050699e-05 12.299307352538621 1.7568108012900578 0 0 0
265 1 3.5139644898721363 10.54225923475952 0 0 0 0
268 1 3.5137268127605608 12.29952136762789 1.7568513945867872 0 0 0
311 1 2.9065195772177888e-05 10.542255621703571 3.513921723822023 0 0 0
312 1 1.7568916667607553 12.299583513872033 3.5136729053574607 0 0 0
313 1 1.7569689294352826 10.542308474662796 5.270872514022505 0 0 0
314 1 6.15643048849045e-05 12.299630071758195 5.270656800687577 0 0 0
315 1 3.5139224167895833 10.542297209960516 3.513910442999412 0 0 0
318 1 3.5138462785446234 12.29953916353331 5.270751162423735 0 0 0
266 1 5.270708287638479 12.299575620084184 0 0 0 0
267 1 5.270907075587556 10.542307581408952 1.7569443691534248 0 0 0
269 1 7.027931770584796 10.54228513212179 0 0 0 0
272 1 7.02784206740035 12.299476808915541 1.756916454027476 0 0 0
316 1 5.270785275075558 12.29952299019294 3.513807250816641 0 0 0
317 1 5.27090887911827 10.542264729040072 5.270911126564479 0 0 0
319 1 7.027950428883278 10.542256698100173 3.5139139998069964 0 0 0
322 1 7.0279280914638 12.299390784852092 5.270899748492545 0 0 0
270 1 8.7850337441941 12.299387105731094 3.80484591454344e-19 0 0 0
271 1 8.785071121942709 10.54224775437318 1.7569474569446033 0 0 0
320 1 8.785062178215718 12.299368447432613 3.513913999806997 0 0 0
321 1 8.785089787167916 10.542229089147975 5.270957309571859 0 0 0
273 1 10.542276476508043 10.542276476508043 0 0 0 0
274 1 12.299579104978207 12.299579104978207 8.189622286124008e-16 0 0 0
275 1 12.299405155918251 10.542297822590232 1.756934657196326 0 0 0
276 1 10.54229782259023 12.299405155918251 1.7569346571963265 0 0 0
323 1 10.542248142388592 10.542248142388594 3.513924871102956 0 0 0
324 1 12.299460233128345 12.299460233128347 3.513850775683325 0 0 0
325 1 12.299351700837036 10.542251711592241 5.270933317491454 0 0 0
326 1 10.542251711592241 12.299351700837036 5.270933317491454 0 0 0
261 1 17.570287439382064 10.542113604583264 0 -1 0 0
277 1 14.056393560204272 10.542251844936674 0 0 0 0
278 1 15.81350943817317 12.299366534899736 0 0 0 0
279 1 15.813340961047146 10.54219316758193 1.756960866287195 0 0 0
280 1 14.056640962618957 12.299615908105874 1.7568488552568564 0 0 0
327 1 14.056419856914706 10.542289254187677 3.5138894474696434 0 0 0
328 1 15.81349622841506 12.299612711772733 3.51367571097481 0 0 0
329 1 15.813398577177763 10.542302831740304 5.270871411438001 0 0 0
330 1 14.056472701340859 12.299470828592439 5.270814272578012 0 0 0
281 1 0.00013192293614095214 14.056935873046793 0 0 0 0
282 1 1.7530691905690725 15.817691702160017 0 0 0 0
283 1 1.7564745402119906 14.057075708830455 1.7563053555275068 0 0 0
284 1 0.0005267309672873374 15.817932931704144 1.7525677393265482 0 0 0
288 1 3.5126942743471083 15.81462460196878 1.7558791114339087 0 0 0
331 1 0.0001329245769357896 14.057149314818218 3.5131388234006637 0 0 0
332 1 1.756468785168366 15.814475774859503 3.5125672350737736 0 0 0
333 1 1.7568895524593398 14.056840466612421 5.270462270523356 0 0 0
334 1 0.0001425557370135415 15.813749496488242 5.270654130457542 0 0 0
335 1 3.5135573607487807 14.056904816533052 3.513389133893488 0 0 0
338 1 3.51361109067855 15.813707785637341 5.270447002755237 0 0 0
341 1 8.785054147275819 14.05640999719762 5.270911126564479 0 0 0
340 1 8.785021666355375 15.813396459526306 3.513910442999412 0 0 0
291 1 8.785011294906939 14.056411800728334 1.7569443691534248 0 0 0
286 1 5.2703939273169205 15.814052926528353 0 0 0 0
287 1 5.270485178071495 14.056833698244397 1.7567540672419881 0 0 0
289 1 7.027743256231706 14.056610588677412 0 0 0 0
292 1 7.027797508688001 15.81359206355533 1.7568513945867865 0 0 0
336 1 5.270414059782839 15.81376151556711 3.5133891338934875 0 0 0
337 1 5.270737332911892 14.056581543403999 5.270695959167935 0 0 0
339 1 7.0277958861229495 14.056533601240332 3.513807250816641 0 0 0
342 1 7.027779712782579 15.813472597771266 5.2707511624237355 0 0 0
290 1 8.785059641556371 15.813354386443756 0 0 0 0
346 1 10.542302831740306 15.813398577177763 5.270871411438001 0 0 0
345 1 12.299470828592439 14.056472701340859 5.270814272578012 0 0 0
344 1 12.299612711772733 15.81349622841506 3.5136757109748107 0 0 0
343 1 10.54228925418768 14.056419856914706 3.513889447469643 0 0 0
296 1 10.54219316758193 15.813340961047146 1.7569608662871952 0 0 0
295 1 12.299615908105874 14.056640962618957 1.7568488552568564 0 0 0
294 1 12.299366534899736 15.81350943817317 0 0 0 0
293 1 10.542251844936674 14.05639356020427 0 0 0 0
13 1 10.542113604583264 17.570287439382064 0 0 -1 0
350 1 14.056715523524066 15.813544703811603 5.270591579432505 0 0 0
349 1 15.813544703811603 14.056715523524066 5.270591579432505 0 0 0
348 1 15.814153357013497 15.814153357013499 3.5129163022238545 0 0 0
347 1 14.056758246176182 14.05675824617618 3.5135798559054856 0 0 0
300 1 14.057270603440967 15.814063414033503 1.7563780731494658 0 0 0
299 1 15.814063414033505 14.057270603440966 1.7563780731494663 0 0 0
298 1 15.817614529262446 15.817614529262446 0 0 0 0
297 1 14.057084110589429 14.057084110589429 0 0 0 0
361 1 4.8639534303943e-05 10.542286509119402 7.027937287414402 0 0 0
362 1 1.756967504070293 12.29946853367795 7.027865332747321 0 0 0
363 1 1.7569806020756822 10.542256704583261 8.78514494377995 0 0 0
364 1 4.954583044599164e-05 12.299370480881274 8.78514494377995 0 0 0
365 1 3.5139258780514777 10.542261566505253 7.027967805879502 0 0 0
368 1 3.5139264855959307 12.299380510987923 8.785144943779951 0 0 0
406 1 4.863953430387854e-05 10.542286509119402 10.542352600145499 0 0 0
407 1 1.7569675040702941 12.29946853367795 10.542424554812582 0 0 0
408 1 3.5139258780514786 10.542261566505255 10.542322081680398 0 0 0
366 1 5.270899083746128 12.299391254536781 7.027955048579642 0 0 0
367 1 5.27093658711935 10.542236237415578 8.785144943779951 0 0 0
369 1 7.027988480373836 10.54223018994454 7.028021645912402 0 0 0
372 1 7.027980486266587 12.299338390049304 8.785144943779951 0 0 0
409 1 5.270899083746127 12.299391254536781 10.54233483898026 0 0 0
410 1 7.027988480373837 10.54223018994454 10.5422682416475 0 0 0
370 1 8.78508868637135 12.299330395942054 7.028021645912401 0 0 0
371 1 8.785099380022857 10.542219496293034 8.785144943779951 0 0 0
411 1 8.78508868637135 12.299330395942054 10.5422682416475 0 0 0
373 1 10.54222269468408 10.54222269468408 7.028034688501604 0 0 0
374 1 12.299349894945376 12.299349894945374 7.0279932883558365 0 0 0
375 1 12.299320802298451 10.542223938161662 8.78514494377995 0 0 0
376 1 10.542223938161662 12.299320802298451 8.785144943779951 0 0 0
412 1 10.54222269468408 10.54222269468408 10.542255199058296 0 0 0
413 1 12.299349894945376 12.299349894945376 10.542296599204063 0 0 0
377 1 14.056389057305418 10.542247717706761 7.027993772372061 0 0 0
378 1 15.81340569153678 12.299425308521975 7.027907820927957 0 0 0
379 1 15.813382925538955 10.542246480161914 8.785144943779951 0 0 0
380 1 14.0563872431403 12.299346925345395 8.78514494377995 0 0 0
414 1 14.056389057305418 10.54224771770676 10.542296115187838 0 0 0
415 1 15.81340569153678 12.299425308521974 10.542382066631944 0 0 0
381 1 6.310405441338168e-05 14.056480632107206 7.027883763201896 0 0 0
382 1 1.756981796171713 15.813408512222516 7.027992180120021 0 0 0
383 1 1.7569943299616966 14.056374022637565 8.78514494377995 0 0 0
384 1 3.260463764542069e-05 15.813320529892886 8.785144943779951 0 0 0
385 1 3.513881222046802 14.056494985997075 7.027846988688791 0 0 0
388 1 3.5139697322716272 15.813349144044263 8.785144943779951 0 0 0
416 1 6.310405441295591e-05 14.056480632107208 10.542406124358005 0 0 0
417 1 1.756981796171713 15.813408512222518 10.54229770743988 0 0 0
418 1 3.5138812220468023 14.056494985997073 10.54244289887111 0 0 0
421 1 8.785057309810636 15.813392998264414 10.542322081680398 0 0 0
391 1 8.785082638900313 14.056382289196542 8.785144943779951 0 0 0
390 1 8.785057309810636 15.813392998264412 7.027967805879503 0 0 0
386 1 5.270823890318817 15.813437654269089 7.02784698868879 0 0 0
387 1 5.270907954250747 14.056410922065142 8.785144943779951 0 0 0
389 1 7.02792762177911 14.056419792569763 7.027955048579642 0 0 0
392 1 7.027938365327969 15.81339239071996 8.785144943779951 0 0 0
419 1 5.270823890318817 15.813437654269087 10.54244289887111 0 0 0
420 1 7.02792762177911 14.056419792569763 10.54233483898026 0 0 0
423 1 12.299425308521974 15.81340569153678 10.542382066631944 0 0 0
422 1 10.542247717706761 14.056389057305417 10.542296115187838 0 0 0
396 1 10.542246480161916 15.813382925538955 8.785144943779951 0 0 0
395 1 12.299346925345393 14.0563872431403 8.785144943779951 0 0 0
394 1 12.299425308521974 15.813405691536781 7.027907820927956 0 0 0
393 1 10.542247717706761 14.056389057305418 7.02799377237206 0 0 0
425 1 15.813419139502443 15.813419139502443 10.542337174488539 0 0 0
424 1 14.056441194034734 14.056441194034734 10.542378162355314 0 0 0
400 1 14.056378356908931 15.813376765025573 8.78514494377995 0 0 0
399 1 15.813376765025572 14.056378356908931 8.78514494377995 0 0 0
398 1 15.813419139502443 15.813419139502443 7.027952713071362 0 0 0
397 1 14.056441194034736 14.056441194034734 7.027911725204586 0 0 0
431 1 1.756968929435282 10.542308474662796 12.299417373537395 0 0 0
432 1 6.156430488513208e-05 12.299630071758195 12.299633086872323 0 0 0
434 1 3.5138462785446234 12.29953916353331 12.299538725136166 0 0 0
461 1 2.9065195773305967e-05 10.542255621703571 14.056368163737876 0 0 0
462 1 1.7568916667607555 12.299583513872033 14.056616982202438 0 0 0
463 1 1.756986866859822 10.542196753470847 15.813306293501952 0 0 0
464 1 3.018929121038835e-05 12.299307352538621 15.813479086269842 0 0 0
465 1 3.5139224167895833 10.542297209960518 14.056379444560488 0 0 0
468 1 3.513726812760561 12.299521367627891 15.813438492973114 0 0 0
433 1 5.270908879118271 10.542264729040072 12.299378760995422 0 0 0
436 1 7.0279280914638 12.299390784852092 12.299390139067356 0 0 0
466 1 5.270785275075558 12.299522990192939 14.056482636743258 0 0 0
467 1 5.270907075587557 10.542307581408952 15.813345518406477 0 0 0
469 1 7.027950428883278 10.542256698100173 14.056375887752903 0 0 0
472 1 7.027842067400351 12.299476808915541 15.813373433532425 0 0 0
435 1 8.785089787167916 10.542229089147975 12.299332577988041 0 0 0
470 1 8.785062178215718 12.299368447432613 14.056375887752903 0 0 0
471 1 8.78507112194271 10.542247754373182 15.813342430615299 0 0 0
437 1 12.299351700837034 10.54225171159224 12.299356570068445 0 0 0
438 1 10.54225171159224 12.299351700837036 12.299356570068445 0 0 0
473 1 10.542248142388594 10.542248142388592 14.056365016456944 0 0 0
474 1 12.299460233128347 12.299460233128347 14.056439111876577 0 0 0
475 1 12.299405155918253 10.54229782259023 15.813355230363573 0 0 0
476 1 10.54229782259023 12.299405155918251 15.813355230363575 0 0 0
439 1 15.813398577177765 10.542302831740304 12.2994184761219 0 0 0
440 1 14.056472701340859 12.299470828592439 12.299475614981887 0 0 0
477 1 14.056419856914706 10.54228925418768 14.05640044009026 0 0 0
478 1 15.81349622841506 12.299612711772733 14.056614176585091 0 0 0
479 1 15.813340961047144 10.54219316758193 15.813329021272706 0 0 0
480 1 14.056640962618959 12.299615908105874 15.813441032303043 0 0 0
441 1 1.7568895524593395 14.056840466612421 12.299827617036545 0 0 0
442 1 0.00014255573701260616 15.813749496488242 12.299635757102356 0 0 0
444 1 3.5136110906785496 15.813707785637341 12.299842884804663 0 0 0
481 1 0.00013292457693530685 14.057149314818218 14.057151064159235 0 0 0
482 1 1.756468785168366 15.8144757748595 14.057722652486126 0 0 0
483 1 1.7564745402119912 14.057075708830453 15.813984532032395 0 0 0
484 1 0.00052673096728713 15.817932931704144 15.817722148233353 0 0 0
485 1 3.513557360748781 14.056904816533052 14.056900753666413 0 0 0
488 1 3.51269427434711 15.81462460196878 15.814410776125992 0 0 0
285 1 3.5132659497875376 14.05692494899897 17.5702898875599 0 0 -1
491 1 8.78501129490694 14.056411800728334 15.813345518406475 0 0 0
490 1 8.785021666355373 15.813396459526306 14.056379444560488 0 0 0
445 1 8.785054147275819 14.056409997197619 12.299378760995422 0 0 0
443 1 5.270737332911892 14.056581543403999 12.299593928391966 0 0 0
446 1 7.02777971278258 15.813472597771266 12.299538725136165 0 0 0
486 1 5.270414059782839 15.813761515567112 14.056900753666413 0 0 0
487 1 5.270485178071493 14.056833698244397 15.813535820317913 0 0 0
489 1 7.027795886122951 14.05653360124033 14.056482636743258 0 0 0
492 1 7.027797508688001 15.813592063555332 15.813438492973113 0 0 0
496 1 10.54219316758193 15.813340961047146 15.813329021272704 0 0 0
495 1 12.299615908105874 14.056640962618959 15.813441032303043 0 0 0
494 1 12.299612711772733 15.81349622841506 14.05661417658509 0 0 0
493 1 10.54228925418768 14.056419856914706 14.05640044009026 0 0 0
448 1 10.542302831740306 15.813398577177765 12.299418476121902 0 0 0
447 1 12.299470828592439 14.056472701340859 12.299475614981889 0 0 0
500 1 14.057270603440967 15.814063414033503 15.813911814410435 0 0 0
499 1 15.814063414033503 14.057270603440966 15.813911814410435 0 0 0
498 1 15.814153357013497 15.814153357013499 14.057373585336046 0 0 0
497 1 14.05675824617618 14.05675824617618 14.056710031654415 0 0 0
450 1 14.056715523524066 15.813544703811603 12.299698308127397 0 0 0
449 1 15.813544703811603 14.056715523524066 12.299698308127395 0 0 0

Velocities

1 8.700166953363534e-09 8.700167107311253e-09 -8.013834046843494e-16
2 -8.700168726613187e-09 -8.700168492270549e-09 3.0190858255450947e-16
3 -2.860591326038104e-09 2.8605961985209604e-09 -9.415147108422809e-09
4 2.8605895547716313e-09 -2.8605926046860898e-09 -9.415143798698601e-09
5 6.135725282040883e-09 -2.3670378868751722e-09 -1.4546631848416467e-15
8 6.4158584031650814e-09 -5.5441747431560575e-09 -4.517288710240593e-09
21 -2.3670385750236533e-09 6.135723168292807e-09 -4.420965911502922e-15
23 -5.5441729419959824e-09 6.415858881195521e-09 -4.517289259158068e-09
25 7.291569540286107e-09 7.29156950819545e-09 2.872103879035084e-16
51 2.3479621407167796e-09 2.347963463766431e-09 3.1809606529664834e-09
52 -2.3479616894998458e-09 -2.347962292222465e-09 3.180960987929054e-09
53 -1.1738099871379207e-10 1.173806062990654e-10 -1.838387285764397e-08
54 1.1737999547614224e-10 -1.1738229596247567e-10 -1.8383872780991092e-08
55 5.906741638134052e-10 3.433663181767705e-09 -1.3678664574785549e-09
58 -6.0913761040399415e-09 -1.6815427207404421e-09 -7.125691016087272e-09
71 3.433662537048197e-09 5.90672366952222e-10 -1.367867088178396e-09
73 -1.6815425518972142e-09 -6.091376172123747e-09 -7.125690039704146e-09
75 -5.707456484929406e-09 -5.70745682203483e-09 7.895881769434922e-10
6 1.2045554028060212e-09 1.0599848994715602e-09 -1.9137718206757016e-15
7 -1.3475926620003779e-09 3.513269357559863e-09 -8.192050901004956e-09
9 8.14490273826277e-09 9.16069844178725e-10 -1.4952561144768297e-15
12 -1.200026349494428e-09 1.9670520201930367e-09 1.704922865521526e-09
27 -2.3862167103773256e-10 -6.339224737665357e-09 -1.360649644856853e-09
29 -2.1518648839126494e-09 -4.98489817864364e-09 6.626164684572789e-16
56 -1.9630192686865126e-10 -5.719378974787197e-10 -7.618956779035053e-10
57 3.4569303383501083e-09 -3.0257205614638613e-09 2.52847273737946e-09
59 7.670874864884526e-09 -6.316518744450294e-10 2.1099679779914036e-09
62 3.368324116135151e-10 -3.732690651276333e-09 8.214022264703719e-09
77 4.5029224363013795e-09 -5.311945146319653e-09 9.01322151855058e-09
79 5.833160207698387e-10 -4.40674850446289e-09 5.568108039690614e-09
11 2.1317848063407114e-09 -2.283891347446395e-09 4.359143743419704e-09
31 -1.8549395083968023e-09 -3.5784828346132705e-09 2.5932381948694378e-09
60 1.536834248985114e-09 -3.044878963646854e-09 6.632682366545561e-09
61 3.118117791059572e-10 -1.3869145653985587e-09 3.11343246814594e-09
81 2.036201753483503e-10 1.7461604130637724e-09 1.0882561150536454e-08
10 3.6567507861794097e-09 2.187956207160026e-09 -1.6665625433223894e-15
14 -8.144899966067328e-09 -9.160668872740184e-10 -1.4309540919537956e-15
15 1.200024249146074e-09 -1.9670533413617586e-09 1.7049248903525148e-09
16 -2.131785128720974e-09 2.2838917122600858e-09 4.359145449883744e-09
33 -6.83122485555738e-09 -4.741060236110921e-09 -1.661041047047311e-15
35 -8.891143504288451e-09 -8.412541878714889e-10 -4.4304451107415144e-10
63 -1.5368338115451136e-09 3.0448797028745956e-09 6.632681937529461e-09
64 -7.670875647913912e-09 6.316498823702702e-10 2.1099690682323184e-09
65 -3.3683234762380896e-10 3.732692886599284e-09 8.21402123684288e-09
66 -3.118121342578353e-10 1.3869103508403934e-09 3.113434823234323e-09
83 -4.636490308397224e-09 -7.592919429646604e-09 -1.7224707088629216e-09
85 -4.799821102569515e-09 -4.143658042731269e-09 5.685654932902026e-09
17 -1.204556528804528e-09 -1.0599857533036033e-09 -2.349088157374313e-15
18 -6.135724212331988e-09 2.367039431855809e-09 -2.3328875493924213e-15
19 -6.415859415740581e-09 5.544177871780989e-09 -4.517288367824617e-09
20 1.3475960630405133e-09 -3.513269560667485e-09 -8.192052580317979e-09
37 8.691497984473908e-10 -6.855552252481966e-11 -1.2111454522758751e-15
39 -2.3121639433199285e-09 2.3121621382834385e-09 -1.2007633770438469e-08
67 1.963001366428733e-10 5.719367676363187e-10 -7.618973640417833e-10
68 -5.906713517141218e-10 -3.4336625960754125e-09 -1.3678670478268816e-09
69 6.091377565676044e-09 1.6815454752069211e-09 -7.1256875928123176e-09
70 -3.4569309341724688e-09 3.0257189672040314e-09 2.528472800756838e-09
87 -2.826643190021232e-09 3.710864116175247e-09 -3.9911178797804735e-09
89 -1.169059090444664e-09 1.16905994622678e-09 -5.936798175768455e-09
22 1.0599860515147945e-09 1.2045553936580218e-09 -1.0889266077932718e-15
24 3.513269088749775e-09 -1.3475922710857075e-09 -8.192050219379377e-09
28 -6.339224051314599e-09 -2.386240203080135e-10 -1.3606498896660403e-09
41 9.16069978583769e-10 8.144901238431484e-09 -5.350700802908158e-16
42 1.9670520825953783e-09 -1.2000242299148835e-09 1.7049225919112578e-09
43 -4.984897342868525e-09 -2.1518645375210485e-09 8.763334732762677e-16
72 -5.719390447217738e-10 -1.9629978790087935e-10 -7.618946755658892e-10
74 -3.025720043044406e-09 3.4569296953509777e-09 2.528474355040168e-09
78 -5.311945609237026e-09 4.50292216454994e-09 9.013221280050417e-09
91 -6.316486847253246e-10 7.670873665439513e-09 2.1099699916669733e-09
92 -3.7326916497138025e-09 3.368322110530587e-10 8.214022783123175e-09
93 -4.406747457357969e-09 5.83317584898533e-10 5.568109361413654e-09
252 -2.2838889137550625e-09 2.1317907297630077e-09 4.35914203875573e-09
254 -3.5784833794055905e-09 -1.8549403281611604e-09 2.593237619173614e-09
301 -3.0448813349358445e-09 1.5368349040596979e-09 6.632680718583716e-09
302 -1.3869061746836691e-09 3.118118153791935e-10 3.1134322353372033e-09
304 1.7461638945350513e-09 2.0361534907786451e-10 1.088256004930118e-08
26 -1.1208315492578112e-09 -1.1208318199452005e-09 6.042572470826949e-16
32 -1.3682918687197036e-09 1.156392128893302e-09 3.836630103951243e-09
44 1.156392155275011e-09 -1.368289760240576e-09 3.836630037948765e-09
45 -1.118562838436752e-08 -1.118562817443464e-08 -9.424853699095026e-16
76 2.58992617342761e-09 2.589926081418786e-09 4.729004519292406e-09
82 -1.0007717521197816e-09 -3.983097471699998e-09 1.249885474979013e-08
94 -3.983098628121521e-09 -1.0007697830266569e-09 1.2498851425070632e-08
95 -1.6171564749753375e-09 -1.6171554982893548e-09 -2.7882514677559534e-10
30 -4.645048381893848e-09 -5.909277954756081e-09 -1.0049791214461317e-16
46 -4.042263631527831e-09 -7.819028421941288e-09 1.0139616236945121e-09
80 -1.2278790692886519e-09 2.253586890796942e-10 1.7860789792943427e-09
96 -3.666860297278809e-09 5.109217943057777e-09 3.2204833270867557e-09
253 -5.909278139955023e-09 -4.645050196213694e-09 1.7280648514017936e-16
256 -7.819026983469043e-09 -4.042263476254938e-09 1.013959946031552e-09
303 2.2535751969734472e-10 -1.2278834152812297e-09 1.786079359868e-09
306 5.109218245707904e-09 -3.6668591519295762e-09 3.220485261859364e-09
255 -9.194930972654973e-10 -9.194913069805374e-10 -1.2096453959812555e-15
305 -4.930079582649138e-09 -4.930079969875734e-09 -2.103282655239852e-09
34 -1.0501899330127486e-08 5.160866212153155e-09 -1.9974726180775156e-15
36 -6.228800951664242e-09 4.895186329894559e-10 -5.798148271407437e-09
47 -9.624302751698897e-10 -9.94109686114289e-09 -1.2264460264809952e-15
48 -3.080261031572858e-09 3.080257414241305e-09 -4.923844832913047e-09
84 -5.973718443500522e-09 4.136361915700477e-09 -1.1336490367137316e-08
86 1.6230925592010625e-09 3.874017555996429e-09 5.22016822321278e-09
97 -7.962508615815405e-10 -1.6888667868667045e-09 -6.82395208739279e-10
98 -6.470617595594374e-10 6.470583004105966e-10 -3.1817416464770435e-09
257 9.941092594352296e-09 9.624339353277439e-10 -7.820590368758556e-16
258 7.167135915766129e-10 -7.167076087953752e-10 6.653352473260312e-10
307 1.6888617833290347e-09 7.962554624831764e-10 -6.82398436194775e-10
308 -1.6821777657585862e-09 1.6821777237341574e-09 -1.89923804164713e-09
100 4.143654913282055e-09 4.799821010555124e-09 5.685655049984349e-09
38 6.855349429870371e-11 -8.691492689275188e-10 -1.068040081769164e-15
40 -5.103834300718628e-09 5.103837591167112e-09 5.560107104578621e-10
49 -5.1608641690548015e-09 1.0501893637413847e-08 -1.6769129317552648e-15
50 8.412503076758717e-10 8.891140303168319e-09 -4.4304345548453695e-10
88 -3.7108644865766474e-09 2.826644936886539e-09 -3.991119410078137e-09
90 -1.1004198584783682e-09 1.100422774137788e-09 -8.829249387055101e-10
99 -4.1363567316934295e-09 5.973716123937691e-09 -1.1336489746127285e-08
259 4.741064335464763e-09 6.831225177727283e-09 -1.0704401718405553e-15
260 -4.895180753997806e-10 6.228805349140786e-09 -5.798146979119486e-09
309 7.59291494511698e-09 4.6364882459979325e-09 -1.72247071504831e-09
310 -3.874012893465202e-09 -1.6230949640063817e-09 5.2201712224499454e-09
101 -1.1699211019945247e-09 -1.1699149073620504e-09 5.266413168933342e-09
102 1.1699175594615794e-09 1.1699178339718813e-09 5.2664127729184805e-09
103 2.3202722535613357e-09 -2.3202692432483637e-09 2.736402692645097e-15
104 -2.3202722967629567e-09 2.3202678871974734e-09 -3.5521333056592423e-16
105 -1.571262451390205e-09 -3.080808899967921e-09 1.9347600000341146e-09
108 -7.125161895140008e-09 -3.5413759626869947e-09 -3.3570556722198825e-16
121 -3.0808083136656446e-09 -1.5712621884584625e-09 1.934756638601041e-09
123 -3.541374451897342e-09 -7.125161044551837e-09 3.4195283292148685e-15
125 -7.245110644467213e-09 -7.2451103045239865e-09 4.617062309193756e-09
151 -1.1699227772573946e-09 -1.1699129608890025e-09 -5.266415087505343e-09
152 1.1699183898927441e-09 1.1699189014119405e-09 -5.266415479620059e-09
153 -1.5712628881597211e-09 -3.0808088973879414e-09 -1.9347617295943346e-09
161 -3.0808065887509115e-09 -1.5712615596348638e-09 -1.934759446106402e-09
163 -7.245110705472627e-09 -7.2451109442018985e-09 -4.61706646440946e-09
106 -5.200500179019005e-12 -5.927237752981677e-09 4.5432895219797185e-09
107 -5.116805244598937e-09 -3.5545740484562627e-09 -1.7094641533485102e-15
109 -7.545788484400562e-09 -8.94773902577431e-10 -2.1930901366278664e-09
112 -1.0251699823202702e-08 2.1005987919814245e-09 -2.5152943948181663e-15
127 1.1610644993486512e-09 -2.3790333692777213e-09 3.685848089377838e-15
129 -4.858261680291453e-09 1.394020030273596e-09 1.636652349524168e-10
154 -5.200880177557062e-12 -5.927235669703496e-09 -4.5432906712478485e-09
155 -7.545789844182843e-09 -8.947758562507491e-10 2.1930961293527636e-09
165 -4.858262133777858e-09 1.39402168299812e-09 -1.636658790988562e-10
110 -2.0620049020637544e-09 3.439094871514681e-10 -1.376383057768581e-09
111 1.8594152560219842e-10 -1.4081103800422544e-10 -1.9044714716490598e-15
131 -3.4858969351159982e-09 7.257214506755048e-09 -1.0036050464418806e-15
156 -2.061999912667331e-09 3.439065398408604e-10 1.3763846985301559e-09
113 2.0620035405657847e-09 -3.439042981567338e-10 -1.3763836109893425e-09
114 7.54578712189943e-09 8.947725681273513e-10 -2.1930913384729697e-09
115 1.0251699174831494e-08 -2.100597534334227e-09 2.848906914741568e-15
116 -1.8594105293226266e-10 1.4080838830478662e-10 -4.602172711892971e-16
133 3.8745195595399954e-09 1.0165106431649763e-08 -5.980861702343709e-09
135 5.328810283490026e-09 1.105137600248157e-08 4.710948473754026e-15
157 2.0620046546435318e-09 -3.439028101008895e-10 1.3763834630837916e-09
158 7.54578789707227e-09 8.947741329860779e-10 2.193088858279892e-09
167 3.874521625984443e-09 1.0165107824067642e-08 5.980859773949269e-09
117 5.200336359980523e-12 5.92723591631275e-09 4.543287574231623e-09
118 1.5712655281837968e-09 3.080806909612953e-09 1.9347590812927113e-09
119 7.12516406956536e-09 3.5413784987492135e-09 2.6995013077974545e-15
120 5.1168040276519e-09 3.5545742116623878e-09 2.1393802873864912e-15
137 1.0104474958151332e-09 -3.1364336104558173e-09 -1.7105076930108195e-09
139 3.966057466745057e-09 -3.966063076955599e-09 -2.31368682882129e-15
159 5.200595569708233e-12 5.9272341729473245e-09 -4.543290465440125e-09
160 1.5712655353840672e-09 3.080802348691789e-09 -1.934760867559747e-09
169 1.0104409327688331e-09 -3.1364305031126275e-09 1.7105079900219658e-09
122 -5.927237248962762e-09 -5.2009541971317686e-12 4.543289525729859e-09
124 -3.5545662961653323e-09 -5.116801852673988e-09 2.6011444916296147e-16
128 -2.3790330488656967e-09 1.1610639155619756e-09 5.471033443792175e-16
141 -8.947728369374393e-10 -7.545786999344832e-09 -2.1930895198047182e-09
142 2.100595350252262e-09 -1.0251698450004293e-08 -1.5033564184677756e-15
143 1.394020077197232e-09 -4.858261061439104e-09 1.6366499351425448e-10
162 -5.927238818621669e-09 -5.201526345263693e-12 -4.543294110576921e-09
171 -8.947753762327348e-10 -7.545789773548942e-09 2.193090742050587e-09
172 1.3940220098135098e-09 -4.858261343771466e-09 -1.6366447986568123e-10
351 3.439047637742076e-10 -2.0620070443972777e-09 -1.3763814062066006e-09
352 -1.4080827310046319e-10 1.8593883717552499e-10 -2.082078136932022e-15
354 7.257215155960661e-09 -3.4858967476622837e-09 -5.064143173876605e-16
401 3.4390820070318986e-10 -2.0620003502460575e-09 1.3763844432205747e-09
126 -1.4989666013939867e-09 -1.498968269794099e-09 -3.056017839270343e-10
132 4.272327945803461e-09 3.999892957285563e-09 -1.2904902268283914e-15
144 3.999891910595502e-09 4.2723256983827665e-09 2.3400878196065953e-17
145 7.437307402740545e-09 7.437303122525236e-09 2.693999458322188e-10
164 -1.4989688480671373e-09 -1.4989666662104818e-09 3.0559937603667017e-10
173 7.437305192854398e-09 7.437304752486406e-09 -2.6939718392856913e-10
130 -2.044801171589468e-09 6.074163076844889e-09 1.9509274230637058e-10
146 4.319786869921653e-09 7.061329398656256e-09 -1.993274804290541e-15
166 -2.044800020232392e-09 6.074161833603664e-09 -1.9509347879650984e-10
353 6.074160525738994e-09 -2.044799209815846e-09 1.9509095453927866e-10
356 7.06133128397143e-09 4.3197897329290965e-09 -8.640324257008967e-16
402 6.074160916163803e-09 -2.0447986807459905e-09 -1.9509141625660615e-10
355 2.5663631426433948e-09 2.5663646548501454e-09 -1.1062289070323056e-09
403 2.566363187345072e-09 2.5663647422284244e-09 1.1062312246192808e-09
134 1.3937291009625337e-09 4.4926438977804915e-09 -9.65232020768254e-09
136 1.2440631856236977e-09 5.391971154864214e-09 3.331325019091235e-15
147 1.5296938366356685e-09 9.364098300245883e-09 8.638849314656832e-10
148 -5.2044248809409195e-09 5.204423851377282e-09 2.9041089863835697e-15
168 1.393730613593519e-09 4.49263890580819e-09 9.652315138368269e-09
174 1.5296942073812197e-09 9.364097229730707e-09 -8.638870276443494e-10
357 -9.36409913577724e-09 -1.5296901075773607e-09 8.638877686721589e-10
358 3.208861323232267e-09 -3.2088572742803165e-09 -2.1408803436811107e-15
404 -9.364095677397451e-09 -1.5296916419849446e-09 -8.638880458825622e-10
138 3.136432593102403e-09 -1.0104458787544476e-09 -1.7105117170618354e-09
140 -5.195558171863065e-09 5.195555963780199e-09 3.617835771363581e-15
149 -4.492639188681892e-09 -1.3937279866949358e-09 -9.652320022728096e-09
150 -1.105137614697918e-08 -5.3288046845832285e-09 -3.432128802089673e-16
170 3.136431513061871e-09 -1.0104425138281676e-09 1.7105131547157882e-09
175 -4.492639585296776e-09 -1.3937308896038772e-09 9.652317061316961e-09
359 -1.0165110683409324e-08 -3.874523582230502e-09 -5.980858082463525e-09
360 -5.391971364523743e-09 -1.244065583313679e-09 -1.993724821178927e-15
405 -1.0165108781337942e-08 -3.874524159452165e-09 5.980860329547854e-09
176 -1.173827075779229e-10 1.1738143193004997e-10 1.8383877536319552e-08
177 1.1738064110037143e-10 -1.173829325863671e-10 1.838387699314917e-08
179 -6.091377329192169e-09 -1.6815411698499906e-09 7.125694639097652e-09
186 -1.6815427007027985e-09 -6.091378264702277e-09 7.125691693666216e-09
201 2.3479640223873954e-09 2.347962255921103e-09 -3.180963299065787e-09
202 -2.3479605614575123e-09 -2.3479637955788836e-09 -3.1809649251268106e-09
203 -2.8605896219741533e-09 2.860588065515742e-09 9.415143392483356e-09
204 2.8605873970906572e-09 -2.8605886067360534e-09 9.415148882089372e-09
205 5.906698638082832e-10 3.4336634215440863e-09 1.3678685396012248e-09
208 6.415862734099489e-09 -5.544177227729476e-09 4.517289656111637e-09
221 3.433660568374316e-09 5.906727269657327e-10 1.3678661275423447e-09
223 -5.5441768781436995e-09 6.415861535020115e-09 4.517290285196573e-09
225 -5.707454918809695e-09 -5.707454643184312e-09 -7.895881232853872e-10
178 3.456934353700798e-09 -3.0257216007028623e-09 -2.5284766015244745e-09
181 3.368318441425118e-10 -3.732693632188202e-09 -8.21402063151743e-09
188 4.502921814610126e-09 -5.311945189605653e-09 -9.013219116044597e-09
206 -1.9630053574984332e-10 -5.719383630961936e-10 7.618964559077026e-10
207 -1.347595552721362e-09 3.513274076136943e-09 8.192055188615863e-09
209 7.670876351421564e-09 -6.316467958544384e-10 -2.1099710261057943e-09
212 -1.2000241413019879e-09 1.967048506461172e-09 -1.704922515708398e-09
227 -2.386242099537658e-10 -6.339225710995634e-09 1.3606484210025254e-09
229 5.833187917075828e-10 -4.406749356166728e-09 -5.56811103351117e-09
180 3.1180894649340396e-10 -1.3869072979258226e-09 -3.1134354580581468e-09
190 2.036156390716241e-10 1.7461614709128468e-09 -1.0882559508663899e-08
210 1.53683251478263e-09 -3.044878570032082e-09 -6.632679711145908e-09
211 2.1317847542568233e-09 -2.2838893817726263e-09 -4.359142435370615e-09
231 -1.8549391117563234e-09 -3.5784835884196846e-09 -2.59323918792194e-09
182 -3.3683114314423187e-10 3.732691646016399e-09 -8.214020806657449e-09
183 -3.118123483445073e-10 1.386909059591935e-09 -3.113435854223014e-09
192 -4.799820648079563e-09 -4.143657306387489e-09 -5.685656526656759e-09
213 -1.5368309018075468e-09 3.0448815221428698e-09 -6.632679274629526e-09
214 -7.670875065674092e-09 6.316486275853721e-10 -2.109971119983536e-09
215 1.2000279746741682e-09 -1.967054940009839e-09 -1.704923937516301e-09
216 -2.131786428682064e-09 2.2838921058748575e-09 -4.359143109495913e-09
233 -4.636490089501212e-09 -7.592917577939613e-09 1.7224719492120089e-09
235 -8.891143466996891e-09 -8.412530950617276e-10 4.4304718650189954e-10
184 6.0913774072701e-09 1.6815458472208822e-09 7.125685564736207e-09
185 -3.456930885870656e-09 3.0257190167058892e-09 -2.528470049822387e-09
194 -1.169058942239102e-09 1.169061667239023e-09 5.936801816705093e-09
217 1.962954997438582e-10 5.719377762741711e-10 7.61896625714075e-10
218 -5.906717045273623e-10 -3.4336598237463712e-09 1.3678651945073295e-09
219 -6.415859377339141e-09 5.544177122952887e-09 4.51729218366782e-09
220 1.347595479818626e-09 -3.5132697856759294e-09 8.192055603831445e-09
237 -2.8266419295736796e-09 3.7108611986284515e-09 3.991118046226954e-09
239 -2.3121592144674623e-09 2.3121615641228286e-09 1.2007635357198018e-08
187 -3.0257208998765615e-09 3.4569305399576743e-09 -2.5284747870563807e-09
189 -5.311943529474601e-09 4.502921814427352e-09 -9.013218906867605e-09
196 -3.732692369740824e-09 3.3683317048906477e-10 -8.214019720458238e-09
222 -5.719375758666502e-10 -1.9630114179016512e-10 7.618963200026023e-10
224 3.5132694391629253e-09 -1.347595376989767e-09 8.192051442075261e-09
228 -6.3392261388773166e-09 -2.386244428181689e-10 1.3606478159483733e-09
241 -6.316465990470525e-10 7.670873946100045e-09 -2.109969257839434e-09
242 1.967051228163313e-09 -1.2000243976211774e-09 -1.7049231190310398e-09
243 -4.406749573281126e-09 5.833186977304568e-10 -5.568106487623603e-09
426 -1.3869065634982607e-09 3.118110521505508e-10 -3.1134336363897824e-09
427 1.7461609758098915e-09 2.036169066953037e-10 -1.0882562601354571e-08
451 -3.044878301221994e-09 1.5368329686870666e-09 -6.632683094372875e-09
452 -2.2838920155714685e-09 2.1317904873539105e-09 -4.359141084119904e-09
454 -3.578481230945275e-09 -1.8549393955527236e-09 -2.5932407196575484e-09
191 -1.0007706902607038e-09 -3.983098249207301e-09 -1.249885429962851e-08
197 -3.983097489728799e-09 -1.0007709713712535e-09 -1.249885495725319e-08
226 2.589925359668206e-09 2.589925120287599e-09 -4.729004684399383e-09
232 -1.3682919413487964e-09 1.1563968906574463e-09 -3.836630361885922e-09
244 1.1563965424875136e-09 -1.3682905744711326e-09 -3.836630757375765e-09
245 -1.617155991399755e-09 -1.617156911811152e-09 2.7882637189032186e-10
198 -3.6668610576010927e-09 5.109218820590709e-09 -3.2204823625505583e-09
230 -1.2278788501651271e-09 2.2535807324284526e-10 -1.7860783415506826e-09
246 -4.04226322263683e-09 -7.819026658775119e-09 -1.013962694434695e-09
428 5.1092189153230675e-09 -3.666860554244898e-09 -3.2204866831908294e-09
453 2.2535530269629314e-10 -1.2278788298517242e-09 -1.7860761684701071e-09
456 -7.819025672597973e-09 -4.0422629761361696e-09 -1.013962343121511e-09
455 -4.930079576456086e-09 -4.9300793488840695e-09 2.1032869432632744e-09
193 1.6230940917236463e-09 3.874016384396211e-09 -5.220165721743513e-09
199 -6.470608175403265e-10 6.470603780005586e-10 3.181743310638325e-09
234 -5.973724061405884e-09 4.136362409407091e-09 1.1336489717051389e-08
236 -6.228800171034655e-09 4.895184145415424e-10 5.7981487684147604e-09
247 -7.962509096102395e-10 -1.6888693167585222e-09 6.823965168071187e-10
248 -3.0802598644959906e-09 3.0802584786812513e-09 4.923845286830082e-09
429 -1.6821796667570759e-09 1.6821764690870727e-09 1.899236858402725e-09
457 1.6888706003871633e-09 7.962490704965296e-10 6.823959824021023e-10
458 7.16708790704159e-10 -7.16708177691725e-10 -6.653323903188125e-10
195 -1.1004184341749163e-09 1.100420133438687e-09 8.829211140119757e-10
200 4.143657225468828e-09 4.799818368655978e-09 -5.685661232766379e-09
238 -3.710863252930351e-09 2.8266414927572865e-09 3.991120383314661e-09
240 -5.103834709033951e-09 5.103837775449028e-09 -5.560067419089291e-10
249 -4.136362823872059e-09 5.973722490476617e-09 1.133649051484754e-08
250 8.412499973142242e-10 8.891140776286074e-09 4.430439487030466e-10
430 -3.874018428072907e-09 -1.6230926819707406e-09 -5.22016658817603e-09
459 7.59291857761463e-09 4.6364935300962365e-09 1.7224728863446388e-09
460 -4.895187219240436e-10 6.228799770280552e-09 5.798147148025825e-09
251 2.1879545870992278e-09 3.656751539807692e-09 1.0815405884207406e-16
262 -9.160656464211901e-10 -8.14490408711339e-09 -9.660362537350305e-16
263 2.283889360171816e-09 -2.131790756764021e-09 4.359143409807184e-09
264 -1.9670533042412246e-09 1.2000240013063043e-09 1.7049257966315257e-09
265 -4.741063989851792e-09 -6.83122552572042e-09 -1.1044100013592988e-15
268 -8.412528036195402e-10 -8.891135025370251e-09 -4.430468478618472e-10
311 3.044881764551967e-09 -1.536834254235311e-09 6.632682052733784e-09
312 6.316499495727922e-10 -7.6708745870741e-09 2.1099681161465884e-09
313 1.3869078355459984e-09 -3.118111061525774e-10 3.1134332157739975e-09
314 3.732690843283539e-09 -3.3683373361019777e-10 8.214022794223592e-09
315 -7.59291787948843e-09 -4.636489577946552e-09 -1.7224684950798421e-09
318 -4.143657423166872e-09 -4.799821680133963e-09 5.685659236022109e-09
266 5.160865578315501e-09 -1.0501893185158594e-08 -3.90333984523196e-16
267 4.895184545765104e-10 -6.228800574550069e-09 -5.7981463703521085e-09
269 -9.941091389237539e-09 -9.624314240517638e-10 -6.720252199895863e-17
272 3.0802608575132986e-09 -3.080260841869938e-09 -4.923843099447993e-09
316 4.136361677979056e-09 -5.973723935930863e-09 -1.1336490320365242e-08
317 3.874017567225757e-09 1.6230937872122185e-09 5.22016795862746e-09
319 -1.6888673150892622e-09 -7.962492955126777e-10 -6.823953971651003e-10
322 6.470601562802261e-10 -6.470603807006599e-10 -3.181744163870345e-09
270 9.624312579287325e-10 9.94109153024283e-09 3.80484591454344e-16
271 -7.167098846245333e-10 7.16712717837109e-10 6.653317191936262e-10
320 7.962484367692689e-10 1.6888698492785067e-09 -6.823968892710966e-10
321 1.6821771241546251e-09 -1.6821783069560448e-09 -1.8992370285091086e-09
273 9.194922228914724e-10 9.194902989427073e-10 -6.192232384189761e-16
274 1.1185631224827242e-08 1.1185630324601602e-08 -4.812913628461814e-15
275 7.819028546462367e-09 4.042256572423974e-09 1.013964077015961e-09
276 4.042260890109032e-09 7.819028353538722e-09 1.0139614550881845e-09
323 4.9300835883595764e-09 4.930076451975353e-09 -2.1032838183460013e-09
324 1.6171603415808812e-09 1.6171558683719934e-09 -2.788259028227185e-10
325 -5.1092195111509994e-09 3.6668592409924887e-09 3.22048397298287e-09
326 3.666859163205634e-09 -5.109218558080858e-09 3.220486105191013e-09
261 -2.1879556455389494e-09 -3.65675348868083e-09 -1.9998750519868674e-15
277 5.909273821025167e-09 4.645048888164605e-09 -3.3961274510188026e-16
278 4.984897739727169e-09 2.1518670592942876e-09 -1.2720477378374314e-15
279 3.5784829609180106e-09 1.8549388087705464e-09 2.5932402304458297e-09
280 -1.1563932277158866e-09 1.3682910589893158e-09 3.836631468102437e-09
327 -2.2535910792776902e-10 1.2278826516951517e-09 1.786075167332536e-09
328 4.40674964399003e-09 -5.833165707514161e-10 5.568107612374382e-09
329 -1.7461623033690876e-09 -2.0361654459050357e-10 1.0882561261237092e-08
330 3.9830971114146015e-09 1.0007706866605687e-09 1.2498853295715836e-08
281 -1.0599871603564075e-09 -1.2045549009434372e-09 -2.422740921440136e-15
282 2.367038354215367e-09 -6.135723937521675e-09 -2.4009901051681516e-15
283 -3.5132661798406082e-09 1.347591872408246e-09 -8.19205002122194e-09
284 5.544174463653088e-09 -6.415859910159136e-09 -4.517289117552754e-09
288 2.3121663522697075e-09 -2.312165513122395e-09 -1.2007634910950606e-08
331 5.719374606623268e-10 1.9630223349656474e-10 -7.618955534738357e-10
332 -3.4336618260215135e-09 -5.906773192380731e-10 -1.3678631745315232e-09
333 3.0257191454107196e-09 -3.4569265120065122e-09 2.5284726414555474e-09
334 1.6815412534484855e-09 6.091374102346071e-09 -7.125690996140039e-09
335 3.710861739307922e-09 -2.826642310542548e-09 -3.991121786986479e-09
338 1.1690583379320484e-09 -1.1690594954745126e-09 -5.936798221114102e-09
341 -1.6230937626331333e-09 -3.874017947501747e-09 5.220166828775684e-09
340 4.6364890253272766e-09 7.592919217962294e-09 -1.7224673204748236e-09
291 6.2288010450937885e-09 -4.895186735378527e-10 -5.798145870969504e-09
286 -8.691494051326303e-10 6.855336949402e-11 -8.064302639875037e-16
287 5.103829334891106e-09 -5.103834927489024e-09 5.560062941397813e-10
289 1.0501896602955138e-08 -5.160864005061147e-09 -3.4262797544596368e-15
292 8.891141863826888e-09 8.412553947417808e-10 -4.430438187981715e-10
336 2.826643181363782e-09 -3.7108621762930715e-09 -3.991119073202995e-09
337 1.100419509528805e-09 -1.1004202283453737e-09 -8.829212996738261e-10
339 5.9737249958395845e-09 -4.136362976118398e-09 -1.1336489964810882e-08
342 4.79982245495933e-09 4.1436616551350655e-09 5.685655467600022e-09
290 6.831224944576345e-09 4.74105951128372e-09 -2.4288911522480766e-15
346 -2.0362249141367795e-10 -1.7461605129018942e-09 1.088256021479782e-08
345 1.000772994858129e-09 3.9830967484964895e-09 1.249885526285626e-08
344 -5.833136747928692e-10 4.406749070984932e-09 5.568105199936972e-09
343 1.2278781319645962e-09 -2.2535886633432742e-10 1.7860768762148317e-09
296 1.8549403461272644e-09 3.578482329544316e-09 2.593239259159379e-09
295 1.368291714738925e-09 -1.1563928725845905e-09 3.8366311251818236e-09
294 2.1518666755939505e-09 4.984897250009774e-09 -1.626144229615252e-15
293 4.64504985710869e-09 5.909279745469377e-09 -1.2574925041037004e-15
13 -3.6567522683393297e-09 -2.1879556047374183e-09 -1.629661158474747e-15
350 -4.502923620839538e-09 5.311943959428236e-09 9.013221227712516e-09
349 5.31194618851189e-09 -4.502921695967301e-09 9.013220447983254e-09
348 5.707457730402709e-09 5.707452446229403e-09 7.895890910162724e-10
347 -2.5899286750436594e-09 -2.5899246612680288e-09 4.7290066228588485e-09
300 2.3861899497429166e-10 6.339227759781897e-09 -1.3606474180361747e-09
299 6.339225185385284e-09 2.38622031088232e-10 -1.3606483584964685e-09
298 -7.291567792420513e-09 -7.291569097469489e-09 -1.6728627797597919e-15
297 1.1208295438699394e-09 1.1208286952880936e-09 -9.930372670381834e-16
361 -3.439067870501378e-10 2.062005034021832e-09 -1.3763842206122205e-09
362 8.947774163092954e-10 7.545786776436465e-09 -2.193093890668749e-09
363 1.408105525860085e-10 -1.8594205299620941e-10 3.657437257541539e-15
364 -2.1006016888901406e-09 1.02516988898208e-08 4.336962759004224e-15
365 1.0165110391029601e-08 3.8745266685043335e-09 -5.9808581142172555e-09
368 1.1051376356368287e-08 5.328803751961315e-09 -2.3549470026283176e-15
406 -3.439031461134995e-10 2.062005079623543e-09 1.3763822837395328e-09
407 8.947734081588763e-10 7.545786880840384e-09 2.19308971091189e-09
408 1.0165106790969497e-08 3.874521395591411e-09 5.980861086562982e-09
366 4.492637183959783e-09 1.3937296499573553e-09 -9.652318454569247e-09
367 5.391970107439066e-09 1.2440637052431981e-09 -7.50928181086578e-16
369 9.364098629965288e-09 1.529689541906132e-09 8.638859122024887e-10
372 5.204423237208823e-09 -5.204423118149765e-09 -2.897335294678178e-16
409 4.4926405140433005e-09 1.3937295635541128e-09 9.652318139257414e-09
410 9.364095883249708e-09 1.5296899859227952e-09 -8.638853697821326e-10
370 -1.529689797365719e-09 -9.364097593419356e-09 8.638877749723953e-10
371 -3.208857919451599e-09 3.2088586807330983e-09 -1.3995525228800984e-15
411 -1.5296909715476747e-09 -9.36409803983611e-09 -8.638863004170577e-10
373 -2.5663646904014794e-09 -2.566364320187586e-09 -1.1062288653307405e-09
374 -7.437305521715274e-09 -7.4373007623366624e-09 2.693982275177333e-10
375 -7.061333480009422e-09 -4.3197902705492725e-09 1.6176607081177901e-15
376 -4.319789998680403e-09 -7.061333857723597e-09 -2.6811144849580526e-15
412 -2.5663648263417375e-09 -2.566363420153809e-09 1.1062281651044622e-09
413 -7.437304465164686e-09 -7.437307080365211e-09 -2.693975822480096e-10
377 -6.074161752595192e-09 2.0447978942664753e-09 1.9509136945484974e-10
378 -1.3940188128091566e-09 4.8582597422635986e-09 1.636647238650725e-10
379 -7.257214854411845e-09 3.4859010176715537e-09 -2.5536958359604283e-15
380 -3.9998911062618005e-09 -4.272328791798857e-09 2.197582471617732e-15
414 -6.0741644067948e-09 2.0448022816311258e-09 -1.950890557680209e-10
415 -1.3940188848118588e-09 4.858265313322672e-09 -1.636681397932666e-10
381 5.9272341000445884e-09 5.204593369739024e-12 4.543289331097555e-09
382 3.080809507260438e-09 1.5712636120118862e-09 1.934756484395254e-09
383 3.5545714467586255e-09 5.116805320566058e-09 4.477518033810081e-15
384 3.5413744986990984e-09 7.125157676925455e-09 -1.4040526917639572e-15
385 -3.1364313871133943e-09 1.0104424903641431e-09 -1.7105117401486394e-09
388 -3.9660614238654365e-09 3.966064055345051e-09 -6.313969869059491e-16
416 5.927234959276834e-09 5.1996315585304966e-12 -4.54329301643586e-09
417 3.080810745706915e-09 1.5712586141243238e-09 -1.934760289738062e-09
418 -3.1364346887279237e-09 1.010446054471991e-09 1.7105111677951285e-09
421 -3.874520869228688e-09 -1.0165111479339193e-08 5.9808614965916515e-09
391 -1.244063963552306e-09 -5.391971564931263e-09 -1.089637376654746e-15
390 -3.874522247330406e-09 -1.016510486799108e-08 -5.980861089476373e-09
386 -1.010445191147393e-09 3.1364333674314624e-09 -1.7105082069301061e-09
387 5.195560739846587e-09 -5.195558053902388e-09 -1.3257497531848134e-15
389 -1.393729382480158e-09 -4.492640298573544e-09 -9.652317631503006e-09
392 -5.328808106345236e-09 -1.1051376372587646e-08 -1.1112417030542089e-15
419 -1.010445215129543e-09 3.136436747283303e-09 1.7105113522481445e-09
420 -1.393728145046027e-09 -4.492640532919839e-09 9.652317252937433e-09
423 4.858266513667718e-09 -1.3940193816305035e-09 -1.6366551889490864e-10
422 2.0447976774428826e-09 -6.07415766830754e-09 -1.950865460642656e-10
396 3.4858956174688927e-09 -7.257215408832651e-09 -1.4496544031203935e-15
395 -4.272323618873476e-09 -3.999890534288578e-09 -4.0513860261590746e-15
394 4.858266736426078e-09 -1.3940240181545045e-09 1.636674641679115e-10
393 2.0447998725874435e-09 -6.074164242041742e-09 1.95093900335767e-10
425 7.245109075502082e-09 7.245110565357994e-09 -4.6170659560116695e-09
424 1.4989675626113097e-09 1.498969402880372e-09 3.0560232394730036e-10
400 -1.1610672423238867e-09 2.3790332774649006e-09 2.200338825059096e-15
399 2.3790385501627764e-09 -1.1610648968358644e-09 3.9583485502422335e-15
398 7.245112762040432e-09 7.245110525156485e-09 4.6170630126012086e-09
397 1.4989615286348645e-09 1.498969250249644e-09 -3.0560314357805973e-10
431 1.3869099524254415e-09 -3.1181315732955466e-10 -3.1134363985934435e-09
432 3.732690380066155e-09 -3.3683264396930536e-10 -8.214022745021744e-09
434 -4.143656815878457e-09 -4.799821163992718e-09 -5.685661172700258e-09
461 3.0448784932292e-09 -1.5368347540540685e-09 -6.632677734971746e-09
462 6.316488359309991e-10 -7.670874008052371e-09 -2.1099650264806384e-09
463 2.2838921106750374e-09 -2.131784726837728e-09 -4.359142233463037e-09
464 -1.9670539183642717e-09 1.2000236820943248e-09 -1.7049236653515423e-09
465 -7.59291774985544e-09 -4.636494390793967e-09 1.72247478078507e-09
468 -8.412541379571158e-10 -8.89114396928012e-09 4.430420096558633e-10
433 3.874016665520823e-09 1.6230931151869986e-09 -5.220171016342211e-09
436 6.470603151481998e-10 -6.470616911498389e-10 3.181741796856515e-09
466 4.136362388568907e-09 -5.973719183752521e-09 1.133649539303061e-08
467 4.895161879164465e-10 -6.228800744539547e-09 5.798143861102472e-09
469 -1.6888650246046714e-09 -7.962505555599652e-10 6.823988370941951e-10
472 3.0802585959795013e-09 -3.080259790630487e-09 4.923844779061026e-09
435 1.6821775283119798e-09 -1.6821786261680244e-09 1.8992376120310072e-09
470 7.962515945084034e-10 1.6888664699516862e-09 6.823982913737152e-10
471 -7.167117769994572e-10 7.167076152456172e-10 -6.653359337517916e-10
437 -5.10921397705894e-09 3.6668645526256145e-09 -3.220483161568976e-09
438 3.6668645188309868e-09 -5.109219287708239e-09 -3.220482301798278e-09
473 4.93007841946794e-09 4.930083371435029e-09 2.1032862124358475e-09
474 1.6171545279123132e-09 1.6171548569338345e-09 2.788230014073879e-10
475 7.81902514795592e-09 4.042262412393334e-09 -1.013958504010417e-09
476 4.0422639358661804e-09 7.819027369501792e-09 -1.0139638828542944e-09
439 -1.7461670147458976e-09 -2.036167845995107e-10 -1.0882559139557468e-08
440 3.983097418026108e-09 1.0007681206642713e-09 -1.2498851547625232e-08
477 -2.2535882554217155e-10 1.2278781470260989e-09 -1.7860826319126693e-09
478 4.40675015640926e-09 -5.833150978461404e-10 -5.568112073991819e-09
479 3.578488855539226e-09 1.8549380383416335e-09 -2.593239862782032e-09
480 -1.156398887128275e-09 1.3682925974470516e-09 -3.836625252469174e-09
441 3.0257200814458473e-09 -3.456926338900016e-09 -2.5284723100134216e-09
442 1.6815451775957523e-09 6.091376238426235e-09 7.125694939488027e-09
444 1.1690600214733538e-09 -1.1690607358312172e-09 5.936799015756619e-09
481 5.719377006713339e-10 1.963020368016831e-10 7.618991776098435e-10
482 -3.433661442007102e-09 -5.906728661709568e-10 1.367868737040275e-09
483 -3.5132702215922883e-09 1.347596925872894e-09 8.192047848240391e-09
484 5.544175946458735e-09 -6.4158609853994885e-09 4.517289993585629e-09
485 3.7108614288806473e-09 -2.8266420200370535e-09 3.991120319258869e-09
488 2.3121600128302364e-09 -2.3121611174013766e-09 1.2007632696380583e-08
285 -6.855150298569179e-11 8.691470849170055e-10 8.033262607806722e-15
491 6.2287969230266565e-09 -4.895177308931018e-10 5.798148086491513e-09
490 4.636491969500365e-09 7.592918078395895e-09 1.7224711534796073e-09
445 -1.6230911747952e-09 -3.874013611598402e-09 -5.2201717070894225e-09
443 1.1004197585521922e-09 -1.1004192174902503e-09 8.829222995715068e-10
446 4.79981849801512e-09 4.1436612853225545e-09 -5.685656773659192e-09
486 2.8266445835060896e-09 -3.710868408323824e-09 3.991118768054043e-09
487 5.103838767526668e-09 -5.103834935917465e-09 -5.560095041354425e-10
489 5.973718742468846e-09 -4.136359070928092e-09 1.1336495079068425e-08
492 8.891141544818822e-09 8.412486196625233e-10 4.430465819018662e-10
496 1.8549391680045114e-09 3.5784835361145965e-09 -2.593236062539415e-09
495 1.3682920123571253e-09 -1.1563976031832157e-09 -3.83662604561714e-09
494 -5.833135240245775e-10 4.406752030252219e-09 -5.568106129797845e-09
493 1.2278784698982768e-09 -2.2535954806303657e-10 -1.786079470954786e-09
448 -2.0362168003322819e-10 -1.7461684172985331e-09 -1.088256424934923e-08
447 1.0007700004363784e-09 3.983096414290393e-09 -1.2498855741845362e-08
500 2.3861823414573904e-10 6.3392291875354776e-09 1.3606479115546957e-09
499 6.339229507947503e-09 2.3862329113551945e-10 1.3606472692305902e-09
498 5.707457967411603e-09 5.7074509681489325e-09 -7.89587509506921e-10
497 -2.589923674681004e-09 -2.5899249024770813e-09 -4.729006400250495e-09
450 -4.502924112557991e-09 5.311943574813802e-09 -9.013224609498892e-09
449 5.3119430755950674e-09 -4.502923928051067e-09 -9.013219744756864e-09
