#Generated by cif2cell 2.1.0.  :  Failed to get author information, No journal information.

500 atoms
3 atom types

0.0 17.600000 xlo xhi
0.0 17.600000 ylo yhi
0.0 17.600000 zlo zhi
1.077689183249671e-15 1.077689183249671e-15 1.077689183249671e-15 xy xz yz

Atoms

1 1  15.840000000000002   1.760000000000001   7.040000000000001 
2 1  15.840000000000002   1.760000000000001  10.560000000000000 
3 1   0.000000000000000   0.000000000000000   3.520000000000000 
4 1  14.080000000000004  15.840000000000002   8.800000000000001 
5 1   5.280000000000000   1.760000000000000   0.000000000000000 
6 1   0.000000000000001  15.840000000000002   5.280000000000000 
7 1   5.280000000000000   0.000000000000000   1.760000000000000 
8 1   1.760000000000001  15.840000000000002   3.520000000000000 
9 1   1.760000000000000   0.000000000000000   5.280000000000000 
10 1   0.000000000000002  15.840000000000002   8.800000000000001 
11 1  14.080000000000002   3.520000000000000   3.520000000000000 
12 1   0.000000000000002  15.840000000000003  15.840000000000002 
13 1   0.000000000000000   1.760000000000000   1.760000000000000 
14 1  15.840000000000002   5.280000000000000   0.000000000000000 
15 1   0.000000000000002  14.080000000000002  10.560000000000000 
16 1  14.080000000000002   5.280000000000000   1.760000000000000 
17 1  15.840000000000003  15.840000000000002   7.040000000000001 
18 1   1.760000000000000   0.000000000000000   1.760000000000000 
19 1  15.840000000000002   1.760000000000001  14.080000000000002 
20 1  15.840000000000002  14.080000000000002  12.320000000000000 
21 1   5.280000000000000   0.000000000000000   5.280000000000000 
22 1   3.520000000000000   0.000000000000000   0.000000000000000 
23 1   1.760000000000002  15.840000000000002  10.560000000000000 
24 1   1.760000000000000   1.760000000000000   3.520000000000000 
25 1  15.840000000000002   7.040000000000002   8.800000000000001 
26 1   0.000000000000001   5.280000000000001  15.840000000000002 
27 1   0.000000000000001   7.040000000000001   3.520000000000000 
28 1   1.760000000000001   7.040000000000001   5.280000000000000 
29 1   1.760000000000001   8.800000000000001   7.040000000000001 
30 1   0.000000000000001   7.040000000000002  10.560000000000000 
31 1  15.840000000000002  10.560000000000000   8.800000000000001 
32 1   0.000000000000001   8.800000000000001  12.320000000000000 
33 1   1.760000000000001   5.280000000000000   7.040000000000001 
34 1  14.080000000000002  10.560000000000000  10.560000000000000 
35 1   1.760000000000001   3.520000000000001   8.800000000000001 
36 1   0.000000000000001   7.040000000000002  14.080000000000002 
37 1   0.000000000000001   5.280000000000001   8.800000000000001 
38 1  15.840000000000002   7.040000000000002  12.320000000000000 
39 1  14.080000000000002   7.040000000000002  10.560000000000000 
40 1  14.080000000000002  10.560000000000000  14.080000000000002 
41 1  14.080000000000002   5.280000000000001   8.800000000000001 
42 1  14.080000000000002   8.800000000000001   8.800000000000001 
43 1   1.760000000000001  10.560000000000000   1.760000000000000 
44 1  14.080000000000004  12.320000000000002  15.840000000000002 
45 1  15.840000000000002   7.040000000000001   1.760000000000000 
46 1   1.760000000000001  10.560000000000000   8.800000000000001 
47 1   1.760000000000001  12.320000000000000   7.040000000000001 
48 1   1.760000000000000   5.280000000000000   0.000000000000000 
49 1   0.000000000000002  12.320000000000000  12.320000000000000 
50 1  15.840000000000002  14.080000000000002   1.760000000000000 
51 1   0.000000000000001   0.000000000000001  14.080000000000002 
52 1   1.760000000000001  14.080000000000002   1.760000000000000 
53 1  15.840000000000002  14.080000000000002   5.280000000000000 
54 1  15.840000000000002   5.280000000000000   7.040000000000001 
55 1   1.760000000000001   0.000000000000001  12.320000000000000 
56 1   3.520000000000002  14.080000000000002  10.560000000000000 
57 1   7.040000000000003  15.840000000000003  15.840000000000002 
58 1   7.040000000000002   1.760000000000001  15.840000000000002 
59 1   8.800000000000001   1.760000000000001  10.560000000000000 
60 1  12.320000000000000   1.760000000000000   0.000000000000000 
61 1   7.040000000000001   0.000000000000000   7.040000000000001 
62 1   8.800000000000001   1.760000000000000   0.000000000000000 
63 1  10.560000000000000   1.760000000000001   8.800000000000001 
64 1   5.280000000000002  14.080000000000002  12.320000000000000 
65 1  12.320000000000000   1.760000000000001  10.560000000000000 
66 1  10.560000000000000   0.000000000000001  14.080000000000002 
67 1  10.560000000000002   1.760000000000001  15.840000000000002 
68 1   7.040000000000003  15.840000000000002  12.320000000000000 
69 1  10.560000000000000   3.520000000000000   0.000000000000000 
70 1  10.560000000000000   5.280000000000000   1.760000000000000 
71 1  12.320000000000000   5.280000000000000   0.000000000000000 
72 1  10.560000000000000   3.520000000000000   3.520000000000000 
73 1   5.280000000000001  15.840000000000002   3.520000000000000 
74 1  12.320000000000000   3.520000000000001   5.280000000000000 
75 1  10.560000000000000   3.520000000000001   7.040000000000001 
76 1  10.560000000000000   3.520000000000001  10.560000000000000 
77 1  12.320000000000000   5.280000000000001  10.560000000000000 
78 1   3.520000000000002  10.560000000000000  14.080000000000002 
79 1  12.320000000000000   5.280000000000001  14.080000000000002 
80 1   7.040000000000003   8.800000000000001   8.800000000000001 
81 1   7.040000000000002  12.320000000000000   1.760000000000000 
82 1   8.800000000000001  10.560000000000000   1.760000000000000 
83 1   8.800000000000001   8.800000000000001  10.560000000000000 
84 1   8.800000000000001  10.560000000000000   5.280000000000000 
85 1   7.040000000000003   8.800000000000001  12.320000000000000 
86 1   7.040000000000003  12.320000000000000   8.800000000000001 
87 1   8.800000000000001  10.560000000000000   8.800000000000001 
88 1   8.800000000000001  12.320000000000000   7.040000000000001 
89 1   7.040000000000003  10.560000000000000  10.560000000000000 
90 1   8.800000000000001   8.800000000000001   7.040000000000001 
91 1   0.000000000000000   0.000000000000000   0.000000000000000 
92 1   3.520000000000002  12.320000000000000  12.320000000000000 
93 1   8.800000000000001  12.320000000000000  14.080000000000002 
94 1   7.040000000000001   7.040000000000001   3.520000000000000 
95 1   8.800000000000001   7.040000000000001   1.760000000000000 
96 1   7.040000000000002   5.280000000000001  15.840000000000002 
97 1   7.040000000000002  14.080000000000002   3.520000000000000 
98 1   8.800000000000001   5.280000000000000   7.040000000000001 
99 1   7.040000000000001   3.520000000000001   7.040000000000001 
100 1   8.800000000000001   5.280000000000000   3.520000000000000 
101 1   8.800000000000001  14.080000000000002   8.800000000000001 
102 1   7.040000000000001   5.280000000000000   5.280000000000000 
103 1   5.280000000000001   3.520000000000001   8.800000000000001 
104 1   5.280000000000001   8.800000000000001   3.520000000000000 
105 1  10.560000000000002  12.320000000000002  15.840000000000002 
106 1   5.280000000000001   5.280000000000001  14.080000000000002 
107 1   5.280000000000001   3.520000000000001  15.840000000000002 
108 1   3.520000000000001   3.520000000000001  14.080000000000002 
109 1   5.280000000000001   5.280000000000001  10.560000000000000 
110 1  12.320000000000000  14.080000000000002   1.760000000000000 
111 1   5.280000000000001   3.520000000000001  12.320000000000000 
112 1  10.560000000000000  14.080000000000002   3.520000000000000 
113 1   3.520000000000001   3.520000000000001  10.560000000000000 
114 1   5.280000000000000   5.280000000000000   7.040000000000001 
115 1  12.320000000000000  12.320000000000000   7.040000000000001 
116 1   5.280000000000000   3.520000000000001   5.280000000000000 
117 1   3.520000000000001   5.280000000000000   5.280000000000000 
118 1  12.320000000000002  15.840000000000002  10.560000000000000 
119 1  10.560000000000000  14.080000000000002  14.080000000000002 
120 1  12.320000000000002  14.080000000000004  15.840000000000002 
121 1   3.520000000000001   5.280000000000000   1.760000000000000 
122 1   5.280000000000001   0.000000000000001   8.800000000000001 
123 1   3.520000000000001   0.000000000000000   7.040000000000001 
124 1  14.080000000000002   1.760000000000000   5.280000000000000 
125 1  15.840000000000002   0.000000000000000   5.280000000000000 
126 1   5.280000000000001  12.320000000000000   0.000000000000000 
127 1   3.520000000000001  10.560000000000000  10.560000000000000 
128 1  12.320000000000000   8.800000000000001   0.000000000000000 
129 1  10.560000000000000   7.040000000000001   3.520000000000000 
130 1  10.560000000000000   8.800000000000001   5.280000000000000 
131 1  12.320000000000000   8.800000000000001   3.520000000000000 
132 1  10.560000000000000   7.040000000000001   7.040000000000001 
133 1  10.560000000000000   8.800000000000001   8.800000000000001 
134 1  12.320000000000000   7.040000000000002   8.800000000000001 
135 1   5.280000000000001  12.320000000000000   3.520000000000000 
136 1  10.560000000000000   8.800000000000001  12.320000000000000 
137 1   3.520000000000001  10.560000000000000   3.520000000000000 
138 1   5.280000000000000   1.760000000000000   3.520000000000000 
139 1  10.560000000000000   7.040000000000002  14.080000000000002 
140 1  10.560000000000002   8.800000000000002  15.840000000000002 
141 1   3.520000000000001  10.560000000000000   0.000000000000000 
142 1  10.560000000000000  12.320000000000000   1.760000000000000 
143 1  12.320000000000000  12.320000000000000   0.000000000000000 
144 1  10.560000000000000  10.560000000000000   3.520000000000000 
145 1  10.560000000000000  12.320000000000000   5.280000000000000 
146 1   5.280000000000002   8.800000000000001  10.560000000000000 
147 1   5.280000000000001   7.040000000000002  12.320000000000000 
148 1  10.560000000000000  12.320000000000000   8.800000000000001 
149 2   7.040000000000002  12.320000000000000   5.280000000000000 
150 2   8.800000000000001  14.080000000000002  12.320000000000000 
151 2  14.080000000000002  14.080000000000002   0.000000000000000 
152 2  15.840000000000002  12.320000000000000  14.080000000000002 
153 2   8.800000000000002  15.840000000000002  10.560000000000000 
154 2  14.080000000000002   5.280000000000000   5.280000000000000 
155 2  14.080000000000002  14.080000000000002  14.080000000000002 
156 2   8.800000000000002  14.080000000000004  15.840000000000002 
157 2   7.040000000000003  15.840000000000002   8.800000000000001 
158 2  15.840000000000002  12.320000000000000  10.560000000000000 
159 2  15.840000000000002  10.560000000000000  12.320000000000000 
160 2   7.040000000000002  10.560000000000000   3.520000000000000 
161 2  14.080000000000005  15.840000000000003  15.840000000000002 
162 2  10.560000000000002  15.840000000000002  12.320000000000000 
163 2  15.840000000000002   5.280000000000000   3.520000000000000 
164 2  15.840000000000003  14.080000000000004  15.840000000000002 
165 2   8.800000000000001   7.040000000000002   8.800000000000001 
166 2   8.800000000000001  12.320000000000000  10.560000000000000 
167 2   7.040000000000002  15.840000000000002   1.760000000000000 
168 2  15.840000000000002   0.000000000000001  12.320000000000000 
169 2  15.840000000000002   1.760000000000000   0.000000000000000 
170 2   7.040000000000003  12.320000000000002  15.840000000000002 
171 2  14.080000000000002  14.080000000000002   7.040000000000001 
172 2   7.040000000000003  10.560000000000000  14.080000000000002 
173 2   8.800000000000002  15.840000000000002   0.000000000000000 
174 2  15.840000000000002   0.000000000000000   1.760000000000000 
175 2  10.560000000000000  14.080000000000002   7.040000000000001 
176 2   7.040000000000003  14.080000000000002  10.560000000000000 
177 2   8.800000000000001  10.560000000000000  12.320000000000000 
178 2  14.080000000000002   3.520000000000000   0.000000000000000 
179 2  15.840000000000002   3.520000000000000   1.760000000000000 
180 2  15.840000000000003  15.840000000000002   0.000000000000000 
181 2   7.040000000000003  12.320000000000000  12.320000000000000 
182 2  14.080000000000002   0.000000000000000   0.000000000000000 
183 2  14.080000000000002   1.760000000000001   8.800000000000001 
184 2  14.080000000000004  15.840000000000002   1.760000000000000 
185 2  10.560000000000000   7.040000000000002  10.560000000000000 
186 2  10.560000000000000   5.280000000000001  12.320000000000000 
187 2  10.560000000000000  10.560000000000000  14.080000000000002 
188 2  14.080000000000004   8.800000000000002  15.840000000000002 
189 2  10.560000000000002   5.280000000000001  15.840000000000002 
190 2  15.840000000000002   8.800000000000001  10.560000000000000 
191 2  10.560000000000000   7.040000000000001   0.000000000000000 
192 2  14.080000000000002   8.800000000000001  12.320000000000000 
193 2  15.840000000000002   8.800000000000001   7.040000000000001 
194 2  14.080000000000002   7.040000000000001   7.040000000000001 
195 2  12.320000000000000   7.040000000000001   5.280000000000000 
196 2  12.320000000000000  12.320000000000000  10.560000000000000 
197 2  15.840000000000002   8.800000000000001   3.520000000000000 
198 2  15.840000000000002   5.280000000000001  10.560000000000000 
199 2  12.320000000000000   7.040000000000002  12.320000000000000 
200 2  14.080000000000002   8.800000000000001   5.280000000000000 
201 2  10.560000000000000  12.320000000000000  12.320000000000000 
202 2  12.320000000000002   7.040000000000002  15.840000000000002 
203 2  10.560000000000000  10.560000000000000  10.560000000000000 
204 2  15.840000000000002   8.800000000000001   0.000000000000000 
205 2  14.080000000000002   8.800000000000001   1.760000000000000 
206 2  12.320000000000000  10.560000000000000   5.280000000000000 
207 2  14.080000000000002   7.040000000000001   0.000000000000000 
208 2  10.560000000000000  10.560000000000000   7.040000000000001 
209 2  15.840000000000002   5.280000000000001  14.080000000000002 
210 2  12.320000000000002  15.840000000000002   0.000000000000000 
211 2  12.320000000000000  14.080000000000002   8.800000000000001 
212 2  10.560000000000000   0.000000000000000   3.520000000000000 
213 2  10.560000000000002  15.840000000000002   8.800000000000001 
214 2  10.560000000000000   1.760000000000000   5.280000000000000 
215 2  12.320000000000002  15.840000000000002   3.520000000000000 
216 2  12.320000000000000  14.080000000000002   5.280000000000000 
217 2  12.320000000000000   1.760000000000000   3.520000000000000 
218 2  10.560000000000000   0.000000000000000   7.040000000000001 
219 2  12.320000000000000   0.000000000000001   8.800000000000001 
220 2  12.320000000000000   1.760000000000001   7.040000000000001 
221 2  15.840000000000002  10.560000000000000   5.280000000000000 
222 2  12.320000000000000   0.000000000000000   1.760000000000000 
223 2  10.560000000000000   0.000000000000001  10.560000000000000 
224 2  12.320000000000000   0.000000000000001  12.320000000000000 
225 2  15.840000000000002   3.520000000000001  12.320000000000000 
226 2  12.320000000000000   1.760000000000001  14.080000000000002 
227 2  15.840000000000002  12.320000000000000   0.000000000000000 
228 2  12.320000000000000  12.320000000000000  14.080000000000002 
229 2  10.560000000000000   5.280000000000000   5.280000000000000 
230 2  12.320000000000000   5.280000000000000   3.520000000000000 
231 2  12.320000000000002  10.560000000000002  15.840000000000002 
232 2  12.320000000000000   3.520000000000001   8.800000000000001 
233 2  15.840000000000002  10.560000000000000   1.760000000000000 
234 2   1.760000000000001   8.800000000000001  10.560000000000000 
235 2   3.520000000000001  12.320000000000000   1.760000000000000 
236 2   0.000000000000001  12.320000000000000   8.800000000000001 
237 2   0.000000000000001  10.560000000000000   7.040000000000001 
238 2   3.520000000000002  12.320000000000000   5.280000000000000 
239 2   0.000000000000001  12.320000000000000   5.280000000000000 
240 2   1.760000000000001  12.320000000000000   0.000000000000000 
241 2   0.000000000000001  12.320000000000000   1.760000000000000 
242 2   1.760000000000002   8.800000000000001  14.080000000000002 
243 2   3.520000000000002  12.320000000000000   8.800000000000001 
244 2   1.760000000000002   7.040000000000002  15.840000000000002 
245 2   5.280000000000002  10.560000000000000   8.800000000000001 
246 2   0.000000000000002   8.800000000000002  15.840000000000002 
247 2   5.280000000000002  12.320000000000000  10.560000000000000 
248 2   3.520000000000002  12.320000000000002  15.840000000000002 
249 2   3.520000000000002   8.800000000000002  15.840000000000002 
250 2   5.280000000000002  10.560000000000002  15.840000000000002 
251 2   5.280000000000002  12.320000000000000  14.080000000000002 
252 2   1.760000000000001   7.040000000000002  12.320000000000000 
253 2   3.520000000000001  14.080000000000002   0.000000000000000 
254 2   3.520000000000001  14.080000000000002   3.520000000000000 
255 2   3.520000000000002  15.840000000000002   5.280000000000000 
256 2   5.280000000000001  14.080000000000002   5.280000000000000 
257 2   1.760000000000001   7.040000000000002   8.800000000000001 
258 2   0.000000000000001   8.800000000000001   8.800000000000001 
259 2   3.520000000000002  15.840000000000002   8.800000000000001 
260 2   5.280000000000002  14.080000000000002   8.800000000000001 
261 2   1.760000000000001   8.800000000000001   0.000000000000000 
262 2   0.000000000000001   8.800000000000001   1.760000000000000 
263 2   1.760000000000001  14.080000000000002   5.280000000000000 
264 2   5.280000000000001   0.000000000000001  12.320000000000000 
265 2   5.280000000000001   0.000000000000001  15.840000000000002 
266 2   5.280000000000001   1.760000000000001  14.080000000000002 
267 2   1.760000000000002  15.840000000000002  14.080000000000002 
268 2   5.280000000000000   3.520000000000000   1.760000000000000 
269 2   1.760000000000002  14.080000000000004  15.840000000000002 
270 2   5.280000000000000   5.280000000000000   0.000000000000000 
271 2   3.520000000000000   3.520000000000000   3.520000000000000 
272 2   0.000000000000002  14.080000000000002  14.080000000000002 
273 2   3.520000000000001   3.520000000000001   7.040000000000001 
274 2   3.520000000000001   5.280000000000001   8.800000000000001 
275 2   0.000000000000002  15.840000000000002  12.320000000000000 
276 2   3.520000000000002   5.280000000000001  12.320000000000000 
277 2   8.800000000000002   7.040000000000002  15.840000000000002 
278 2   5.280000000000001   8.800000000000001   0.000000000000000 
279 2   3.520000000000001   8.800000000000001   5.280000000000000 
280 2   5.280000000000000   7.040000000000001   5.280000000000000 
281 2   3.520000000000001   7.040000000000001   7.040000000000001 
282 2   0.000000000000001  14.080000000000002   3.520000000000000 
283 2   5.280000000000001   8.800000000000001   7.040000000000001 
284 2   3.520000000000002   8.800000000000001  12.320000000000000 
285 2   1.760000000000001  15.840000000000002   0.000000000000000 
286 2   0.000000000000001  14.080000000000002   0.000000000000000 
287 2   1.760000000000002  10.560000000000002  15.840000000000002 
288 2   0.000000000000002  12.320000000000002  15.840000000000002 
289 2   3.520000000000002   7.040000000000002  14.080000000000002 
290 2   1.760000000000002  12.320000000000000  10.560000000000000 
291 2   7.040000000000002   3.520000000000001  10.560000000000000 
292 2   0.000000000000001   3.520000000000001   7.040000000000001 
293 2   8.800000000000002   0.000000000000001  15.840000000000002 
294 2   7.040000000000002   7.040000000000002  10.560000000000000 
295 2   7.040000000000001   5.280000000000000   1.760000000000000 
296 2   7.040000000000001   3.520000000000000   3.520000000000000 
297 2   1.760000000000001   5.280000000000000   3.520000000000000 
298 2   8.800000000000001   3.520000000000001   5.280000000000000 
299 2   0.000000000000001   5.280000000000000   5.280000000000000 
300 2   0.000000000000000   3.520000000000000   3.520000000000000 
301 2   0.000000000000000   0.000000000000000   7.040000000000001 
302 2   7.040000000000001   3.520000000000000   0.000000000000000 
303 2   8.800000000000001   3.520000000000001  12.320000000000000 
304 2   1.760000000000001   1.760000000000001  14.080000000000002 
305 2   1.760000000000001   1.760000000000001  10.560000000000000 
306 2   8.800000000000001   8.800000000000001   0.000000000000000 
307 2   1.760000000000001   0.000000000000001   8.800000000000001 
308 2   7.040000000000002   8.800000000000001   5.280000000000000 
309 2   8.800000000000001   7.040000000000001   5.280000000000000 
310 2   8.800000000000001   8.800000000000001   3.520000000000000 
311 2   0.000000000000001   0.000000000000001  10.560000000000000 
312 2   8.800000000000001   8.800000000000001  14.080000000000002 
313 2   1.760000000000001   3.520000000000001  15.840000000000002 
314 2   3.520000000000002  15.840000000000002  12.320000000000000 
315 2   1.760000000000001   3.520000000000001  12.320000000000000 
316 2   5.280000000000002  15.840000000000002  10.560000000000000 
317 2   5.280000000000002  14.080000000000004  15.840000000000002 
318 2   5.280000000000002  15.840000000000002  14.080000000000002 
319 2   8.800000000000001   7.040000000000002  12.320000000000000 
320 2   7.040000000000001   0.000000000000000   0.000000000000000 
321 2   8.800000000000001   0.000000000000000   1.760000000000000 
322 2   8.800000000000001   0.000000000000000   5.280000000000000 
323 2   7.040000000000002   1.760000000000001  12.320000000000000 
324 2   1.760000000000000   1.760000000000000   0.000000000000000 
325 2   8.800000000000001   0.000000000000001   8.800000000000001 
326 2   7.040000000000002   7.040000000000002  14.080000000000002 
327 3  12.320000000000000   8.800000000000001  14.080000000000002 
328 3   5.280000000000000   7.040000000000001   1.760000000000000 
329 3   3.520000000000001   7.040000000000001   3.520000000000000 
330 3  12.320000000000000  10.560000000000000  12.320000000000000 
331 3   3.520000000000001   8.800000000000001   8.800000000000001 
332 3   5.280000000000001   7.040000000000002   8.800000000000001 
333 3  12.320000000000000  10.560000000000000   8.800000000000001 
334 3   3.520000000000001   7.040000000000002  10.560000000000000 
335 3  12.320000000000000  12.320000000000000   3.520000000000000 
336 3  12.320000000000000  10.560000000000000   1.760000000000000 
337 3  10.560000000000000  10.560000000000000   0.000000000000000 
338 3   5.280000000000001   7.040000000000002  15.840000000000002 
339 3   5.280000000000002   8.800000000000001  14.080000000000002 
340 3   3.520000000000001   8.800000000000001   1.760000000000000 
341 3   5.280000000000001  10.560000000000000   1.760000000000000 
342 3  12.320000000000000   8.800000000000001  10.560000000000000 
343 3   5.280000000000001  10.560000000000000   5.280000000000000 
344 3  12.320000000000000   8.800000000000001   7.040000000000001 
345 3   3.520000000000001  10.560000000000000   7.040000000000001 
346 3  12.320000000000000   7.040000000000001   1.760000000000000 
347 3   5.280000000000001  12.320000000000000   7.040000000000001 
348 3  10.560000000000000   8.800000000000001   1.760000000000000 
349 3   5.280000000000002  10.560000000000000  12.320000000000000 
350 3  12.320000000000002   3.520000000000001  15.840000000000002 
351 3  10.560000000000000   3.520000000000001  14.080000000000002 
352 3  12.320000000000000   3.520000000000001  12.320000000000000 
353 3  14.080000000000002   1.760000000000000   1.760000000000000 
354 3   3.520000000000000   0.000000000000000   3.520000000000000 
355 3   3.520000000000001   1.760000000000000   5.280000000000000 
356 3  14.080000000000002   0.000000000000000   7.040000000000001 
357 3  15.840000000000002   1.760000000000000   3.520000000000000 
358 3  14.080000000000002   0.000000000000000   3.520000000000000 
359 3   3.520000000000001   1.760000000000001   8.800000000000001 
360 3   5.280000000000000   1.760000000000001   7.040000000000001 
361 3   3.520000000000001   0.000000000000001  10.560000000000000 
362 3   3.520000000000001   1.760000000000001  12.320000000000000 
363 3   5.280000000000001   1.760000000000001  10.560000000000000 
364 3   3.520000000000001   0.000000000000001  14.080000000000002 
365 3   3.520000000000001   1.760000000000001  15.840000000000002 
366 3  12.320000000000000   5.280000000000000   7.040000000000001 
367 3   3.520000000000000   3.520000000000000   0.000000000000000 
368 3  12.320000000000002  15.840000000000002  14.080000000000002 
369 3  10.560000000000004  15.840000000000003  15.840000000000002 
370 3  12.320000000000000  14.080000000000002  12.320000000000000 
371 3  10.560000000000000  14.080000000000002  10.560000000000000 
372 3  12.320000000000002  15.840000000000002   7.040000000000001 
373 3   5.280000000000000   5.280000000000000   3.520000000000000 
374 3  10.560000000000002  15.840000000000002   5.280000000000000 
375 3  10.560000000000002  15.840000000000002   1.760000000000000 
376 3  10.560000000000000  14.080000000000002   0.000000000000000 
377 3   3.520000000000002   5.280000000000001  15.840000000000002 
378 3   3.520000000000001   7.040000000000001   0.000000000000000 
379 3   8.800000000000002   3.520000000000001  15.840000000000002 
380 3   8.800000000000001   3.520000000000000   1.760000000000000 
381 3   8.800000000000001   5.280000000000000   0.000000000000000 
382 3   8.800000000000002  15.840000000000002   7.040000000000001 
383 3   7.040000000000002  14.080000000000002   7.040000000000001 
384 3   7.040000000000002   5.280000000000001   8.800000000000001 
385 3   8.800000000000001   3.520000000000001   8.800000000000001 
386 3   8.800000000000002  15.840000000000002   3.520000000000000 
387 3   8.800000000000001  14.080000000000002   5.280000000000000 
388 3   7.040000000000002   5.280000000000001  12.320000000000000 
389 3   7.040000000000002  15.840000000000002   5.280000000000000 
390 3   8.800000000000001   5.280000000000001  10.560000000000000 
391 3   7.040000000000002   3.520000000000001  14.080000000000002 
392 3   7.040000000000003  14.080000000000002  14.080000000000002 
393 3   8.800000000000001   5.280000000000001  14.080000000000002 
394 3   7.040000000000001   7.040000000000001   0.000000000000000 
395 3   7.040000000000002   8.800000000000001   1.760000000000000 
396 3   8.800000000000001  14.080000000000002   1.760000000000000 
397 3   7.040000000000002  14.080000000000002   0.000000000000000 
398 3   8.800000000000002  10.560000000000002  15.840000000000002 
399 3   7.040000000000001   7.040000000000001   7.040000000000001 
400 3   7.040000000000002  10.560000000000000   7.040000000000001 
401 3   8.800000000000001  12.320000000000000   3.520000000000000 
402 3   8.800000000000001  12.320000000000000   0.000000000000000 
403 3   7.040000000000003   8.800000000000002  15.840000000000002 
404 3   7.040000000000002  10.560000000000000   0.000000000000000 
405 3  12.320000000000000   0.000000000000000   5.280000000000000 
406 3   3.520000000000001  15.840000000000002   1.760000000000000 
407 3   5.280000000000001  14.080000000000002   1.760000000000000 
408 3   5.280000000000001  15.840000000000002   0.000000000000000 
409 3  10.560000000000000   5.280000000000001   8.800000000000001 
410 3   3.520000000000002  14.080000000000002   7.040000000000001 
411 3  12.320000000000000   3.520000000000000   1.760000000000000 
412 3   5.280000000000001  15.840000000000002   7.040000000000001 
413 3  12.320000000000002   0.000000000000001  15.840000000000002 
414 3  10.560000000000000   1.760000000000001  12.320000000000000 
415 3   3.520000000000002  14.080000000000002  14.080000000000002 
416 3   3.520000000000002  15.840000000000003  15.840000000000002 
417 3   7.040000000000001   1.760000000000000   1.760000000000000 
418 3  15.840000000000003  15.840000000000002  14.080000000000002 
419 3   7.040000000000001   0.000000000000000   3.520000000000000 
420 3   7.040000000000001   1.760000000000000   5.280000000000000 
421 3   8.800000000000001   1.760000000000000   3.520000000000000 
422 3   7.040000000000002   1.760000000000001   8.800000000000001 
423 3   8.800000000000001   1.760000000000001   7.040000000000001 
424 3   7.040000000000002   0.000000000000001  10.560000000000000 
425 3  10.560000000000000   1.760000000000000   1.760000000000000 
426 3   8.800000000000001   0.000000000000001  12.320000000000000 
427 3  10.560000000000000   0.000000000000000   0.000000000000000 
428 3   7.040000000000002   0.000000000000001  14.080000000000002 
429 3   8.800000000000002  15.840000000000002  14.080000000000002 
430 3   8.800000000000001   1.760000000000001  14.080000000000002 
431 3   0.000000000000001   7.040000000000001   7.040000000000001 
432 3   1.760000000000001   5.280000000000001  10.560000000000000 
433 3   0.000000000000001   3.520000000000001  14.080000000000002 
434 3  14.080000000000002  10.560000000000000   7.040000000000001 
435 3  15.840000000000002  12.320000000000000   3.520000000000000 
436 3   1.760000000000001   5.280000000000001  14.080000000000002 
437 3   0.000000000000000   7.040000000000001   0.000000000000000 
438 3   1.760000000000001   7.040000000000001   1.760000000000000 
439 3  14.080000000000002  12.320000000000000   5.280000000000000 
440 3  14.080000000000002  10.560000000000000   3.520000000000000 
441 3   0.000000000000001   8.800000000000001   5.280000000000000 
442 3   1.760000000000001   8.800000000000001   3.520000000000000 
443 3  14.080000000000002  12.320000000000000   8.800000000000001 
444 3  14.080000000000002  12.320000000000000   1.760000000000000 
445 3  14.080000000000002  10.560000000000000   0.000000000000000 
446 3  15.840000000000002   8.800000000000001  14.080000000000002 
447 3  15.840000000000003   7.040000000000002  15.840000000000002 
448 3  14.080000000000002   7.040000000000002  14.080000000000002 
449 3   0.000000000000001  10.560000000000000   0.000000000000000 
450 3  15.840000000000002   7.040000000000001   5.280000000000000 
451 3   0.000000000000001  10.560000000000000   3.520000000000000 
452 3  14.080000000000002   7.040000000000001   3.520000000000000 
453 3   1.760000000000001  10.560000000000000   5.280000000000000 
454 3   1.760000000000001  12.320000000000000   3.520000000000000 
455 3   0.000000000000001   1.760000000000001  15.840000000000002 
456 3   0.000000000000000   1.760000000000000   5.280000000000000 
457 3  15.840000000000003  15.840000000000002  10.560000000000000 
458 3  14.080000000000004  15.840000000000002  12.320000000000000 
459 3  14.080000000000002  14.080000000000002  10.560000000000000 
460 3   0.000000000000001   1.760000000000001   8.800000000000001 
461 3  15.840000000000002  14.080000000000002   8.800000000000001 
462 3   1.760000000000001   1.760000000000001   7.040000000000001 
463 3   0.000000000000001   1.760000000000001  12.320000000000000 
464 3  15.840000000000003  15.840000000000002   3.520000000000000 
465 3  14.080000000000004  15.840000000000002   5.280000000000000 
466 3  14.080000000000002  14.080000000000002   3.520000000000000 
467 3  15.840000000000002   0.000000000000001   8.800000000000001 
468 3   1.760000000000001   0.000000000000001  15.840000000000002 
469 3   0.000000000000000   3.520000000000000   0.000000000000000 
470 3   0.000000000000000   5.280000000000000   1.760000000000000 
471 3   1.760000000000000   3.520000000000000   1.760000000000000 
472 3   1.760000000000001   3.520000000000001   5.280000000000000 
473 3  15.840000000000003  10.560000000000002  15.840000000000002 
474 3  14.080000000000002  12.320000000000000  12.320000000000000 
475 3  15.840000000000002  12.320000000000000   7.040000000000001 
476 3   0.000000000000001   3.520000000000001  10.560000000000000 
477 3   0.000000000000001   5.280000000000001  12.320000000000000 
478 3   1.760000000000002  14.080000000000002   8.800000000000001 
479 3  14.080000000000002   1.760000000000001  12.320000000000000 
480 3  14.080000000000002   0.000000000000001  14.080000000000002 
481 3   0.000000000000002  10.560000000000000  14.080000000000002 
482 3  14.080000000000004   1.760000000000001  15.840000000000002 
483 3  15.840000000000003   0.000000000000001  15.840000000000002 
484 3   1.760000000000002  14.080000000000002  12.320000000000000 
485 3   1.760000000000002  12.320000000000000  14.080000000000002 
486 3   1.760000000000002  15.840000000000002   7.040000000000001 
487 3  14.080000000000002   3.520000000000001  14.080000000000002 
488 3   0.000000000000001  15.840000000000002   1.760000000000000 
489 3  14.080000000000002   5.280000000000001  12.320000000000000 
490 3   0.000000000000001  14.080000000000002   7.040000000000001 
491 3  14.080000000000002   3.520000000000001  10.560000000000000 
492 3  15.840000000000002   3.520000000000001   5.280000000000000 
493 3   0.000000000000001  10.560000000000000  10.560000000000000 
494 3  14.080000000000002   3.520000000000001   7.040000000000001 
495 3  15.840000000000002   3.520000000000001   8.800000000000001 
496 3   1.760000000000002  10.560000000000000  12.320000000000000 
497 3  14.080000000000002   0.000000000000001  10.560000000000000 
498 3  15.840000000000003   3.520000000000001  15.840000000000002 
499 3  14.080000000000004   5.280000000000001  15.840000000000002 
500 3   3.520000000000000   1.760000000000000   1.760000000000000 
