LAMMPS data file via write_data, version 12 Jun 2025, timestep = 18, units = metal

500 atoms
3 atom types

0.005520411053441043 17.23947858894656 xlo xhi
0.0021789885479000697 17.2428200114521 ylo yhi
0.005931352441486787 17.239067647558514 zlo zhi
1.055684817296324e-15 1.0552252852422468e-15 1.0552252852422468e-15 xy xz yz

Masses

1 58.6934
2 55.845
3 51.9961

Atoms # atomic

74 1 3.440157807088591 1.724671725445152 5.170280506480766 0 0 0
83 1 5.184996140401623 3.4777037805666025 5.1757479484079 0 0 0
255 2 5.214444711822366 0.02282962646549795 5.142514377416902 0 0 0
256 2 3.474873049497244 0.059485415278676144 3.421796111526759 0 0 0
258 2 3.4359891619666456 1.763796509240478 1.7253396112927366 0 0 0
289 2 5.165055261676831 5.149717996638574 3.4226214390789407 0 0 0
290 2 3.455152761232714 5.185355012437397 5.150401067192884 0 0 0
291 2 3.4497847042108867 3.4942719467156262 3.43535887712024 0 0 0
293 2 5.164856256333098 3.454852150487773 1.7151185533212019 0 0 0
294 2 3.4759279961337737 5.160779444138163 1.7009001757741276 0 0 0
295 2 3.459981578462944 3.464835799077319 0.017281896094995544 0 0 0
303 2 1.7410533540329176 3.456882153807215 5.175461328909414 0 0 0
306 2 1.779705747132637 3.470061340054235 1.71599042981352 0 0 0
307 2 0.027966639544446805 3.462004106850563 0.04313456941776152 0 0 0
317 2 1.761035389722812 1.7203771151790967 3.4128922934536337 0 0 0
319 2 1.7482047731990773 1.7429004422119077 0.007166916785558264 0 0 0
320 2 1.7251173510890867 0.08341989037048897 1.7411725087180274 0 0 0
321 2 0.042980314008404116 1.7475424652501066 1.7564514469181463 0 0 0
437 3 5.173144846479669 1.7605418312668824 3.4520479963638784 0 0 0
469 3 0.058792265311122624 0.035248020347655735 0.04062581862019892 0 0 0
479 3 1.7239625459123127 5.18444388452561 3.4818803312592133 0 0 0
481 3 1.6886558395064384 0.03297930617756157 5.204030701861669 0 0 0
14 1 6.8904390946500405 5.190235540857452 1.724594166843406 0 0 0
77 1 8.598632605400825 1.7520642412171528 3.4389766011489544 0 0 0
85 1 10.351137539275014 3.471745360870374 3.4485660286426336 0 0 0
92 1 10.366430158782766 1.7465500637183247 5.177065682823585 0 0 0
102 2 10.332210514723812 1.7323587006381105 1.721409568249545 0 0 0
111 2 10.3308945107159 5.168783974063383 5.161404870544412 0 0 0
113 2 10.330624165400886 5.205324342070878 1.7110131743364627 0 0 0
351 2 6.8993515946177935 1.7546758291065303 5.152059894912948 0 0 0
353 2 8.61205774442397 0.0543901476305432 1.7063555327460318 0 0 0
354 2 6.874045326861279 1.7186443445559108 1.7342610625851844 0 0 0
355 2 8.62053526036986 3.4860897624714324 1.720519092197338 0 0 0
382 2 8.646954869420757 5.19130977237106 3.450992038392538 0 0 0
383 2 8.586302790959914 3.4876040468273404 5.193966829696073 0 0 0
384 2 6.902719133656904 3.4935220901399044 3.4425752973100128 0 0 0
444 3 8.58953847629988 0.023513304698711643 5.269822691163937 0 0 0
452 3 6.901066054147946 3.4892160817226006 0.019576752984690953 0 0 0
453 3 6.869932730995197 5.189038172590515 5.18619895056238 0 0 0
22 1 17.220572124158718 1.7254373111561074 5.156536264584043 -1 0 0
33 1 17.229275706091798 5.174860406873596 1.719323779296822 -1 0 0
37 1 17.23536575546305 3.46448106245361 3.446626726670844 -1 0 0
304 2 17.208017201083493 5.196971410061878 5.163219697031029 -1 0 0
318 2 17.23739813673324 0.037512339689827805 3.41120501764126 -1 0 0
51 1 13.813684468348894 1.7381189652146456 5.179981033705329 0 0 0
52 1 13.792211377977896 0.010843861563676751 3.439782993448822 0 0 0
56 1 13.767556916741913 0.01723208539236663 0.010137281902234029 0 0 0
87 1 12.051499598335992 3.478851046657857 1.7255952182231096 0 0 0
89 1 13.780380616929662 3.471768547817643 0.02790482271312835 0 0 0
99 2 12.041421087742597 1.7289016831742297 0.00942271239048151 0 0 0
100 2 12.04272521628783 0.0660872024439027 1.723069200051666 0 0 0
109 2 12.06816190960204 5.203606776882215 3.45298047830716 0 0 0
110 2 12.078062730039946 3.506437917502443 5.16812047791125 0 0 0
191 2 15.511048975622511 5.1970138169867415 0.013554713201329447 0 0 0
192 2 15.485797386204984 3.4509960836760536 1.7315340713914797 0 0 0
193 2 13.815120934553534 5.18920983511058 1.7446385011383143 0 0 0
195 2 13.788128441194052 3.4614292516508813 3.440277383694969 0 0 0
196 2 13.821432973786962 5.170819362843459 5.155129186870414 0 0 0
197 2 15.500945797276172 3.5160635968772564 5.1385775485375 0 0 0
199 2 15.513239747616502 5.2094302891197355 3.44849091204986 0 0 0
207 2 15.533933413594811 1.7542378351619616 3.3933878869027247 0 0 0
209 2 13.794261267761117 1.746376678351256 1.7449704946738147 0 0 0
431 3 15.54861483406081 1.7777968886263753 0.05230998393007792 0 0 0
432 3 15.503032924275182 0.09491876364635106 1.7281636968671865 0 0 0
472 3 12.108390860246425 1.7605604020648202 3.4523817913468573 0 0 0
15 1 0.015257746101886741 8.606412996352317 5.201834087297085 0 0 0
18 1 3.4431662592263104 8.621996654549553 1.7386085282311199 0 0 0
26 1 3.46805365041056 6.895341902340147 3.4606253458368887 0 0 0
278 2 5.189103008251875 8.637798872382797 3.4733228989178975 0 0 0
279 2 5.163317048725994 6.901574520160233 5.164331692461469 0 0 0
280 2 3.4254818411337142 8.653476980144044 5.161568912104885 0 0 0
281 2 5.188060528637818 6.907065396444737 1.7124296635194125 0 0 0
282 2 3.484294251156435 6.897185314979826 0.021107629521271595 0 0 0
323 2 1.7487827431033185 10.33809566433487 5.208407939588974 0 0 0
325 2 1.7288837609120298 10.359057635211702 1.7444252545718328 0 0 0
335 2 1.6924036217876304 8.64674826572569 3.4538458002920693 0 0 0
336 2 1.7366078235821547 6.910044897450762 5.1778274973479865 0 0 0
337 2 0.02162773283007912 6.89729508334824 3.4347967597816527 0 0 0
399 2 5.204210082975424 10.332019441948159 1.751418757306172 0 0 0
400 2 3.439737274619419 10.298389887078217 3.4708212218958057 0 0 0
403 2 5.177953895719012 10.323246925677786 5.170160815858087 0 0 0
418 3 5.157154615822192 8.607034702885043 0.04067968930260787 0 0 0
486 3 0.05304218986301938 10.346663808988184 3.4608572926113106 0 0 0
492 3 1.7054309598839983 6.893348516278758 1.67143670778331 0 0 0
23 1 6.896989111287351 6.915103208606164 3.469078512942441 0 0 0
25 1 6.923207200836182 10.304523246811918 0.011893735008819201 0 0 0
27 1 8.615580196781725 10.328944554472175 1.7414442510291197 0 0 0
134 2 8.639814664673537 10.327562656345286 5.1934554299903795 0 0 0
135 2 6.894653336384409 10.307083005415283 3.466695492825617 0 0 0
216 2 10.352995090936457 8.633425988375063 5.181692443914006 0 0 0
217 2 10.330207361441257 6.880814593475101 3.4679024733281136 0 0 0
221 2 10.362811605336644 6.880000299101799 0.025772836640508404 0 0 0
240 2 10.356167122691385 10.313399287855884 3.4820182228149643 0 0 0
366 2 8.649407724789722 8.62477143724837 3.479273346259786 0 0 0
367 2 8.664381493879807 6.910325327525567 5.1648105078885065 0 0 0
368 2 6.891122056220999 8.64887521747835 5.15658483141718 0 0 0
370 2 8.645271980347639 6.892616814750203 1.7241353697215085 0 0 0
371 2 6.899254511794731 8.606619640754756 1.7516112539852853 0 0 0
372 2 6.909811711126031 6.890809143401428 0.01932443577904988 0 0 0
421 3 10.308479236524747 8.568450402659169 1.737045014372641 0 0 0
338 2 17.225213720294317 8.610265815304002 1.7427968682756592 -1 0 0
339 2 17.210914990919914 6.888407172517341 0.015273132115406887 -1 0 0
17 1 15.5204986998625 8.603539850628843 3.4593258938497855 0 0 0
42 1 15.518679772130406 10.341537231655488 5.1984159315410565 0 0 0
72 1 13.788192325143287 6.877675352342806 3.445904478279722 0 0 0
184 2 13.777198907191464 6.909900247502436 0.026976498327119784 0 0 0
185 2 13.784262854802147 8.608413213600556 1.7042819367421491 0 0 0
186 2 15.511555708600117 6.8970320751625085 1.7116649070002492 0 0 0
189 2 15.535801584804101 8.588736070362279 0.011388253292785578 0 0 0
201 2 13.780550308782106 8.63323675885675 5.188127017425359 0 0 0
215 2 12.05011463260635 6.866845207551872 5.15911154933695 0 0 0
220 2 12.05903827095018 6.871349637676019 1.7008012929096596 0 0 0
226 2 13.81358053267586 10.313688579458496 3.419666362565161 0 0 0
238 2 12.049299776577472 10.340433607634388 5.218184051871224 0 0 0
242 2 12.043719541185643 10.30442138785675 1.742466707246461 0 0 0
244 2 15.51037875573483 6.876912450195762 5.213538731498732 0 0 0
419 3 12.107493917159445 8.623510015870641 3.4915191155375287 0 0 0
490 3 15.502530965901647 10.288998574092975 1.6922666523255683 0 0 0
434 3 5.152883641326157 17.24096462361998 1.7530758255431151 0 -1 0
44 1 1.7389664555055901 15.520440583475049 0.011784956701397217 0 0 0
45 1 0.0349247579868088 13.761094155535536 3.4726424898145547 0 0 0
46 1 0.016886527721001538 15.518023499168237 5.186723050506012 0 0 0
48 1 1.734938612318737 15.540944553264977 3.4512958026334983 0 0 0
64 1 3.4690539199502637 15.548391939580833 5.153496140425228 0 0 0
68 1 3.436774345514661 15.528274084616141 1.7483602082751348 0 0 0
95 1 0.008792155255545421 15.500602539827456 1.7396481016843237 0 0 0
267 2 1.7903778144095583 13.775422988074316 5.2180721366747775 0 0 0
288 2 1.767578787647894 12.022403228538131 3.4669446832653206 0 0 0
324 2 1.724198127552292 12.086204389261773 0.025082456338329173 0 0 0
326 2 0.03373758056242279 12.068360956652446 1.7412140694723357 0 0 0
361 2 5.174135506173651 15.49545398613929 3.453249127081252 0 0 0
362 2 5.189610632397729 13.762381227262203 5.209791712843174 0 0 0
363 2 3.4517008771798623 13.784201216312388 3.4887050895094105 0 0 0
401 2 3.4606455054042606 12.03508368347073 5.160431866030181 0 0 0
429 3 1.749542949952667 13.715257666490723 1.7599877742299486 0 0 0
433 3 3.4237083161104644 12.026525896186016 1.7590586306888103 0 0 0
463 3 5.184500504541516 12.038286283791662 3.5032931562406646 0 0 0
466 3 5.191474684893084 13.83954636681148 1.687070185944592 0 0 0
352 2 6.919984284837442 17.237008073585283 3.452921024072319 0 -1 0
474 3 10.312938178900733 17.219190604333374 3.428579904235074 0 -1 0
1 1 6.911062598258455 15.518080188967431 1.7261633852349265 0 0 0
29 1 6.918400248855667 12.033804973931122 5.219075388550637 0 0 0
66 1 10.343615560955302 13.75989375045911 3.479588436094003 0 0 0
71 1 6.865467000684342 15.496599772709157 5.168865672820643 0 0 0
133 2 8.627529702615345 12.042451262801645 3.4643958110277695 0 0 0
136 2 8.626076662574814 12.088620011828999 0.021232147155906513 0 0 0
137 2 6.884429800843153 12.071338153274784 1.715881226754441 0 0 0
155 2 8.62867506323521 13.770240787228268 5.198724572154512 0 0 0
161 2 8.615393120982757 13.73987700484927 1.7534003799258506 0 0 0
162 2 6.927243535023853 13.783969457263503 0.033078798755410456 0 0 0
180 2 10.356463692498917 15.486100009603557 5.237325961255614 0 0 0
232 2 10.31449275924097 12.032094354942908 1.753429794208944 0 0 0
239 2 10.313343550441974 12.048648060700762 5.207007804653954 0 0 0
439 3 10.320315019632275 15.509749233918921 1.6582755754189913 0 0 0
440 3 10.309738171237832 13.759515907023768 0.011643446069043103 0 0 0
448 3 8.66718814154771 15.51854224059937 3.4792028051119273 0 0 0
450 3 6.899357856662884 13.719000142935071 3.456606349935891 0 0 0
50 1 15.523101357016959 17.241283776899046 5.186598726460084 0 -1 0
97 2 12.060498490711975 17.21396798759974 5.202084832926446 0 -1 0
82 1 17.22236931968829 12.073153421715643 5.175963058760349 -1 0 0
4 1 13.784529135770141 12.042404078314556 1.734713477463886 0 0 0
30 1 15.516587855901365 15.523152044225926 0.01012767550983823 0 0 0
31 1 13.79917555482685 12.058855286936382 5.170318918983219 0 0 0
32 1 13.779549595257741 15.523315984184288 1.743491813777947 0 0 0
73 1 12.069515936386296 12.037472844677442 3.469338032136975 0 0 0
105 2 13.769036551885907 13.81836769502022 3.468343416165031 0 0 0
149 2 13.77435499752918 15.5198832531819 5.174252700988721 0 0 0
151 2 15.471496088099277 13.788661991678872 5.173270284133706 0 0 0
153 2 15.495330794784921 12.09206914101027 3.4207691710114787 0 0 0
168 2 12.04047093149464 13.819416209569276 5.2390722764645306 0 0 0
435 3 12.05789986685247 15.53428746936425 3.498229102562253 0 0 0
438 3 12.062715987767577 13.731150872051797 1.6934553387622078 0 0 0
477 3 15.519380706824306 15.450575901821903 3.522963520292845 0 0 0
494 3 15.465189994056756 13.746575459115457 1.7826772156216106 0 0 0
3 1 5.181424820405024 3.476187577253729 8.607617127297285 0 0 0
8 1 3.4346085665655752 5.205704389790366 8.629976077245427 0 0 0
9 1 3.4531980604800867 3.4698895632670523 6.893767705207715 0 0 0
24 1 1.7175994008932376 0.031152497550079806 8.611868981154823 0 0 0
62 1 3.4555499229740088 0.01983212336914632 6.899056168857747 0 0 0
91 1 3.438384389397799 0.00960389831891376 10.339751727751459 0 0 0
254 2 3.4602498047670283 1.7472858390454842 8.612563317107702 0 0 0
276 2 5.202689757207772 5.232092522967602 6.89681966463844 0 0 0
284 2 5.174673692975177 5.2026357133098555 10.400943232363542 0 0 0
287 2 3.4489091795331936 3.4607059537362908 10.365629365931861 0 0 0
299 2 1.6699333908879843 1.7691621616108113 10.347700261956568 0 0 0
311 2 1.720254317427307 5.174605970738384 10.383051331221168 0 0 0
313 2 0.019600458201704096 0.013222471935483097 10.323010872608913 0 0 0
314 2 1.6754516313604646 1.757891810537765 6.910971700401408 0 0 0
316 2 0.013496269204805037 0.025945114824690578 6.937234387697651 0 0 0
408 3 5.148696863563211 1.7860855773376179 10.320602618090778 0 0 0
441 3 5.215235092192407 1.7221554706170439 6.910847170581239 0 0 0
495 3 1.7447462779940408 3.4279487041076497 8.695098522885363 0 0 0
499 3 1.6887337939911364 5.175876406437785 6.780350016307027 0 0 0
107 2 10.337348843224728 5.170675332319665 8.624617451350012 0 0 0
108 2 10.35246441862397 3.499694344817758 6.888066725233992 0 0 0
121 2 10.322480237141239 0.017962418660349238 10.333719125360798 0 0 0
122 2 10.347159956599102 1.7405124274367905 8.615212460992229 0 0 0
230 2 10.354616134205793 3.4679399171752343 10.331995861054468 0 0 0
347 2 8.624810106821483 1.7122736103043588 10.32159835496848 0 0 0
350 2 6.900401586166907 1.7346995519153845 8.618608928902622 0 0 0
365 2 8.636029897402647 5.1915448809955 10.374177211069009 0 0 0
378 2 6.900740662150164 3.4641380765012486 10.338166595524962 0 0 0
379 2 8.652204678096762 5.173389309159921 6.881796435701502 0 0 0
380 2 6.870812323222976 5.192381563045607 8.627260596965723 0 0 0
381 2 6.888217468580982 3.492962286984696 6.8885567056496795 0 0 0
446 3 8.660098383445154 1.7806385372675675 6.933766993361804 0 0 0
447 3 6.874194922125259 0.03952554270314698 10.313809497220419 0 0 0
454 3 8.624528477493973 3.4732652383339984 8.639919832496043 0 0 0
39 1 17.233149938225502 5.188027505480004 8.625387134683779 -1 0 0
302 2 17.222450137278454 3.4246107108029857 10.333981225663427 -1 0 0
315 2 17.208725154333102 1.7178321132409347 8.64481677736979 -1 0 0
482 3 17.214441250977654 3.462945131860428 6.862983751337801 -1 0 0
67 1 12.091014196278861 1.716144835447964 10.3392921187939 0 0 0
70 1 13.808793985432596 3.465671871027541 6.8820411477765795 0 0 0
78 1 15.516956437740765 5.168484337844196 10.362139414615053 0 0 0
172 2 13.805154861662844 3.4569160955733933 10.333423613341706 0 0 0
190 2 13.824833769064918 5.13780643044204 8.621333839490173 0 0 0
198 2 15.524779848813571 1.7231347497069138 10.363617904978971 0 0 0
203 2 15.49910623314 3.417114020687499 8.637995859160686 0 0 0
205 2 13.8170515063477 1.7493608361382385 8.609920124368747 0 0 0
208 2 15.530889880778961 5.203174092490715 6.893686766824636 0 0 0
231 2 12.06803830147464 3.4473483399271876 8.621320919965727 0 0 0
423 3 12.095137677116336 5.120586177351174 10.325433422454456 0 0 0
430 3 15.500953541434107 1.683181681783469 6.985061284115505 0 0 0
462 3 12.046122272077362 5.147996862968814 6.933923637734555 0 0 0
468 3 12.059448281103869 1.7184608443048361 6.901689686956078 0 0 0
20 1 3.4535703497379826 6.904325367370842 6.887065158607961 0 0 0
272 2 0.008015715204244407 10.362173535493143 10.34093090562943 0 0 0
273 2 1.7216163038257986 10.322677354773207 8.647049168088015 0 0 0
275 2 0.0566866406400868 10.339871461458747 6.94014140212234 0 0 0
277 2 3.4418725862275017 8.639761978317418 8.646044616771881 0 0 0
322 2 0.015535838959472806 8.60694994476577 8.598001215549393 0 0 0
329 2 1.7069225801602421 8.64278607115945 10.36622211191015 0 0 0
331 2 0.010729498172669615 6.928044196094851 10.358176774341054 0 0 0
332 2 1.7417692705982144 8.637961392262646 6.921712776590744 0 0 0
376 2 3.4847387241593837 6.9212047949186255 10.332167333869945 0 0 0
388 2 3.45793953022088 10.310211153382088 10.345420793285115 0 0 0
395 2 5.195680538311344 10.352197303600592 8.64323297469726 0 0 0
396 2 3.464131979939038 10.31297628162118 6.896597175516096 0 0 0
397 2 5.188679885777288 8.6245692715941 10.372581375223438 0 0 0
404 2 5.209529206864595 6.918300488011924 8.645044618392143 0 0 0
420 3 5.1619886668727615 8.60991149484555 6.900324742035369 0 0 0
489 3 1.6892743567246074 6.957859108524214 8.680024605513404 0 0 0
19 1 6.901413051868803 6.922865699239609 6.883330734035238 0 0 0
128 2 6.883755745591064 10.367272889422741 10.332708143719191 0 0 0
130 2 8.651110878437102 10.370010502326434 8.642113805856381 0 0 0
132 2 6.899811896166449 10.29529531272113 6.929026649918595 0 0 0
145 2 6.880855755391515 6.880434035347141 10.355351679900433 0 0 0
212 2 10.351738869629054 8.623244209126398 8.633363452941078 0 0 0
213 2 10.345897125944314 6.86669646674901 6.850698505037596 0 0 0
233 2 10.379978404765772 10.368179623427443 10.328439866577288 0 0 0
237 2 10.342134770134807 10.354263873702193 6.902144028560083 0 0 0
252 2 10.32303416974429 6.894417518956852 10.345929705645506 0 0 0
298 2 6.906597436183337 8.648456524751117 8.673466019178719 0 0 0
457 3 8.579110053728504 8.659462945695449 10.36552738388389 0 0 0
458 3 8.608818452586679 6.814571370823219 8.62455351415277 0 0 0
459 3 8.62733591386919 8.669133892160104 6.87921647333315 0 0 0
334 2 17.23007690577786 6.873185427120782 6.8843826305506495 -1 0 0
10 1 15.523220686329335 10.32577779201129 8.617248103898547 0 0 0
13 1 13.804005640495355 6.9060883684999785 10.315328210565275 0 0 0
16 1 13.786088397349973 8.638038976424012 8.622700940939094 0 0 0
28 1 12.05945431652311 6.9034888175122795 8.617332663385232 0 0 0
119 2 13.77239665472447 10.358776861413576 10.380315669926487 0 0 0
222 2 15.568555654539608 8.634067181465463 10.361938119029553 0 0 0
229 2 13.767879496210606 10.330737585649716 6.889686770951554 0 0 0
235 2 12.042537557286973 10.368506896915953 8.61750629928615 0 0 0
247 2 15.540276341738922 6.937774632768579 8.585283348286268 0 0 0
249 2 12.052533940763933 8.669043153593478 10.370977945618879 0 0 0
250 2 15.504001685279526 8.5936560105456 6.912494689647005 0 0 0
417 3 12.033978999866706 8.68194683126933 6.874561966967156 0 0 0
484 3 13.880227120022468 6.898685071813117 6.8952177090852524 0 0 0
265 2 5.2010822196326245 17.207490080301 8.629299051865553 0 -1 0
53 1 3.456990239356216 13.776684107448105 10.331464391517242 0 0 0
54 1 1.7142708210379392 13.764458245134792 8.632532982072481 0 0 0
253 2 1.733765146036544 15.499015018320364 6.929019314012341 0 0 0
262 2 1.6821752222358193 15.49902501553841 10.35553965615621 0 0 0
264 2 0.022525757823249705 13.770784713602026 10.33007195620697 0 0 0
266 2 0.006930645850304501 15.552955805754468 8.587492952731088 0 0 0
269 2 1.7162636876127393 12.051659713668327 10.374204027066469 0 0 0
358 2 5.2066132079489424 15.504854466550162 10.362469268190077 0 0 0
360 2 5.18069545579514 15.493904375945935 6.911503120450217 0 0 0
391 2 5.179291080159095 12.025928105595412 10.386161117136833 0 0 0
393 2 5.179438780923657 12.02934575388558 6.898598612098322 0 0 0
460 3 3.473609151178628 13.80226411407418 6.839605210887389 0 0 0
464 3 3.445356424381644 11.978608642695121 8.63118978133492 0 0 0
470 3 3.4284085712710954 15.554023754840786 8.64226246724765 0 0 0
471 3 5.261421151512708 13.75728239777704 8.658516794752684 0 0 0
496 3 1.6883652118065597 12.021481641032526 6.8887437840889785 0 0 0
126 2 10.362247604065205 17.221500333414998 6.884862884925719 0 -1 0
349 2 8.64808579962147 17.242493723187916 8.621692285932612 0 -1 0
445 3 6.858238009330474 17.191150643739483 6.943039948327166 0 -1 0
76 1 8.625804175154961 13.770666864316357 8.62600644084776 0 0 0
123 2 6.875711742237902 15.492685500413184 8.604604441084698 0 0 0
129 2 8.655562608520086 12.043910402214028 6.917302390805212 0 0 0
131 2 6.883646526704899 12.039402148913682 8.598866310621979 0 0 0
150 2 6.872207680981878 13.750840166403531 10.347206661899076 0 0 0
152 2 8.618285972755965 15.49309549067021 6.912293290203926 0 0 0
154 2 6.894462696648926 13.787427306088906 6.894565581433497 0 0 0
166 2 8.619771785840618 12.05262864199447 10.357930550371577 0 0 0
171 2 10.354617328684055 13.764791691200069 10.344765728380308 0 0 0
175 2 10.30689618372495 15.516629376137248 8.551080910701897 0 0 0
176 2 10.349727274713489 13.77012479027936 6.90530557175387 0 0 0
236 2 10.371526700445184 12.053073658913842 8.611010528898294 0 0 0
443 3 8.729157374905897 15.492099589308616 10.340580948779683 0 0 0
61 1 12.071813609091635 17.231382796748427 8.614399781153738 0 -1 0
202 2 13.835251220647732 17.241909574820927 10.347046956515063 0 -1 0
204 2 15.496950016902474 17.23394759889106 8.625484942787036 0 -1 0
206 2 13.79453405127184 17.215041893855087 6.913280183559558 0 -1 0
49 1 17.231181943940904 13.804621228837627 6.906391165799924 -1 0 0
274 2 17.213344397198256 12.047145462080891 8.631304363521684 -1 0 0
21 1 15.529543088152797 15.522437229466037 10.329945020306056 0 0 0
60 1 12.050806270646818 15.509675188935304 10.324911521633297 0 0 0
125 2 15.505778741840738 12.052639368738792 10.35395284825742 0 0 0
156 2 13.817192781485423 15.514272799714409 8.597321242270691 0 0 0
157 2 15.524042618821762 13.806395411009422 8.618591017950973 0 0 0
159 2 15.496533788790622 15.528914251589553 6.942505510897445 0 0 0
160 2 13.79715447405624 13.783443851965618 10.341720696865044 0 0 0
173 2 12.076895794923564 15.486247893681032 6.923016614869258 0 0 0
174 2 12.047068647857603 13.778915678824713 8.618054269212362 0 0 0
187 2 12.099283964327817 12.093938476004388 10.3529818330659 0 0 0
234 2 12.041296283941358 12.069664965987243 6.9115877370162195 0 0 0
243 2 15.518912742401257 12.069525262994494 6.955952566804902 0 0 0
487 3 13.792960072205725 13.844110682631662 6.851713031257793 0 0 0
500 3 13.792282589004575 12.031831926140148 8.63047694155001 0 0 0
257 2 5.139634867556369 1.735822309000287 17.234325968498233 0 0 -1
259 2 3.4605080279134146 0.0320307567363639 17.236891185266103 0 0 -1
292 2 5.163588603225911 5.225062356132472 17.22130647074291 0 0 -1
305 2 1.726466367838228 5.178336186765234 17.233846263417817 0 0 -1
35 1 5.174016349531499 5.187410795754341 13.788503253282514 0 0 0
38 1 3.4469022429576524 5.19445147608638 15.530283325259427 0 0 0
88 1 3.4264324366436334 1.7461714525698147 12.070338148152558 0 0 0
283 2 5.158936213977249 3.4381497078955245 15.568408756023938 0 0 0
285 2 5.213371103998634 3.4555833779021863 12.041330608143593 0 0 0
286 2 3.443621465597385 5.1702999548601305 12.036409181299188 0 0 0
296 2 5.154519967050722 0.029145253157107844 15.505502071759087 0 0 0
297 2 3.4531886378949106 1.7134571147659459 15.534375149480752 0 0 0
300 2 1.7069903281889867 3.460105601147314 12.032029163385408 0 0 0
301 2 0.0496534682473134 5.127128170461877 12.04526298993542 0 0 0
308 2 1.711196961199556 1.7323842596619692 13.810363611515061 0 0 0
309 2 1.7327632713623484 0.03350245595645772 15.48620660610186 0 0 0
312 2 0.020988970341430373 1.7548536327116866 12.051361570735516 0 0 0
333 2 3.4613561470896137 0.004729288903038862 13.81349308464691 0 0 0
340 2 1.701526577778106 5.188364870640541 13.796336020215637 0 0 0
341 2 1.718958633810384 3.4596375504741568 15.532650591287876 0 0 0
342 2 0.05622499213194056 5.152570730808477 15.546698636615638 0 0 0
343 2 0.049476270191967056 3.472825496968485 13.780463525022052 0 0 0
410 3 5.175943557139272 1.78185923014178 13.817421124961298 0 0 0
414 3 3.3837956423775406 3.474340061720039 13.776997235596683 0 0 0
491 3 1.6763935340983027 0.03974586584591339 12.055509353670777 0 0 0
498 3 0.052200482685042654 1.7440712388794437 15.48322882826148 0 0 0
86 1 10.351100815479567 0.02903746575670658 17.22105696012429 0 0 -1
114 2 10.349211665932133 3.4622412063019414 17.22161029009968 0 0 -1
385 2 8.633927854327593 5.187286499851204 17.23042220742479 0 0 -1
451 3 8.679986799368995 1.788139600428099 17.231840055264755 0 0 -1
34 1 6.909934997175486 3.472027626786532 13.809970351774547 0 0 0
106 2 10.39021480228769 1.7478313864856294 15.472635013910509 0 0 0
224 2 10.31417366425041 5.1858058360856445 15.537742404166167 0 0 0
225 2 10.351625365493167 3.4699073826918054 13.830560969929241 0 0 0
228 2 10.333896300387147 5.169242282881535 12.071672842560528 0 0 0
345 2 8.645250269966773 0.007454408514237752 15.499332323966653 0 0 0
346 2 6.870409149414161 1.755576908872139 15.545031261417936 0 0 0
348 2 6.904392963765515 1.742707024457647 12.05842739000095 0 0 0
373 2 8.628131499728257 5.20956009336911 13.801468666000906 0 0 0
374 2 8.655572215454312 3.481891305231921 15.525510695457152 0 0 0
375 2 6.909938669311855 5.203356937770165 15.540413588331537 0 0 0
377 2 6.889020802201703 5.192960307079 12.030361630031177 0 0 0
442 3 8.65573025131632 1.7349445069831484 13.858242420592722 0 0 0
455 3 8.588048912913184 3.517503922039476 12.042131875876269 0 0 0
467 3 10.37033361672251 1.6921442444840344 12.049627325866046 0 0 0
112 2 12.066369756815625 5.216163201083379 17.209539442775895 0 0 -1
57 1 13.789567181275226 1.735002415676248 12.05902305361246 0 0 0
75 1 15.53002045368249 5.186602844089358 13.759977311995897 0 0 0
90 1 15.530767979597172 1.7408110792061082 13.77382602405613 0 0 0
115 2 12.056286066075506 1.7538471940197076 13.775053938555923 0 0 0
116 2 12.042745796783853 0.022985281389172028 15.495763035218 0 0 0
177 2 13.76635675696668 5.149364148790329 12.070892273156693 0 0 0
178 2 15.508930465376 3.461745529538508 12.065094264002665 0 0 0
181 2 13.773365306273922 3.4638882918598095 13.788910268077514 0 0 0
182 2 13.77463618268963 5.174768881214228 15.531599553830631 0 0 0
194 2 15.496497196566764 0.005147895407691156 15.494048198842794 0 0 0
200 2 15.531859959946004 0.018037937388410835 12.03771339565031 0 0 0
223 2 12.056586715415408 3.4784575996470766 15.527029340940832 0 0 0
227 2 12.048401516002803 3.477427842293344 12.070532620177627 0 0 0
422 3 12.079272247817757 5.134421226700985 13.82561962026793 0 0 0
426 3 13.711164765155711 1.7231262172998425 15.507967451623895 0 0 0
478 3 15.516888478540432 3.5514815259702854 15.499280708653595 0 0 0
12 1 1.7224225865942178 8.617185001908094 17.227626975731848 0 0 -1
79 1 0.010919124748492241 10.355592482504646 17.23218855665027 0 0 -1
386 2 3.471992312682338 10.343187567080479 17.231608266774327 0 0 -1
40 1 5.1650706363833025 8.60325131046049 13.76938617230832 0 0 0
93 1 1.7430722707035415 10.35176063696808 15.498560814672517 0 0 0
270 2 1.718828019721467 10.334363891836402 12.019899124471163 0 0 0
327 2 1.7315793271821927 6.895724443473936 15.521831363631149 0 0 0
387 2 5.192819648323772 10.323870671848766 12.04946996468082 0 0 0
389 2 3.476953105638132 8.599846505273463 15.52427322681854 0 0 0
390 2 5.196135197921434 6.911503538319462 15.523538764869912 0 0 0
392 2 3.447842070639566 6.8957659738229475 13.780458494617012 0 0 0
394 2 5.155249177488577 10.310062514441253 15.49290702272232 0 0 0
398 2 5.1619704695286135 6.8939387393075915 12.04996559049159 0 0 0
402 2 3.4498467433466136 8.618907411320903 12.026875689782122 0 0 0
405 2 3.481833957676386 10.31447020657502 13.740969376759912 0 0 0
480 3 1.751302181919263 6.886813640631966 12.040401337301228 0 0 0
483 3 0.029151358079531738 6.947021660236028 13.808943965741385 0 0 0
497 3 1.8283894390202422 8.613946286831597 13.803891981740836 0 0 0
369 2 8.645942526500821 8.564787492469309 17.231084562877086 0 0 -1
412 3 10.351361079363512 10.387259081722796 17.20785694730886 0 0 -1
127 2 8.58431503269836 8.602863480790756 13.793712996080664 0 0 0
139 2 8.630259921985795 6.900279893991187 15.536139181893372 0 0 0
141 2 6.930279363606249 6.880434923775753 13.776892638466737 0 0 0
143 2 8.635496155676186 6.876277766095124 12.067500409810384 0 0 0
144 2 6.910485679545156 8.609583679281982 12.067107470936287 0 0 0
164 2 8.622925141047471 10.317373673512447 15.502738911706638 0 0 0
165 2 6.9220374081037965 10.33803495509056 13.758989639177031 0 0 0
167 2 8.584711161487737 10.353741519578643 12.040925176516275 0 0 0
246 2 10.320997772375819 8.586406131159423 15.522828844017798 0 0 0
248 2 10.30775881846425 6.8804115921223765 13.814461446357738 0 0 0
409 3 10.31691222661881 10.312507785686478 13.875249565314427 0 0 0
416 3 10.333653556995852 8.647805135430694 12.06821258497396 0 0 0
456 3 6.895926528133525 8.584221487376418 15.49522634838574 0 0 0
5 1 13.784274619032908 10.323463990310334 17.227820906727928 0 0 -1
218 2 12.075107406724515 8.609730869442458 17.23132309786148 0 0 -1
328 2 17.233388237505693 8.583903856796004 15.507727639627642 -1 0 0
330 2 17.235864889421077 8.647413792072738 12.028460757782625 -1 0 0
425 3 17.182408079045153 10.336488623366417 13.8032541532102 -1 0 0
6 1 15.489257588036963 8.609188580930345 13.7830734696538 0 0 0
7 1 15.508828869100583 6.886401143389539 15.51013042238091 0 0 0
11 1 15.509425359377534 6.916976149476926 12.064323086750669 0 0 0
36 1 13.792397884231091 10.34796785605243 13.780263719529097 0 0 0
96 2 15.517277202129948 10.321873494388623 15.520420075614945 0 0 0
124 2 15.530115023531641 10.353770064251483 12.017957129599832 0 0 0
183 2 12.084130903249713 10.30888467560591 15.516486310546172 0 0 0
188 2 12.083373878133065 10.351646923959008 12.014131789651236 0 0 0
214 2 13.732157065071622 6.881414435770498 13.823112943339732 0 0 0
219 2 13.776578640043985 8.598016415415277 15.543527021220495 0 0 0
245 2 12.052446522241423 6.898384532780295 15.547003736303816 0 0 0
251 2 13.783458400270833 8.636117574720945 12.02521345924048 0 0 0
406 3 12.09247119572805 6.942674910025259 12.049544935153241 0 0 0
413 3 12.124528877092159 8.578565514244952 13.811579800845337 0 0 0
69 1 3.4548782693191367 13.774533626157162 17.211623263472294 0 0 -1
364 2 5.1582804898491 15.534585464397225 17.213878940224905 0 0 -1
461 3 5.168620315802318 11.938902963706441 17.236738206052806 0 0 -1
407 3 5.159304024496861 17.234898987110583 12.097763840435405 0 -1 0
55 1 3.4551920500228546 12.069696301337576 15.502420673405151 0 0 0
63 1 0.01911186954349007 13.783056862799247 13.775178908644504 0 0 0
65 1 5.178441076310245 12.06023868110326 13.783191198262818 0 0 0
94 1 1.722122503156792 12.064608933302916 13.76884175708634 0 0 0
260 2 1.770956962490178 15.538347455537554 13.812439156522252 0 0 0
261 2 1.714713734238206 13.797955108949532 15.515959662917876 0 0 0
263 2 1.7082972210554939 13.807054818255798 12.03299076809812 0 0 0
271 2 0.006103352379211529 12.029537000564622 12.018991487277612 0 0 0
344 2 5.149868077079979 15.520030937436188 13.80828939058682 0 0 0
356 2 3.4661661977630764 15.561600131498743 15.491985285079624 0 0 0
357 2 3.4420564921300705 13.834634928390258 13.798480757574746 0 0 0
359 2 5.206593086637772 13.799330479729056 12.065498973369563 0 0 0
424 3 0.024810259238803523 15.517143933583858 15.451687642228586 0 0 0
465 3 3.456304326480984 12.08577146567219 12.085845989727515 0 0 0
473 3 3.4495407876846342 15.431437704214273 12.082551538276688 0 0 0
475 3 5.196208165461105 13.836140440234242 15.471855422081546 0 0 0
476 3 6.8714198932973565 17.23590013047912 17.186586683558964 0 -1 -1
148 2 8.617169897914671 15.519123462639824 17.239002924411185 0 0 -1
41 1 8.620336273297143 17.238653083662594 12.067645852526427 0 -1 0
118 2 10.36852081331062 17.237500512076096 13.818739585889663 0 -1 0
449 3 6.923484314546714 17.20594762231705 13.830957776494298 0 -1 0
2 1 6.912027932854381 12.055895441592057 15.521765396056983 0 0 0
59 1 10.33861083487605 13.793043881688524 13.77454890557074 0 0 0
80 1 6.911931639363062 15.495864095738122 12.07389800863001 0 0 0
81 1 8.630690701331616 13.78296951642833 12.072027065861423 0 0 0
84 1 6.902461367112439 15.4993455577711 15.519034167430704 0 0 0
103 2 8.64522107145493 15.516963358674776 13.809871817980307 0 0 0
104 2 8.612450281101076 13.78401154508876 15.495076397008829 0 0 0
138 2 6.900853600760576 12.064190825597908 12.06646848372229 0 0 0
158 2 6.893897878444694 13.77930224365687 13.781475703231932 0 0 0
163 2 8.594029563730388 12.02095222274612 13.78925702288108 0 0 0
170 2 10.354456276300873 15.555325740907481 12.063485094950048 0 0 0
179 2 10.271462424055432 15.507049891002735 15.541135189568472 0 0 0
411 3 10.327448153924358 12.071132540309062 12.027622913414284 0 0 0
415 3 10.341988478744643 12.10644657125723 15.507785815593117 0 0 0
428 3 17.213128628199595 13.741113631494706 17.196061730009994 -1 0 -1
101 2 13.810801984876873 13.746882202078215 17.19307811288075 0 0 -1
211 2 15.528266503208956 12.057701625942565 17.19278421098371 0 0 -1
241 2 12.082376008023894 12.089082641037885 17.23321036028243 0 0 -1
436 3 12.099025032313477 15.494348518913311 17.165728479608333 0 0 -1
310 2 17.216347804212194 17.228837046679242 13.793970958706995 -1 -1 0
120 2 12.053155400936932 17.212771862360363 12.072419636516209 0 -1 0
427 3 13.79407623724795 17.22176858709408 13.806269008695182 0 -1 0
58 1 17.219033796731033 15.526044092251075 12.076183778069101 -1 0 0
268 2 17.219409595111124 12.079636530763823 15.533714347895556 -1 0 0
43 1 12.064576882616882 15.501418639167218 13.81339936298859 0 0 0
47 1 12.09071502093433 12.085049375142983 13.765089332036267 0 0 0
98 2 13.80947293208246 12.081779977036105 12.020168160172245 0 0 0
117 2 13.796178071629104 12.069980798841208 15.553630382064306 0 0 0
140 2 13.795236823827567 13.79866500841268 13.81221626672653 0 0 0
142 2 13.833933837482707 15.502417722633194 15.4979673802615 0 0 0
146 2 15.516190164047519 13.796611085811664 15.499640402475665 0 0 0
147 2 15.481049286804923 15.522660569250402 13.794213544490646 0 0 0
169 2 12.080064890061958 13.798352343339564 12.020479657412247 0 0 0
210 2 12.093113783820293 13.772261013630374 15.52386743222222 0 0 0
485 3 15.554913395232209 13.719998605739958 12.006241467181903 0 0 0
488 3 13.765205295544655 15.522973250686375 12.03283055528135 0 0 0
493 3 15.468294662507427 12.100249652321631 13.833630862493518 0 0 0

Velocities

74 0 0 0
83 0 0 0
255 0 0 0
256 0 0 0
258 0 0 0
289 0 0 0
290 0 0 0
291 0 0 0
293 0 0 0
294 0 0 0
295 0 0 0
303 0 0 0
306 0 0 0
307 0 0 0
317 0 0 0
319 0 0 0
320 0 0 0
321 0 0 0
437 0 0 0
469 0 0 0
479 0 0 0
481 0 0 0
14 0 0 0
77 0 0 0
85 0 0 0
92 0 0 0
102 0 0 0
111 0 0 0
113 0 0 0
351 0 0 0
353 0 0 0
354 0 0 0
355 0 0 0
382 0 0 0
383 0 0 0
384 0 0 0
444 0 0 0
452 0 0 0
453 0 0 0
22 0 0 0
33 0 0 0
37 0 0 0
304 0 0 0
318 0 0 0
51 0 0 0
52 0 0 0
56 0 0 0
87 0 0 0
89 0 0 0
99 0 0 0
100 0 0 0
109 0 0 0
110 0 0 0
191 0 0 0
192 0 0 0
193 0 0 0
195 0 0 0
196 0 0 0
197 0 0 0
199 0 0 0
207 0 0 0
209 0 0 0
431 0 0 0
432 0 0 0
472 0 0 0
15 0 0 0
18 0 0 0
26 0 0 0
278 0 0 0
279 0 0 0
280 0 0 0
281 0 0 0
282 0 0 0
323 0 0 0
325 0 0 0
335 0 0 0
336 0 0 0
337 0 0 0
399 0 0 0
400 0 0 0
403 0 0 0
418 0 0 0
486 0 0 0
492 0 0 0
23 0 0 0
25 0 0 0
27 0 0 0
134 0 0 0
135 0 0 0
216 0 0 0
217 0 0 0
221 0 0 0
240 0 0 0
366 0 0 0
367 0 0 0
368 0 0 0
370 0 0 0
371 0 0 0
372 0 0 0
421 0 0 0
338 0 0 0
339 0 0 0
17 0 0 0
42 0 0 0
72 0 0 0
184 0 0 0
185 0 0 0
186 0 0 0
189 0 0 0
201 0 0 0
215 0 0 0
220 0 0 0
226 0 0 0
238 0 0 0
242 0 0 0
244 0 0 0
419 0 0 0
490 0 0 0
434 0 0 0
44 0 0 0
45 0 0 0
46 0 0 0
48 0 0 0
64 0 0 0
68 0 0 0
95 0 0 0
267 0 0 0
288 0 0 0
324 0 0 0
326 0 0 0
361 0 0 0
362 0 0 0
363 0 0 0
401 0 0 0
429 0 0 0
433 0 0 0
463 0 0 0
466 0 0 0
352 0 0 0
474 0 0 0
1 0 0 0
29 0 0 0
66 0 0 0
71 0 0 0
133 0 0 0
136 0 0 0
137 0 0 0
155 0 0 0
161 0 0 0
162 0 0 0
180 0 0 0
232 0 0 0
239 0 0 0
439 0 0 0
440 0 0 0
448 0 0 0
450 0 0 0
50 0 0 0
97 0 0 0
82 0 0 0
4 0 0 0
30 0 0 0
31 0 0 0
32 0 0 0
73 0 0 0
105 0 0 0
149 0 0 0
151 0 0 0
153 0 0 0
168 0 0 0
435 0 0 0
438 0 0 0
477 0 0 0
494 0 0 0
3 0 0 0
8 0 0 0
9 0 0 0
24 0 0 0
62 0 0 0
91 0 0 0
254 0 0 0
276 0 0 0
284 0 0 0
287 0 0 0
299 0 0 0
311 0 0 0
313 0 0 0
314 0 0 0
316 0 0 0
408 0 0 0
441 0 0 0
495 0 0 0
499 0 0 0
107 0 0 0
108 0 0 0
121 0 0 0
122 0 0 0
230 0 0 0
347 0 0 0
350 0 0 0
365 0 0 0
378 0 0 0
379 0 0 0
380 0 0 0
381 0 0 0
446 0 0 0
447 0 0 0
454 0 0 0
39 0 0 0
302 0 0 0
315 0 0 0
482 0 0 0
67 0 0 0
70 0 0 0
78 0 0 0
172 0 0 0
190 0 0 0
198 0 0 0
203 0 0 0
205 0 0 0
208 0 0 0
231 0 0 0
423 0 0 0
430 0 0 0
462 0 0 0
468 0 0 0
20 0 0 0
272 0 0 0
273 0 0 0
275 0 0 0
277 0 0 0
322 0 0 0
329 0 0 0
331 0 0 0
332 0 0 0
376 0 0 0
388 0 0 0
395 0 0 0
396 0 0 0
397 0 0 0
404 0 0 0
420 0 0 0
489 0 0 0
19 0 0 0
128 0 0 0
130 0 0 0
132 0 0 0
145 0 0 0
212 0 0 0
213 0 0 0
233 0 0 0
237 0 0 0
252 0 0 0
298 0 0 0
457 0 0 0
458 0 0 0
459 0 0 0
334 0 0 0
10 0 0 0
13 0 0 0
16 0 0 0
28 0 0 0
119 0 0 0
222 0 0 0
229 0 0 0
235 0 0 0
247 0 0 0
249 0 0 0
250 0 0 0
417 0 0 0
484 0 0 0
265 0 0 0
53 0 0 0
54 0 0 0
253 0 0 0
262 0 0 0
264 0 0 0
266 0 0 0
269 0 0 0
358 0 0 0
360 0 0 0
391 0 0 0
393 0 0 0
460 0 0 0
464 0 0 0
470 0 0 0
471 0 0 0
496 0 0 0
126 0 0 0
349 0 0 0
445 0 0 0
76 0 0 0
123 0 0 0
129 0 0 0
131 0 0 0
150 0 0 0
152 0 0 0
154 0 0 0
166 0 0 0
171 0 0 0
175 0 0 0
176 0 0 0
236 0 0 0
443 0 0 0
61 0 0 0
202 0 0 0
204 0 0 0
206 0 0 0
49 0 0 0
274 0 0 0
21 0 0 0
60 0 0 0
125 0 0 0
156 0 0 0
157 0 0 0
159 0 0 0
160 0 0 0
173 0 0 0
174 0 0 0
187 0 0 0
234 0 0 0
243 0 0 0
487 0 0 0
500 0 0 0
257 0 0 0
259 0 0 0
292 0 0 0
305 0 0 0
35 0 0 0
38 0 0 0
88 0 0 0
283 0 0 0
285 0 0 0
286 0 0 0
296 0 0 0
297 0 0 0
300 0 0 0
301 0 0 0
308 0 0 0
309 0 0 0
312 0 0 0
333 0 0 0
340 0 0 0
341 0 0 0
342 0 0 0
343 0 0 0
410 0 0 0
414 0 0 0
491 0 0 0
498 0 0 0
86 0 0 0
114 0 0 0
385 0 0 0
451 0 0 0
34 0 0 0
106 0 0 0
224 0 0 0
225 0 0 0
228 0 0 0
345 0 0 0
346 0 0 0
348 0 0 0
373 0 0 0
374 0 0 0
375 0 0 0
377 0 0 0
442 0 0 0
455 0 0 0
467 0 0 0
112 0 0 0
57 0 0 0
75 0 0 0
90 0 0 0
115 0 0 0
116 0 0 0
177 0 0 0
178 0 0 0
181 0 0 0
182 0 0 0
194 0 0 0
200 0 0 0
223 0 0 0
227 0 0 0
422 0 0 0
426 0 0 0
478 0 0 0
12 0 0 0
79 0 0 0
386 0 0 0
40 0 0 0
93 0 0 0
270 0 0 0
327 0 0 0
387 0 0 0
389 0 0 0
390 0 0 0
392 0 0 0
394 0 0 0
398 0 0 0
402 0 0 0
405 0 0 0
480 0 0 0
483 0 0 0
497 0 0 0
369 0 0 0
412 0 0 0
127 0 0 0
139 0 0 0
141 0 0 0
143 0 0 0
144 0 0 0
164 0 0 0
165 0 0 0
167 0 0 0
246 0 0 0
248 0 0 0
409 0 0 0
416 0 0 0
456 0 0 0
5 0 0 0
218 0 0 0
328 0 0 0
330 0 0 0
425 0 0 0
6 0 0 0
7 0 0 0
11 0 0 0
36 0 0 0
96 0 0 0
124 0 0 0
183 0 0 0
188 0 0 0
214 0 0 0
219 0 0 0
245 0 0 0
251 0 0 0
406 0 0 0
413 0 0 0
69 0 0 0
364 0 0 0
461 0 0 0
407 0 0 0
55 0 0 0
63 0 0 0
65 0 0 0
94 0 0 0
260 0 0 0
261 0 0 0
263 0 0 0
271 0 0 0
344 0 0 0
356 0 0 0
357 0 0 0
359 0 0 0
424 0 0 0
465 0 0 0
473 0 0 0
475 0 0 0
476 0 0 0
148 0 0 0
41 0 0 0
118 0 0 0
449 0 0 0
2 0 0 0
59 0 0 0
80 0 0 0
81 0 0 0
84 0 0 0
103 0 0 0
104 0 0 0
138 0 0 0
158 0 0 0
163 0 0 0
170 0 0 0
179 0 0 0
411 0 0 0
415 0 0 0
428 0 0 0
101 0 0 0
211 0 0 0
241 0 0 0
436 0 0 0
310 0 0 0
120 0 0 0
427 0 0 0
58 0 0 0
268 0 0 0
43 0 0 0
47 0 0 0
98 0 0 0
117 0 0 0
140 0 0 0
142 0 0 0
146 0 0 0
147 0 0 0
169 0 0 0
210 0 0 0
485 0 0 0
488 0 0 0
493 0 0 0
