LAMMPS data file via write_data, version 29 Aug 2024, timestep = 78, units = metal

500 atoms
3 atom types

0.003537445541322172 17.596462554458675 xlo xhi
0.011617022214193194 17.58838297778581 ylo yhi
0.017058871413339886 17.582941128586683 zlo zhi
1.0762665083426475e-15 1.075600074022331e-15 1.075600074022331e-15 xy xz yz

Masses

1 58.71
2 55.845
3 51.9961

Atoms # atomic

96 1 3.5295434102305343 0.022404016944139946 3.5414341919060153 0 0 0
130 1 3.519518257999732 3.508677260052461 3.5501323161872316 0 0 0
141 1 1.7656541686277627 3.5178684237368354 1.7602358431587808 0 0 0
150 1 1.7823354888735223 1.763859771076542 3.526933593243346 0 0 0
337 2 1.7760583867372897 0.026431724666905545 1.776259427690386 0 0 0
396 3 3.5345531013217393 1.7489694447826853 1.7625128662480578 0 0 0
450 3 0.017723034270838794 1.7644249607979425 1.7601056367938688 0 0 0
93 1 5.302001693173442 1.7573706623705834 3.556767062274965 0 0 0
98 1 5.293292098514161 0.03696493203104734 1.7808149149950632 0 0 0
260 1 7.047376841325708 0.034115140868461416 0.030461873991923866 0 0 0
273 2 7.049986675667359 1.771027356206516 1.7761739943611705 0 0 0
406 3 5.262806055935326 3.5298210826155905 1.7821374901854248 0 0 0
440 3 7.035212644348009 3.529298200670349 3.550364370249765 0 0 0
259 1 8.799618840106334 0.02310723176984968 1.779684923576233 0 0 0
266 2 8.791684154412549 1.7557211433875235 3.5206933431089085 0 0 0
272 2 8.799578497658542 1.7822749711454875 0.040107292688131846 0 0 0
200 1 10.583010421529028 3.5137206179819125 0.032207724600329654 0 0 0
210 1 10.574551686337124 0.044370983875957073 3.532923871867299 0 0 0
211 1 10.53930339915118 1.774917137335673 1.7830458189385112 0 0 0
246 1 8.810661480239121 3.529306381583128 1.763914720038376 0 0 0
314 2 12.318660427885288 1.7716281778518155 3.537174575706299 0 0 0
345 2 12.303184349857036 3.548314211449225 1.7675507985612708 0 0 0
346 2 10.558845905397352 3.522862266500413 3.5026548911741315 0 0 0
362 2 10.560995786610746 0.04706117592619108 0.03109739265145592 0 0 0
431 3 12.354954145349494 0.013188042599722281 1.7700422381280194 0 0 0
142 1 17.594358866527926 3.5504453672807097 0.022411038238793757 -1 0 0
152 1 17.58443753362636 0.020640020269680648 3.528870428217261 -1 0 0
492 3 17.574430938712755 3.514952654009672 3.522266458077296 -1 0 0
25 1 15.81011075140668 1.7576938043434605 3.5358439737149734 0 0 0
33 1 15.83223359653417 3.5530714681143576 1.7763154374674703 0 0 0
40 1 14.073881574041797 0.025355264579083398 3.5615590106462425 0 0 0
328 2 14.089260063987256 3.551533390086626 3.5288072649390982 0 0 0
374 3 14.075425689232407 1.821980985849523 1.780970807931276 0 0 0
99 1 3.510143050792596 5.285084648021256 1.7636311156364466 0 0 0
122 1 3.5224643403877023 7.050858091590202 3.5370985717707444 0 0 0
476 3 1.7377642853179756 7.026053501928365 1.7978140512975223 0 0 0
486 3 1.7616614570819724 5.251133853625775 3.515089186802115 0 0 0
172 1 1.7695574043593054 8.781632841979093 3.54807784261785 0 0 0
448 3 7.056384187661881 8.788426171627519 1.7665913383375331 0 0 0
412 3 5.291010448135985 8.781686999222512 3.5711233421619895 0 0 0
247 1 7.071005073353016 5.261699638354858 1.7266621871686325 0 0 0
332 2 5.269250799054609 5.278297415978271 3.5293387710276676 0 0 0
411 3 5.265716862217882 7.010134000262371 1.7437678568584618 0 0 0
438 3 7.0877545555837775 6.981751854702336 3.5377092923939193 0 0 0
263 2 12.333772783729723 8.79190357499767 3.540479933878514 0 0 0
5 1 12.336895166699366 8.794526293396736 0.017131291667240024 0 0 0
449 3 8.8073648904598 8.741390958863308 0.043424310345917816 0 0 0
11 1 12.319043093267831 5.269572372776256 3.5154665474812092 0 0 0
193 1 8.823328859683652 7.00392867764218 1.7677487651240182 0 0 0
199 1 10.541671037339196 5.263946924736646 1.7507171056940167 0 0 0
245 1 8.80428915253209 5.278726198248455 0.0320581090837051 0 0 0
305 2 8.830073089552439 5.258659194433478 3.5275223894328778 0 0 0
424 3 10.561357364156265 7.022116667238928 3.542218576771775 0 0 0
425 3 12.332798166623203 7.0527665320803905 1.7477182956324546 0 0 0
393 3 15.82789278429543 8.767234217956467 3.5513857296380564 0 0 0
51 1 14.113750471743067 8.790283903380837 1.7578684737920154 0 0 0
175 1 17.575335580361347 7.0244300294332565 3.55388782968445 -1 0 0
300 2 17.564915028858433 5.28194450030567 1.7604122211196984 -1 0 0
302 2 17.59557068556631 8.781746104680023 1.760782230134673 -1 0 0
32 1 14.10197839092908 5.281440675579408 1.7745445352636788 0 0 0
35 1 15.838313966911253 5.294644451345833 0.027856564397070637 0 0 0
37 1 15.816233638770747 5.315657366783261 3.5236778653195433 0 0 0
52 1 15.844904586374808 7.042793631739229 1.765468558668801 0 0 0
341 2 14.076671071642776 7.0235780322575465 3.528107051666763 0 0 0
95 1 3.5438523269155446 1.7937030362458584 5.2719144220972325 0 0 0
285 2 1.7569555125174832 3.503024325733335 5.261610418121746 0 0 0
323 2 3.5606920980197083 3.5196174211097166 7.026370045827899 0 0 0
397 3 3.5081658002200617 0.02942808192354278 7.035752356589682 0 0 0
471 3 1.7311060832578402 1.7925663289530855 7.034881289491847 0 0 0
92 1 5.331328521677212 1.7830968761991537 7.021617160139172 0 0 0
94 1 5.281733155939455 0.04009690365857745 5.265459983757586 0 0 0
129 1 5.275404724320176 3.522503091029545 5.3110580412893915 0 0 0
243 1 7.035300070226709 3.503942706204124 7.048741069360692 0 0 0
256 1 7.0655688602422675 0.023039475657678016 7.051090199470924 0 0 0
257 1 7.036779120348541 1.7485100827288431 5.297070266181319 0 0 0
255 1 7.062694477809191 1.784874550408153 8.799165436082976 0 0 0
316 2 5.30785118999038 3.530044734627206 8.798393511557801 0 0 0
242 1 8.805923247941188 1.7657492774815322 7.060040787407361 0 0 0
322 2 10.543318982238992 0.013538810398138312 7.049749013400149 0 0 0
326 2 12.3091735528743 0.015021960514544085 5.271949159049381 0 0 0
331 2 10.549391953691867 1.7649950195434188 5.283791370364591 0 0 0
339 2 10.566365887493934 3.537209508377892 7.080060978140826 0 0 0
433 3 12.306753787793912 1.758938045402763 7.054828068325086 0 0 0
437 3 12.320980158511052 3.5357292023938185 5.27377714578016 0 0 0
441 3 8.814900981406591 3.5154448831080516 5.310026661955825 0 0 0
254 1 8.808979089222031 0.03950193005531421 8.798026866603248 0 0 0
14 1 12.326930558418344 3.541908201774505 8.797542778298244 0 0 0
198 1 10.550418521746773 1.763401339987792 8.78103679924305 0 0 0
149 1 17.562679875087085 0.012145791517712376 7.040415410087756 -1 0 0
151 1 17.568652715626197 1.7619038240203497 5.278291644893432 -1 0 0
288 2 17.564560559142567 3.5210568486538523 7.017441090226546 -1 0 0
27 1 15.81437996133273 1.7693738005800064 7.044947045173751 0 0 0
38 1 14.062840705841586 3.5308624264171975 7.049570712276742 0 0 0
353 2 14.088286293772448 1.7692501268644136 5.293957995681327 0 0 0
354 2 15.840650756039317 0.02364193913651207 5.284720971251739 0 0 0
356 2 14.095144468515855 0.01984590622758551 7.0362021278745885 0 0 0
410 3 15.819920861405745 3.533226976165367 5.2853065851787 0 0 0
408 3 15.815868206000516 3.552603268640427 8.774574344313294 0 0 0
329 2 3.513637752326462 8.79898296774281 5.276562561293951 0 0 0
174 1 0.005265567142377466 8.794973438072239 5.273152133816969 0 0 0
173 1 1.7434517904283209 7.050753282324894 5.265509290608573 0 0 0
407 3 3.5375475718362566 5.298629392688791 5.261658453085287 0 0 0
413 3 3.5238861230159997 7.041247180001272 7.052691954776089 0 0 0
493 3 1.7367311063889217 5.248458430721407 7.008898668048045 0 0 0
110 1 5.289626482473576 7.0284579432443826 5.307890168294242 0 0 0
128 1 5.297811746924428 5.263989032057982 7.043328546223349 0 0 0
244 1 7.018673577329408 5.2775099457020564 5.2853294485994455 0 0 0
452 3 7.041281453413084 7.053819833341505 7.040604926064404 0 0 0
453 3 7.0125043464515615 8.768305629782265 8.795416412759835 0 0 0
443 3 8.7999727258128 5.295990813554416 7.023495582313482 0 0 0
189 1 8.83550848691343 8.765576122482962 7.002439832100692 0 0 0
191 1 8.814738792377511 7.052379277340512 5.287114073824787 0 0 0
17 1 12.336139256062928 7.035996960765624 5.283836696949215 0 0 0
269 2 10.586062509328952 7.043665614357369 7.016194818490665 0 0 0
2 1 10.584114456177295 5.283118678250697 5.292544924497724 0 0 0
15 1 12.335278895508527 5.284479751875367 7.0352243990913905 0 0 0
3 1 10.576572263344895 8.773621768183869 8.782326483702375 0 0 0
13 1 10.579721424820875 5.302967047347339 8.779965010749754 0 0 0
303 2 12.330824833459681 7.0221826921064645 8.775890129542507 0 0 0
320 2 14.044609846408257 5.287145467084213 8.797564899025478 0 0 0
343 2 14.087494081576542 8.791202333291 5.305827802409969 0 0 0
333 2 15.801298711515017 5.2884312499845505 7.01917656352908 0 0 0
54 1 14.07499169893118 7.012118996366957 7.029533421529411 0 0 0
53 1 15.825866078999132 7.038048944032749 5.294330409905281 0 0 0
36 1 14.074849083941148 5.305437839786469 5.282535736420422 0 0 0
140 1 17.570929287880567 5.299631589333187 5.273076306720911 -1 0 0
480 3 17.571845070950406 7.05634558350096 7.0181961165224624 -1 0 0
138 1 1.7594782015875692 3.569859602886446 12.31226606374121 0 0 0
145 1 1.7459345074257084 1.7649228107546138 10.5705379971251 0 0 0
318 2 3.542269907241722 3.55389674249727 10.592865349619675 0 0 0
398 3 3.552210413421866 1.7844664970640973 8.819801946685457 0 0 0
402 3 3.470268118912943 1.7860195228541613 12.311839259934773 0 0 0
484 3 0.027993783151146423 1.7709254305350324 12.338258260574067 0 0 0
491 3 1.7957728284418915 3.557716068814748 8.831472992607248 0 0 0
91 1 5.306817979774414 1.83241265696047 10.581188813669817 0 0 0
127 1 5.300545274307379 3.550970171575456 12.307395740212353 0 0 0
197 1 7.031526975422588 3.5334943644957892 10.563964476839136 0 0 0
209 1 8.786286174080832 3.524156933740203 8.801969851068534 0 0 0
252 1 7.054614569370815 1.788261289646085 12.331991863154098 0 0 0
403 3 5.247243626245344 0.01608542096372207 12.310273296673284 0 0 0
404 3 7.047967398134513 0.046330170246332895 10.573026927557814 0 0 0
445 3 8.787423137893128 3.5148539909845935 12.29187717941517 0 0 0
251 1 8.806046030696413 1.7670301071919554 10.549597550139335 0 0 0
299 2 8.815818904403667 0.044579740356649765 12.325178319113776 0 0 0
205 1 12.317518659560609 0.01936532499828905 12.3300197753358 0 0 0
206 1 10.552414707410087 1.7383451005066142 12.312887217579133 0 0 0
207 1 10.587040045233675 0.06697808219218968 10.53838851345766 0 0 0
208 1 12.324991787474824 0.014439256428422862 8.80420602069241 0 0 0
338 2 12.315320030794835 1.7646411176683543 10.545207757140012 0 0 0
434 3 12.331357458093947 3.5238820428735758 12.305691986756774 0 0 0
436 3 10.552147231285803 3.5351103424740318 10.497061770996948 0 0 0
482 3 17.586527806636088 1.7500255342039595 8.802917509975876 -1 0 0
494 3 17.575559828576665 3.5398536582026368 10.577089222850644 -1 0 0
26 1 14.058622919547647 1.76711054478373 8.806529587684805 0 0 0
28 1 14.074790067350808 1.7681952120066105 12.305207259402781 0 0 0
42 1 15.81946968675517 3.5462235848796206 12.32739893978049 0 0 0
334 2 14.076598616995833 3.533913396724558 10.555808382230177 0 0 0
358 2 14.056989723460843 0.014650792951235439 10.576559860433406 0 0 0
365 2 15.81591620060876 1.7764286242053633 10.572138900662143 0 0 0
117 1 3.525415860047289 8.797480037784867 12.31029558572225 0 0 0
118 1 3.5366550042349045 7.021370617876436 10.548598671217041 0 0 0
137 1 1.801137018618321 5.281532037732252 10.596593447663663 0 0 0
139 1 0.004603217375314612 5.292998301669304 12.337495211178828 0 0 0
276 2 1.7791904357255746 7.0223519037303435 8.811949798421221 0 0 0
278 2 1.781274167818171 7.033995561903248 12.339681983868616 0 0 0
315 2 3.5507554320109915 5.279791648807824 8.808232658950786 0 0 0
319 2 3.5318402986291577 5.310191077561497 12.332266362111946 0 0 0
490 3 1.760594036705787 8.792236764710722 10.554904457009673 0 0 0
115 1 5.270510680141728 8.77740046353905 10.561807124731516 0 0 0
116 1 5.276969569910196 7.05668665256616 12.307534719974301 0 0 0
120 1 5.2425906351556115 7.047457994421362 8.816194015528474 0 0 0
188 1 7.007697227939549 8.793834092622514 12.32899559132528 0 0 0
195 1 8.78791171209061 5.310685334479472 10.560860947161894 0 0 0
196 1 7.0307424259593985 5.298489681342491 12.338107293249573 0 0 0
289 2 7.021350996607149 7.030658004771326 10.59136956166882 0 0 0
321 2 5.278925067498538 5.291731460604605 10.575577520324805 0 0 0
442 3 7.032896184692094 5.306017372425277 8.825964711160342 0 0 0
456 3 8.798930586082838 8.768213733639936 10.576420881537954 0 0 0
176 1 8.808920635982235 7.047076080523266 12.301095887838116 0 0 0
190 1 8.862113444699043 7.050509687057053 8.813870439607047 0 0 0
22 1 12.342491490525978 5.2856625912355035 10.540078033796652 0 0 0
287 2 12.333504855296388 7.0438955404549155 12.317726271627144 0 0 0
292 2 10.584641151044794 7.0292972514855885 10.547636299219729 0 0 0
435 3 10.574748154644753 5.3283793923942815 12.329135169647158 0 0 0
472 3 17.592771113110253 7.0145298813414065 10.601577099180437 -1 0 0
489 3 17.583440668954562 5.315643637809364 8.802347133718063 -1 0 0
24 1 14.085349025506309 5.3029202782422145 12.31263345046475 0 0 0
43 1 15.793581654895222 5.271987491858078 10.58006174705102 0 0 0
46 1 15.824427398406153 7.031255274632489 12.314200933290083 0 0 0
47 1 14.086217209995405 8.797935631665753 12.297642011574252 0 0 0
48 1 14.037946093722724 7.020191151685845 10.569330121693163 0 0 0
487 3 15.78698881067924 7.060820907794601 8.817084239633518 0 0 0
132 1 1.780288017677685 0.050517806524250954 15.85420811703243 0 0 0
134 1 1.7395330382688783 3.5244039988490057 15.818645998457324 0 0 0
144 1 0.01898328983411138 1.7876236185478809 15.825688238914513 0 0 0
308 2 1.7553858119870502 1.7808678740404966 14.08901169358373 0 0 0
335 2 3.508365388437806 1.7586330031167818 15.833641800761281 0 0 0
409 3 3.524074986114925 3.5496592367221504 14.0888739254509 0 0 0
88 1 3.529296712663384 0.030113519796744495 17.56841539583906 0 0 -1
153 1 1.7444053676554707 1.7750418438174387 17.554954263951842 0 0 -1
405 3 3.4995186115431873 3.537724275399106 17.544844454132527 0 0 -1
89 1 5.257499511009872 0.03471015904814465 15.828539165907431 0 0 0
250 1 7.0577620031514074 0.01875563702286464 14.067892171986028 0 0 0
283 2 7.041198220971825 3.5429581269740833 14.065531240156083 0 0 0
311 2 7.04571785950786 1.7634902345094545 15.822043806425505 0 0 0
324 2 5.299390536077515 3.5395338046929004 15.834100469527435 0 0 0
392 3 5.307263670623357 1.7689056132777474 14.079527861622285 0 0 0
446 3 8.795590884244906 3.527996712846434 15.8353668039586 0 0 0
97 1 5.316401054926221 1.759977453836669 17.55510565640413 0 0 -1
248 1 7.045855006114477 3.51717534771781 17.572639889022344 0 0 -1
249 1 8.803834549151679 1.758777514796594 14.058463760948912 0 0 0
8 1 12.33135391733946 3.5346777102718394 15.83911413095334 0 0 0
201 1 12.299501417763869 1.7533708518762803 14.061356422550814 0 0 0
202 1 12.302481934082891 0.028659587696791132 15.810877960497063 0 0 0
203 1 10.566706153098597 1.7832834254401502 15.840645528625572 0 0 0
204 1 10.566034866860802 0.03337755201070571 14.072892497395042 0 0 0
432 3 10.580757944394051 3.521980407341494 14.09129744899775 0 0 0
439 3 8.807155993990513 0.057556566250896925 15.819455382111636 0 0 0
360 2 12.309165823567438 1.7769467889157236 17.565082128102862 0 0 -1
414 3 14.053152084858258 1.766121633703915 15.783122086271826 0 0 0
136 1 17.59491453717543 3.538160001257089 14.071348321176096 -1 0 0
477 3 17.58556803812433 0.012269145786483075 14.143837003665643 -1 0 0
31 1 15.820144204240586 1.7803660080313004 14.055839473512497 0 0 0
44 1 14.069081723809436 3.5449768836711764 14.049775654968903 0 0 0
400 3 15.843937616055324 3.578219273216056 15.802538816650916 0 0 0
361 2 14.076783893865864 3.567067019655336 17.57088988577093 0 0 -1
372 3 15.83169989424057 1.7731297787094698 17.54997674887606 0 0 -1
169 1 0.024256521647731236 7.040160726976539 14.059646783261591 0 0 0
167 1 1.772373871583374 7.027606003870685 15.800717710953371 0 0 0
166 1 1.7725600620877915 8.779146007558658 14.069283226828764 0 0 0
135 1 0.03528548722775522 5.294878356950346 15.829193717016468 0 0 0
133 1 1.761783898139359 5.280407261134652 14.078248896891129 0 0 0
126 1 3.519086343110559 5.297715283278487 15.831700055413066 0 0 0
114 1 3.5217711964134346 7.055428253635235 14.060258586972292 0 0 0
125 1 3.516725764390139 7.032772028378408 17.581728390811133 0 0 -1
293 2 1.7532395489669426 5.286672366526619 17.56586981303164 0 0 -1
479 3 1.7866817823853598 8.780300616904102 17.562732746693726 0 0 -1
185 1 7.023291466287987 8.773369705252355 15.828103774481713 0 0 0
112 1 5.2871127248431415 8.791229114144503 14.058056510605303 0 0 0
458 3 8.779383542808947 8.764895768759441 14.064215562996681 0 0 0
380 3 5.272988569048133 7.048572880613997 15.820672493519112 0 0 0
325 2 5.280255280056619 5.306890399343881 14.06443152964895 0 0 0
298 2 7.043397625235437 5.297884667285909 15.829589370936917 0 0 0
186 1 7.06242918928397 7.030057378044433 14.05007238430937 0 0 0
131 1 5.293486353364606 5.271930019764736 17.5729494869211 0 0 -1
123 1 5.253472516969853 8.788668309281965 17.576802798390766 0 0 -1
194 1 7.056817569470978 7.0117210731256945 17.55779387251809 0 0 -1
72 1 10.573973751150948 8.775467997842272 15.840824420955753 0 0 0
455 3 12.34127912625133 8.776484203074629 14.088194068760455 0 0 0
330 2 10.588540042242276 5.290073443303271 15.861445785242815 0 0 0
286 2 10.566548049399538 7.045213932130399 14.09834147102006 0 0 0
184 1 8.82045825345467 7.016681308537443 15.82655536937009 0 0 0
57 1 12.325488184262882 7.041980251133215 15.843362229772953 0 0 0
18 1 12.333772796542611 5.291749021812779 14.099403196282575 0 0 0
296 2 8.801586507749017 5.305416439316866 14.06942959304658 0 0 0
9 1 10.576867646063668 7.026402205012108 17.576511364438304 0 0 -1
253 1 12.325133397675444 5.262515349557953 17.58279868489042 0 0 -1
474 3 15.81820373619365 7.033269493448322 15.792427439398788 0 0 0
462 3 15.827153121524113 8.799656949160141 14.053849181126685 0 0 0
49 1 15.84913732718599 5.281260353672891 14.038821965613414 0 0 0
45 1 14.054277131835637 5.296419106959148 15.818726165732434 0 0 0
41 1 14.055991506514163 7.009352623408667 14.047352714455727 0 0 0
340 2 15.835054463207566 8.787604307077702 17.582195422930898 0 0 -1
143 1 17.577367686142225 7.024671817313035 17.56755249960636 -1 0 -1
50 1 14.081605158072644 7.026791285196292 17.581650742511346 0 0 -1
111 1 3.5489387388198446 10.56101170424144 0.01757019060272993 0 0 0
124 1 3.4923913436751026 8.815249681256505 1.7884113153024856 0 0 0
161 1 1.7872707764212963 12.31389839538984 3.535566560387885 0 0 0
163 1 1.7637723844476247 12.290565002838711 0.03260265731076413 0 0 0
164 1 1.756079634937224 10.55779014675389 1.770148225431529 0 0 0
165 1 3.504896248826158 12.29801654732462 1.7707703481020656 0 0 0
240 1 3.4855854021251553 10.559892309985004 3.558596698783256 0 0 0
348 2 0.012445536908239203 12.312876852616094 1.7842539091561385 0 0 0
497 3 0.04416096420702792 10.536032018307496 3.5161064593976517 0 0 0
181 1 7.058997526108477 10.58145338193651 3.5540513156599487 0 0 0
183 1 7.039479978301664 12.351988227168865 1.783302280381996 0 0 0
237 1 5.261822795227082 12.334664894086254 3.5387844132461708 0 0 0
241 1 5.2663635868891765 12.32580938326754 0.027358986458468213 0 0 0
370 3 5.27407922158954 10.5786145432083 1.8217001994440698 0 0 0
460 3 8.79071757437715 12.336768654452197 0.045683311386690725 0 0 0
182 1 8.809983632464371 10.5634976034691 1.8157798883037994 0 0 0
290 2 8.805025717433233 8.803628736594808 3.5367278151655377 0 0 0
417 3 8.81072844240151 12.319876710538429 3.5313636475629915 0 0 0
4 1 10.555064405696953 8.803493107040314 1.7799637280979117 0 0 0
58 1 10.56658053784733 12.324081403065788 1.7588791834623567 0 0 0
63 1 12.314012950986156 12.301172562318996 3.546261369804041 0 0 0
294 2 10.570291555633071 10.540269535971845 3.5284074786439685 0 0 0
451 3 12.323459762713856 10.55191132258514 1.771092100710139 0 0 0
154 1 17.584780995543166 10.554125584143089 0.019353587704029004 -1 0 0
34 1 14.079120485296876 10.536176546291076 0.02160871546078662 0 0 0
83 1 15.829777347636947 12.318573992088908 3.522312151188346 0 0 0
364 2 14.072540626178872 12.297894867046093 1.7693746803451742 0 0 0
366 2 15.84669917910286 10.54012924211919 1.7737227840922638 0 0 0
463 3 14.08153029133258 10.551367044297981 3.539828270669983 0 0 0
475 3 15.838819489646395 12.322353506645575 0.03551826966201632 0 0 0
106 1 1.757518072094894 15.85405004746068 3.537479412732838 0 0 0
226 1 3.5528884585052194 14.055915745100107 3.5474625984974195 0 0 0
228 1 3.530179208321642 14.041517467914765 0.03742160987582812 0 0 0
376 3 3.537404011052334 15.828888248409978 1.8155786808277017 0 0 0
464 3 0.004053534803045159 15.82636991772808 1.7595975686444298 0 0 0
483 3 1.7541920678903233 14.043810387567348 1.8074682816555874 0 0 0
258 1 7.029147311226056 17.586907479478164 3.518970313014666 0 -1 0
217 1 7.039493561279134 14.103644218870341 3.518569838874512 0 0 0
219 1 8.785405715030413 14.105539441629212 1.7623547627157088 0 0 0
227 1 5.292451652452562 14.0461042793468 1.797503120504383 0 0 0
274 2 7.025714831544906 14.082674608282598 0.04474109667190351 0 0 0
277 2 7.0426315734272755 15.843586799412916 1.7890194412000244 0 0 0
280 2 5.283841173716491 15.840424689350248 3.550880899190144 0 0 0
378 3 5.274110565847526 15.843155958507547 0.04883148026673772 0 0 0
56 1 12.31551224699608 15.860661747221226 0.022803597995359515 0 0 0
75 1 12.309414894950654 15.86546200067286 3.5415677347091195 0 0 0
218 1 8.802983926606576 15.861888617981052 0.061044243252772835 0 0 0
265 2 10.56250971721965 15.868967405023795 1.7666146268964371 0 0 0
267 2 10.555977699678456 14.081125662392939 0.035336787324758874 0 0 0
282 2 8.803959825093534 15.858084650270294 3.5094201143324777 0 0 0
389 3 10.551226855297223 14.113746166789982 3.4958730973363705 0 0 0
391 3 12.331743220198868 14.058659868827911 1.74474644731908 0 0 0
373 3 15.812099258350242 17.5532547456739 1.7722343479456653 0 -1 0
108 1 17.56422589357103 14.091422530996505 3.512544047830403 -1 0 0
21 1 15.83406083904716 15.8363235999401 3.5516056252985067 0 0 0
61 1 14.075359418700213 15.81978734683786 1.7775139259723434 0 0 0
295 2 15.834505589277336 14.090422927221432 1.7693482227563209 0 0 0
297 2 14.091252381372831 14.082205807259598 0.018037576865713806 0 0 0
500 3 14.068910889048565 14.07529127955049 3.5156575607121643 0 0 0
159 1 1.7490720437861202 12.283150538306552 7.056981069770707 0 0 0
162 1 1.7689567434572202 10.549187525022043 5.311504176113192 0 0 0
239 1 3.5200544724285545 12.281290267706227 5.281622249465987 0 0 0
355 2 3.5379800261140497 10.573689561592799 7.044267835897108 0 0 0
467 3 1.7534515501512946 8.817763299337608 7.053100987451696 0 0 0
171 1 0.00853627461554894 8.81174520757456 8.792526569004622 0 0 0
119 1 5.263575186584507 8.801664733082719 7.026760011132047 0 0 0
192 1 7.047979525852202 8.801817886983537 5.28769658965743 0 0 0
234 1 5.2785715363971635 12.312373138648615 7.0445228781480616 0 0 0
238 1 5.265913316287261 10.555069764601841 5.293539034141505 0 0 0
418 3 7.039722044962794 10.546961189359672 7.045076657306223 0 0 0
420 3 8.780002314426568 12.34527982341204 7.032029110723911 0 0 0
427 3 7.017385305691783 12.346074248064202 5.275704486707887 0 0 0
180 1 8.807319497760657 10.512707699824931 5.27068385975565 0 0 0
1 1 10.572988846977442 8.805842110636968 5.264388213151695 0 0 0
62 1 12.343981947816655 10.565162188747676 5.290621357136714 0 0 0
270 2 12.341826610771754 12.312549963157332 7.046482407203723 0 0 0
416 3 12.35270411023671 8.808316878542765 7.022043434678893 0 0 0
444 3 10.556905148357234 10.554737597338416 7.059358752886205 0 0 0
447 3 10.59795655841379 12.31307555876213 5.268135786871085 0 0 0
304 2 12.340839894368441 10.583332298617897 8.796315494895437 0 0 0
357 2 17.575367482042964 10.551166408748866 7.049265284285746 -1 0 0
498 3 17.58421209531646 12.302459848220238 5.263297618617671 -1 0 0
81 1 14.102351202605808 10.571936910211305 7.046354880393151 0 0 0
84 1 15.833289204816204 10.569042093843516 5.305741501875788 0 0 0
85 1 14.078482570830019 12.314355271625274 5.2859810770569915 0 0 0
279 2 15.838274745194793 12.299719117967586 7.0481900601670615 0 0 0
342 2 15.820523568963052 8.815899745335269 7.030509211959305 0 0 0
79 1 15.847734602915308 10.562884071521868 8.78826253486063 0 0 0
55 1 14.081487066099116 8.807687188520728 8.779508569563115 0 0 0
468 3 1.7323205306779845 17.57352771558101 5.261043174599177 0 -1 0
368 3 3.489091636788026 14.051063651811194 7.015474809954019 0 0 0
225 1 3.525805114606473 15.840760782773488 5.263267188482583 0 0 0
496 3 1.7481275300028416 14.111826874187722 5.234029247044065 0 0 0
495 3 0.028437298980244077 14.071644459625782 7.061562772392377 0 0 0
104 1 1.733839249701652 15.85084386590867 7.067405885765572 0 0 0
350 2 8.779228210362321 15.836256047223475 7.052481842382569 0 0 0
383 3 5.29104665232901 15.854663476172329 7.000992448786839 0 0 0
327 2 7.0410694540213274 14.099255502811106 7.03949945807256 0 0 0
224 1 5.279514489806044 14.076333694146314 5.27104593183357 0 0 0
216 1 7.046555821774809 15.83828700940025 5.268596550297523 0 0 0
215 1 8.797027024015655 14.135801317520341 5.280637299503445 0 0 0
349 2 7.05538617952756 15.827751307395628 8.797710288415278 0 0 0
387 3 10.55052463192061 14.078399694267437 7.047439042546505 0 0 0
384 3 12.325963942094527 15.841664603455452 7.027220130511721 0 0 0
390 3 8.804585445008788 17.579570496085267 5.295443323301464 0 -1 0
74 1 12.333700635797836 14.08264796188482 5.26833744182427 0 0 0
73 1 10.576637342453857 15.85287234817544 5.262762728708342 0 0 0
473 3 14.080226109865732 14.073557393283346 7.036924550273096 0 0 0
291 2 14.0863823425875 15.842350325259439 5.264646974991695 0 0 0
284 2 15.834257496837605 14.067813527686404 5.276824163983759 0 0 0
12 1 15.845758116792021 15.830757854484418 7.032518658053313 0 0 0
107 1 17.54886875989267 15.845967545116475 5.28351097409926 -1 0 0
156 1 1.7647039552239638 10.542157747125005 12.314058663078061 0 0 0
157 1 0.010488014320960366 12.302490890960563 12.33405546956914 0 0 0
160 1 0.008176345630543702 12.276639302742844 8.81249709163992 0 0 0
233 1 3.5459662007722113 10.546865059908837 10.548939041429739 0 0 0
236 1 3.519662221071164 12.290834026296473 8.802080690941894 0 0 0
352 2 3.5317954078310136 12.2965911110269 12.300280569268127 0 0 0
359 2 1.760398196586497 10.564336305567634 8.806999169454269 0 0 0
478 3 1.7801273722433975 12.314385845832794 10.561589955492957 0 0 0
170 1 0.01841452345790953 8.821527943937081 12.341370580515237 0 0 0
347 2 3.542403980670305 8.814102702852534 8.820928824679477 0 0 0
178 1 7.015322455905722 12.324554037090163 12.31804452272165 0 0 0
179 1 7.021752074024803 12.34319091704579 8.815432577717788 0 0 0
232 1 5.268601909499335 12.326817886480184 10.563735123278096 0 0 0
235 1 5.246467850937691 10.564101872431198 8.80748510653994 0 0 0
351 2 5.2548578837556645 10.549234880864454 12.313179489419452 0 0 0
421 3 7.0183304036234615 10.587912274040107 10.587433109917017 0 0 0
177 1 8.812361899759612 12.328767845244176 10.551851340640651 0 0 0
310 2 8.81444001328823 10.55914947286627 12.313063066062464 0 0 0
419 3 8.825056971560404 10.556202614181647 8.815912900277489 0 0 0
64 1 10.580457712925922 12.332190040078247 8.832560457259614 0 0 0
65 1 10.585749945537271 12.293488898454681 12.31263896726347 0 0 0
66 1 12.333842826601282 10.560678627315577 12.311665492986105 0 0 0
67 1 12.328094780826417 12.3237000834904 10.544087001891125 0 0 0
307 2 10.584139253322466 10.57540148092005 10.571030666066243 0 0 0
7 1 10.572817544073517 8.805553754221012 12.320083766490885 0 0 0
457 3 12.328959569215721 8.807390353260867 10.526471364027634 0 0 0
158 1 17.584923029571495 10.565082727259512 10.558991644266053 -1 0 0
16 1 15.828892011123179 10.570106577247364 12.301536431868064 0 0 0
71 1 15.822950876736195 12.30125990011565 10.551536709454526 0 0 0
76 1 14.079651281979967 10.565854702563204 10.543498087188416 0 0 0
80 1 14.073644230388961 12.303612093322206 8.80891828490697 0 0 0
271 2 14.067847406592337 12.293683787462667 12.287335764415486 0 0 0
465 3 15.834289832979739 8.813888233693145 10.568084132268243 0 0 0
102 1 1.7476233645154624 15.852577691522415 10.561421615928476 0 0 0
103 1 1.7683795179510098 14.067988984443884 12.305781645269054 0 0 0
105 1 0.015181832250240553 15.846637607022892 8.807036777117899 0 0 0
221 1 3.511584570191182 15.79994832267684 12.302921147189352 0 0 0
222 1 3.526225790502334 14.087614904595027 10.563410451222898 0 0 0
223 1 3.486100763750489 15.813582461347035 8.816127248446897 0 0 0
264 2 0.007711938993137493 15.811374377780227 12.320890669281605 0 0 0
344 2 1.770622195618721 14.079458458805505 8.817082016189321 0 0 0
146 1 1.7560973823635992 17.569404113391933 12.305091281383726 0 -1 0
147 1 0.0045044736572250775 17.581763970869773 10.558216054085792 0 -1 0
148 1 1.7335541831242278 17.567668756894545 8.805765627771402 0 -1 0
401 3 3.5047719558538266 17.580473474188896 10.538219530762216 0 -1 0
213 1 7.041708529523926 14.050540197819085 10.544605816053265 0 0 0
214 1 8.788268563710902 14.059914257384595 8.826087923616106 0 0 0
231 1 5.2826728388678506 14.041916269101298 12.296607831623334 0 0 0
262 1 5.277640912731948 15.797646927275117 10.571767519128008 0 0 0
382 3 5.267204267810371 14.07371071781887 8.807443171201214 0 0 0
426 3 7.006829763524767 15.805563113293374 12.342198439169435 0 0 0
428 3 8.792054290267584 15.860351188771615 10.559693647801952 0 0 0
399 3 5.3105571024339335 17.585588148064225 8.826153302494278 0 -1 0
415 3 8.818572743140733 14.057299594396195 12.298130973423545 0 0 0
77 1 12.322886927033464 14.042553696513641 8.810610811379764 0 0 0
78 1 10.564933246865372 14.038775580146796 10.543398426651292 0 0 0
281 2 12.309410042451667 14.050098088124173 12.307703741478411 0 0 0
379 3 12.336402830427446 15.820070340368058 10.563283334992628 0 0 0
381 3 10.56973821165907 15.838786176164623 12.326235797432012 0 0 0
385 3 10.545571417966347 15.840062389146997 8.805859560349118 0 0 0
485 3 17.595054569375606 14.072316359287553 10.574737326503227 -1 0 0
6 1 14.072732774412623 14.06622188324422 10.566475333468993 0 0 0
19 1 15.8338548259201 14.055823145777328 12.316609389237728 0 0 0
23 1 14.090529107212 15.809594834442416 12.308233744357896 0 0 0
309 2 14.073640480400346 15.819511149873096 8.812204504890742 0 0 0
367 2 15.834411348993395 15.804749110161964 10.57304669237797 0 0 0
470 3 15.838137224655759 14.0553367844129 8.80564251556586 0 0 0
369 3 15.833989676675046 17.555731169208354 12.324936565244842 0 -1 0
371 3 15.815952285521984 17.548240422087193 8.814734890872385 0 -1 0
113 1 3.534196770411408 8.811129133907762 15.813350965744222 0 0 0
121 1 1.7684782923193316 12.30749486267801 14.03600037191642 0 0 0
155 1 0.013213231630636466 10.547012680249463 14.05229811428283 0 0 0
168 1 0.011886003409273368 8.800833117845292 15.83484136292672 0 0 0
220 1 3.5386718017789165 10.549670008759454 14.05109354717877 0 0 0
306 2 3.544074727408111 12.275696550069483 15.838812854229017 0 0 0
469 3 1.7534654422279354 10.569583284946397 15.783920318171212 0 0 0
317 2 0.003726793233635266 12.30561421088431 15.820905931064262 0 0 0
187 1 7.000093033132873 12.31598904195494 15.825697035122584 0 0 0
229 1 5.304071126850701 12.301904377409407 14.061370213844416 0 0 0
230 1 5.286974297806771 10.544633257335606 15.801815031960425 0 0 0
268 2 7.006692743520447 10.55057672675103 14.054700571375793 0 0 0
423 3 8.776359330644004 12.333324646156461 14.061291476520452 0 0 0
422 3 8.785442831845787 10.529854907898718 15.787049104205563 0 0 0
459 3 7.0188727135817155 10.572271331038078 17.573926976792308 0 0 -1
68 1 10.566947076131601 10.543296548740535 14.05055947888443 0 0 0
70 1 12.283451583312349 12.291855589198303 14.055397696456684 0 0 0
312 2 10.563571666935667 12.298931345765764 15.807333782516512 0 0 0
313 2 12.313191361826027 10.540190497345387 15.817140295115136 0 0 0
59 1 12.319734228750727 12.300316055885757 17.57669275414779 0 0 -1
454 3 10.55271735904782 10.557562502807967 17.558600683907606 0 0 -1
39 1 14.066586863010091 8.816508366074217 15.857742846225833 0 0 0
69 1 14.060829629678398 10.544348556449387 14.048967146127522 0 0 0
301 2 15.851561518225123 10.529131374916567 15.826318902898374 0 0 0
461 3 15.853357725105349 12.298186504138972 14.065615854185818 0 0 0
481 3 14.075468913299407 12.263682383072204 15.826241004506763 0 0 0
90 1 3.5039679418938983 17.5843919401678 14.093702231097716 0 -1 0
261 1 3.5315680332188837 15.854760613241446 15.8196261867088 0 0 0
386 3 3.5562247305296473 14.041540129045154 14.063280904317915 0 0 0
394 3 1.765695991246181 14.036631365289912 15.848314621950932 0 0 0
395 3 1.7674475677425698 15.846696577766963 14.065061701712509 0 0 0
499 3 1.7975885135936098 15.855805174913657 17.558408856121343 0 0 -1
212 1 7.017868781646119 14.072335799642309 14.080881572585373 0 0 0
275 2 5.25512721324749 15.842572746023905 14.067806517565467 0 0 0
388 3 5.26472688311 14.060653242024836 15.843323661756786 0 0 0
429 3 7.020252549370818 15.861309045200423 15.828518425174517 0 0 0
430 3 8.784039035283156 14.075679560987021 15.826462708197164 0 0 0
82 1 10.57661555294909 14.065832282663711 14.079012094672583 0 0 0
86 1 12.309351551734572 15.858000302790133 14.055046178826064 0 0 0
363 2 8.809582547317587 15.841994129753445 14.071605556449287 0 0 0
375 3 12.32116094243373 14.042785462705355 15.834199628467031 0 0 0
377 3 10.564083507711532 15.836627660263597 15.847029280405456 0 0 0
30 1 15.843434739908998 17.56982728760536 15.826759608390695 0 -1 0
29 1 14.062641167865925 17.586618754724086 14.053147209587392 0 -1 0
488 3 14.053045086364067 14.070773746704507 14.04536131252582 0 0 0
466 3 14.087945019008512 15.839005479224427 15.810223724177904 0 0 0
100 1 17.58207420771113 15.802664634969853 15.837026192217392 -1 0 0
101 1 17.592154494805527 14.06443969690616 14.075727116632663 -1 0 0
10 1 15.847269872776872 15.810177498781574 14.063065912203468 0 0 0
20 1 15.857213987341535 14.070843015973807 15.831540878290696 0 0 0
109 1 17.577504815136813 14.067773512486013 17.57120045210808 -1 0 -1
87 1 14.062237335243973 17.5718091239129 17.561921474356538 0 -1 -1
336 2 17.59382826935127 17.581600019322735 17.539736956862924 -1 -1 -1
60 1 15.815555110527573 15.820665823638155 17.562678389236773 0 0 -1

Velocities

96 0 0 0
130 0 0 0
141 0 0 0
150 0 0 0
337 0 0 0
396 0 0 0
450 0 0 0
93 0 0 0
98 0 0 0
260 0 0 0
273 0 0 0
406 0 0 0
440 0 0 0
259 0 0 0
266 0 0 0
272 0 0 0
200 0 0 0
210 0 0 0
211 0 0 0
246 0 0 0
314 0 0 0
345 0 0 0
346 0 0 0
362 0 0 0
431 0 0 0
142 0 0 0
152 0 0 0
492 0 0 0
25 0 0 0
33 0 0 0
40 0 0 0
328 0 0 0
374 0 0 0
99 0 0 0
122 0 0 0
476 0 0 0
486 0 0 0
172 0 0 0
448 0 0 0
412 0 0 0
247 0 0 0
332 0 0 0
411 0 0 0
438 0 0 0
263 0 0 0
5 0 0 0
449 0 0 0
11 0 0 0
193 0 0 0
199 0 0 0
245 0 0 0
305 0 0 0
424 0 0 0
425 0 0 0
393 0 0 0
51 0 0 0
175 0 0 0
300 0 0 0
302 0 0 0
32 0 0 0
35 0 0 0
37 0 0 0
52 0 0 0
341 0 0 0
95 0 0 0
285 0 0 0
323 0 0 0
397 0 0 0
471 0 0 0
92 0 0 0
94 0 0 0
129 0 0 0
243 0 0 0
256 0 0 0
257 0 0 0
255 0 0 0
316 0 0 0
242 0 0 0
322 0 0 0
326 0 0 0
331 0 0 0
339 0 0 0
433 0 0 0
437 0 0 0
441 0 0 0
254 0 0 0
14 0 0 0
198 0 0 0
149 0 0 0
151 0 0 0
288 0 0 0
27 0 0 0
38 0 0 0
353 0 0 0
354 0 0 0
356 0 0 0
410 0 0 0
408 0 0 0
329 0 0 0
174 0 0 0
173 0 0 0
407 0 0 0
413 0 0 0
493 0 0 0
110 0 0 0
128 0 0 0
244 0 0 0
452 0 0 0
453 0 0 0
443 0 0 0
189 0 0 0
191 0 0 0
17 0 0 0
269 0 0 0
2 0 0 0
15 0 0 0
3 0 0 0
13 0 0 0
303 0 0 0
320 0 0 0
343 0 0 0
333 0 0 0
54 0 0 0
53 0 0 0
36 0 0 0
140 0 0 0
480 0 0 0
138 0 0 0
145 0 0 0
318 0 0 0
398 0 0 0
402 0 0 0
484 0 0 0
491 0 0 0
91 0 0 0
127 0 0 0
197 0 0 0
209 0 0 0
252 0 0 0
403 0 0 0
404 0 0 0
445 0 0 0
251 0 0 0
299 0 0 0
205 0 0 0
206 0 0 0
207 0 0 0
208 0 0 0
338 0 0 0
434 0 0 0
436 0 0 0
482 0 0 0
494 0 0 0
26 0 0 0
28 0 0 0
42 0 0 0
334 0 0 0
358 0 0 0
365 0 0 0
117 0 0 0
118 0 0 0
137 0 0 0
139 0 0 0
276 0 0 0
278 0 0 0
315 0 0 0
319 0 0 0
490 0 0 0
115 0 0 0
116 0 0 0
120 0 0 0
188 0 0 0
195 0 0 0
196 0 0 0
289 0 0 0
321 0 0 0
442 0 0 0
456 0 0 0
176 0 0 0
190 0 0 0
22 0 0 0
287 0 0 0
292 0 0 0
435 0 0 0
472 0 0 0
489 0 0 0
24 0 0 0
43 0 0 0
46 0 0 0
47 0 0 0
48 0 0 0
487 0 0 0
132 0 0 0
134 0 0 0
144 0 0 0
308 0 0 0
335 0 0 0
409 0 0 0
88 0 0 0
153 0 0 0
405 0 0 0
89 0 0 0
250 0 0 0
283 0 0 0
311 0 0 0
324 0 0 0
392 0 0 0
446 0 0 0
97 0 0 0
248 0 0 0
249 0 0 0
8 0 0 0
201 0 0 0
202 0 0 0
203 0 0 0
204 0 0 0
432 0 0 0
439 0 0 0
360 0 0 0
414 0 0 0
136 0 0 0
477 0 0 0
31 0 0 0
44 0 0 0
400 0 0 0
361 0 0 0
372 0 0 0
169 0 0 0
167 0 0 0
166 0 0 0
135 0 0 0
133 0 0 0
126 0 0 0
114 0 0 0
125 0 0 0
293 0 0 0
479 0 0 0
185 0 0 0
112 0 0 0
458 0 0 0
380 0 0 0
325 0 0 0
298 0 0 0
186 0 0 0
131 0 0 0
123 0 0 0
194 0 0 0
72 0 0 0
455 0 0 0
330 0 0 0
286 0 0 0
184 0 0 0
57 0 0 0
18 0 0 0
296 0 0 0
9 0 0 0
253 0 0 0
474 0 0 0
462 0 0 0
49 0 0 0
45 0 0 0
41 0 0 0
340 0 0 0
143 0 0 0
50 0 0 0
111 0 0 0
124 0 0 0
161 0 0 0
163 0 0 0
164 0 0 0
165 0 0 0
240 0 0 0
348 0 0 0
497 0 0 0
181 0 0 0
183 0 0 0
237 0 0 0
241 0 0 0
370 0 0 0
460 0 0 0
182 0 0 0
290 0 0 0
417 0 0 0
4 0 0 0
58 0 0 0
63 0 0 0
294 0 0 0
451 0 0 0
154 0 0 0
34 0 0 0
83 0 0 0
364 0 0 0
366 0 0 0
463 0 0 0
475 0 0 0
106 0 0 0
226 0 0 0
228 0 0 0
376 0 0 0
464 0 0 0
483 0 0 0
258 0 0 0
217 0 0 0
219 0 0 0
227 0 0 0
274 0 0 0
277 0 0 0
280 0 0 0
378 0 0 0
56 0 0 0
75 0 0 0
218 0 0 0
265 0 0 0
267 0 0 0
282 0 0 0
389 0 0 0
391 0 0 0
373 0 0 0
108 0 0 0
21 0 0 0
61 0 0 0
295 0 0 0
297 0 0 0
500 0 0 0
159 0 0 0
162 0 0 0
239 0 0 0
355 0 0 0
467 0 0 0
171 0 0 0
119 0 0 0
192 0 0 0
234 0 0 0
238 0 0 0
418 0 0 0
420 0 0 0
427 0 0 0
180 0 0 0
1 0 0 0
62 0 0 0
270 0 0 0
416 0 0 0
444 0 0 0
447 0 0 0
304 0 0 0
357 0 0 0
498 0 0 0
81 0 0 0
84 0 0 0
85 0 0 0
279 0 0 0
342 0 0 0
79 0 0 0
55 0 0 0
468 0 0 0
368 0 0 0
225 0 0 0
496 0 0 0
495 0 0 0
104 0 0 0
350 0 0 0
383 0 0 0
327 0 0 0
224 0 0 0
216 0 0 0
215 0 0 0
349 0 0 0
387 0 0 0
384 0 0 0
390 0 0 0
74 0 0 0
73 0 0 0
473 0 0 0
291 0 0 0
284 0 0 0
12 0 0 0
107 0 0 0
156 0 0 0
157 0 0 0
160 0 0 0
233 0 0 0
236 0 0 0
352 0 0 0
359 0 0 0
478 0 0 0
170 0 0 0
347 0 0 0
178 0 0 0
179 0 0 0
232 0 0 0
235 0 0 0
351 0 0 0
421 0 0 0
177 0 0 0
310 0 0 0
419 0 0 0
64 0 0 0
65 0 0 0
66 0 0 0
67 0 0 0
307 0 0 0
7 0 0 0
457 0 0 0
158 0 0 0
16 0 0 0
71 0 0 0
76 0 0 0
80 0 0 0
271 0 0 0
465 0 0 0
102 0 0 0
103 0 0 0
105 0 0 0
221 0 0 0
222 0 0 0
223 0 0 0
264 0 0 0
344 0 0 0
146 0 0 0
147 0 0 0
148 0 0 0
401 0 0 0
213 0 0 0
214 0 0 0
231 0 0 0
262 0 0 0
382 0 0 0
426 0 0 0
428 0 0 0
399 0 0 0
415 0 0 0
77 0 0 0
78 0 0 0
281 0 0 0
379 0 0 0
381 0 0 0
385 0 0 0
485 0 0 0
6 0 0 0
19 0 0 0
23 0 0 0
309 0 0 0
367 0 0 0
470 0 0 0
369 0 0 0
371 0 0 0
113 0 0 0
121 0 0 0
155 0 0 0
168 0 0 0
220 0 0 0
306 0 0 0
469 0 0 0
317 0 0 0
187 0 0 0
229 0 0 0
230 0 0 0
268 0 0 0
423 0 0 0
422 0 0 0
459 0 0 0
68 0 0 0
70 0 0 0
312 0 0 0
313 0 0 0
59 0 0 0
454 0 0 0
39 0 0 0
69 0 0 0
301 0 0 0
461 0 0 0
481 0 0 0
90 0 0 0
261 0 0 0
386 0 0 0
394 0 0 0
395 0 0 0
499 0 0 0
212 0 0 0
275 0 0 0
388 0 0 0
429 0 0 0
430 0 0 0
82 0 0 0
86 0 0 0
363 0 0 0
375 0 0 0
377 0 0 0
30 0 0 0
29 0 0 0
488 0 0 0
466 0 0 0
100 0 0 0
101 0 0 0
10 0 0 0
20 0 0 0
109 0 0 0
87 0 0 0
336 0 0 0
60 0 0 0
