LAMMPS data file via write_data, version 29 Aug 2024, timestep = 27, units = metal

500 atoms
3 atom types

0 17.554292867407334 xlo xhi
0 17.554292867407334 ylo yhi
0 17.554292867407334 zlo zhi

Masses

1 55.7055
2 58.71
3 58.71

Atoms # atomic

1 2 0.0025413136845524177 0.002541313684552734 3.91160224202322e-16 0 0 0
2 3 1.7528879730561808 1.7528879730561833 0 0 0 0
3 1 1.7513106992734535 0.004118587467279448 1.7469336932514057 0 0 0
4 1 0.004118587467280306 1.751310699273455 1.7469336932514052 0 0 0
5 1 3.5050012054703097 0.004051136275946612 3.4830024320598984e-19 0 0 0
8 1 3.5059740659361025 1.7548566076760694 1.750839528934539 0 0 0
11 1 0.00405113627594761 3.5050012054703097 4.337357100805162e-16 0 0 0
13 1 1.7548566076760688 3.505974065936101 1.7508395289345386 0 0 0
15 1 3.5065940636807134 3.506594063680713 8.314407486582553e-17 0 0 0
51 1 0.0006617356472141966 0.0006617356472130063 3.5076895938201784 0 0 0
52 1 1.75476755109352 1.7547675510935208 3.5076895938201784 0 0 0
53 1 1.7550437527199174 0.0003855340208163349 5.265491611272796 0 0 0
54 1 0.00038553402081589126 1.755043752719917 5.265491611272797 0 0 0
55 1 3.509599691418646 0.0006448163357606253 3.5091826632307557 0 0 0
58 1 3.5100938325606212 1.755243650246128 5.26549045948928 0 0 0
61 1 0.0006448163357600838 3.5095996914186456 3.509182663230755 0 0 0
63 1 1.7552436502461273 3.5100938325606217 5.26549045948928 0 0 0
65 1 3.509819889173541 3.509819889173541 3.5094438834345847 0 0 0
6 1 5.263887630544927 1.7551258864301218 3.7646763435716604e-16 0 0 0
7 1 5.264981168858986 0.0006370270820282967 1.754430048452828 0 0 0
9 1 7.0213774377456 0.0003873681307799919 1.0809010216901638e-16 0 0 0
10 1 7.021256391414666 1.7553490218640466 1.7549588232064828 0 0 0
17 1 5.265010599181525 3.5099269879881128 1.754672000918392 0 0 0
19 1 7.021195303250631 3.510334163591362 2.7563964591582333e-16 0 0 0
56 1 5.265377475515145 1.755258951801932 3.509931345426964 0 0 0
57 1 5.265603963403737 0.00017951336003661965 5.265592951391547 0 0 0
59 1 7.021190871785906 0.00017654880337334005 3.510308749577552 0 0 0
60 1 7.021282334629908 1.755345976082476 5.265825986462783 0 0 0
67 1 5.265685576106061 3.510488450399345 5.265681571057841 0 0 0
69 1 7.021225513792248 3.5105435175852917 3.5103658242292055 0 0 0
252 1 8.777042549862397 9.929441518306965e-05 1.755299780640796 0 0 0
262 1 8.777048684069715 3.510666691683497 1.7552727296181625 0 0 0
301 1 8.776980343105146 1.755367289325662 3.5105724434546124 0 0 0
302 1 8.77699456568242 8.052681760092031e-05 5.265970889984621 0 0 0
312 1 8.77700236302807 3.510670915870727 5.265999690834087 0 0 0
12 1 1.7551258864301216 5.263887630544927 5.684792730649796e-19 0 0 0
14 1 0.0006370270820267196 5.264981168858987 1.7544300484528277 0 0 0
18 1 3.509926987988113 5.265010599181525 1.7546720009183923 0 0 0
21 1 0.0003873681307798653 7.0213774377456 2.6895184817001728e-17 0 0 0
23 1 1.7553490218640464 7.021256391414666 1.7549588232064832 0 0 0
25 1 3.5103341635913625 7.021195303250631 6.8318674930639095e-16 0 0 0
62 1 1.755258951801932 5.265377475515145 3.5099313454269647 0 0 0
64 1 0.00017951336004012446 5.265603963403738 5.265592951391546 0 0 0
68 1 3.5104884503993463 5.265685576106062 5.265681571057841 0 0 0
71 1 0.00017654880337391728 7.021190871785906 3.510308749577552 0 0 0
73 1 1.7553459760824754 7.021282334629907 5.265825986462783 0 0 0
75 1 3.5105435175852926 7.021225513792246 3.510365824229206 0 0 0
24 1 9.929441518313862e-05 8.777042549862397 1.7552997806407968 0 0 0
28 1 3.5106666916834968 8.777048684069715 1.7552727296181623 0 0 0
72 1 1.7553672893256609 8.776980343105146 3.5105724434546115 0 0 0
74 1 8.05268175987856e-05 8.77699456568242 5.2659708899846205 0 0 0
78 1 3.5106709158707283 8.77700236302807 5.265999690834087 0 0 0
16 1 5.265538153890481 5.265538153890481 2.267033680822852e-16 0 0 0
20 1 7.021236464457775 5.265777148096762 1.755197713530306 0 0 0
27 1 5.2657771480967615 7.0212364644577745 1.755197713530306 0 0 0
29 1 7.0213589845245465 7.021358984524544 2.0413573896424267e-18 0 0 0
66 1 5.265647702899702 5.265647702899703 3.5102669013358607 0 0 0
70 1 7.021380470350939 5.265967585971573 5.265941577161302 0 0 0
77 1 5.265967585971572 7.021380470350938 5.265941577161301 0 0 0
79 1 7.021396987960234 7.021396987960233 3.510588083464677 0 0 0
26 1 5.265978324965555 8.776986696643233 7.162017058410784e-16 0 0 0
30 1 7.021457878800179 8.777010708151524 1.755308214251936 0 0 0
76 1 5.2660222975119035 8.77700975702985 3.510623526129989 0 0 0
80 1 7.021516117170411 8.777047047355186 5.2660837414316015 0 0 0
261 1 8.776986696643233 5.265978324965557 5.528551069976545e-19 0 0 0
272 1 8.777010708151524 7.021457878800178 1.7553082142519363 0 0 0
311 1 8.77700975702985 5.266022297511905 3.5106235261299887 0 0 0
322 1 8.777047047355186 7.02151611717041 5.2660837414316015 0 0 0
271 1 8.777043866592548 8.77704386659255 3.972175168231683e-16 0 0 0
321 1 8.777052401359812 8.777052401359812 3.5106867927537686 0 0 0
22 1 1.7554081787434463 8.777176544290944 3.47971598523355e-17 0 0 0
31 1 2.1107997289172996e-05 10.532545609857126 6.469541251098893e-16 0 0 0
32 1 1.7550419186099544 12.28834471640247 3.93958752050743e-16 0 0 0
33 1 1.7553299923255508 10.532679604285672 1.7552997806407957 0 0 0
34 1 8.026487668687434e-05 12.288465762733402 1.7549588232064826 0 0 0
35 1 3.5106484550028103 10.53274730754117 3.0536686611654667e-16 0 0 0
38 1 3.510400363402881 12.28846411791072 1.7551560885112985 0 0 0
81 1 6.199741507206943e-05 10.532741811042921 3.5105724434546124 0 0 0
82 1 1.7552527379373604 12.288531282362165 3.5103087495775522 0 0 0
83 1 1.7553487599231343 10.532727588465649 5.265970889984621 0 0 0
84 1 8.331065826024231e-05 12.28843981951816 5.265825986462783 0 0 0
85 1 3.510644726240908 10.53272433917398 3.510609030605345 0 0 0
88 1 3.5105760933263204 12.288411279466652 5.265859946228188 0 0 0
36 1 5.265830954273147 12.288451352841404 2.547824393166019e-16 0 0 0
37 1 5.266009955577329 10.532726319019568 1.755293712075197 0 0 0
39 1 7.021470388355616 10.532690765776477 3.5567611027369283e-16 0 0 0
40 1 7.0213854828731534 12.288336671274914 1.7552801040666055 0 0 0
86 1 5.265891485468276 12.288400327796364 3.5105173889893133 0 0 0
87 1 5.266044666748098 10.53269448134593 5.266047405164299 0 0 0
89 1 7.0214943677627195 10.53268247481363 3.51066656942335 0 0 0
90 1 7.021466762557071 12.288255391590997 5.266037060710186 0 0 0
281 1 8.77703138837159 12.288251765792452 3.1299336999068155e-16 0 0 0
282 1 8.777052125607748 10.532670028540322 1.7553286518734426 0 0 0
331 1 8.777039679334438 12.28822778638535 3.5106665694233508 0 0 0
332 1 8.777070954845708 10.53265119930236 5.266115872929406 0 0 0
41 1 0.0003034003106152337 14.04583452360314 7.803069091700591e-19 0 0 0
42 1 1.7513781504647883 15.80472094867776 1.9296552680724821e-16 0 0 0
43 1 1.7547922596587073 14.044740985289081 1.7544300484528277 0 0 0
44 1 0.0005726790646665325 15.803748088211966 1.7508395289345389 0 0 0
45 1 3.50993969792602 14.044333143796951 0 0 0 0
48 1 3.5092105626975174 15.80051159145055 1.7540993890450745 0 0 0
91 1 0.00017033493880253388 14.044344678632923 3.509931345426965 0 0 0
92 1 1.754784470404973 15.800122462729423 3.509182663230755 0 0 0
93 1 1.7552497733806953 14.044118190744328 5.265592951391547 0 0 0
94 1 0.000185636494608236 15.799628321587448 5.265490459489279 0 0 0
95 1 3.5102361508404196 14.04425499170064 3.5100299793474066 0 0 0
98 1 3.5102886188069924 15.799433535341079 5.265498988092649 0 0 0
46 1 5.265389010351117 15.799782456222047 0 0 0 0
47 1 5.265551006866895 14.044171147281174 1.7550765838903624 0 0 0
49 1 7.021270801306662 14.043891199874924 1.8567218117891336e-18 0 0 0
50 1 7.02125803623735 15.799321790745186 1.7551560885112985 0 0 0
96 1 5.265467162447426 15.79948600330765 3.510029979347407 0 0 0
97 1 5.265835907724847 14.04388624642322 5.265796387703314 0 0 0
99 1 7.021321826351706 14.04383066867979 3.510517388989313 0 0 0
100 1 7.021310874681417 15.79914606082175 5.265859946228189 0 0 0
342 1 8.77702767280214 14.04367748739997 5.266047405164299 0 0 0
341 1 8.776997814974086 15.799077427907163 3.5106090306053446 0 0 0
291 1 8.776974846606898 15.799073699145259 1.1204683644601494e-16 0 0 0
292 1 8.776995835128503 14.043712198570741 1.7552937120751968 0 0 0
101 1 0.0001037616519936875 0.00010376165199336324 7.021612750572992 0 0 0
102 1 1.755325525088741 1.7553255250887425 7.0216127505729915 0 0 0
103 1 1.7553916969099272 3.758983080615913e-05 8.777146433703667 0 0 0
104 1 3.7589830807979523e-05 1.7553916969099281 8.777146433703667 0 0 0
105 1 3.5105541741277464 0.00010710236062106683 7.021416867196551 0 0 0
108 1 3.5107069456281828 1.7553614724571474 8.777146433703667 0 0 0
111 1 0.00010710236062331769 3.5105541741277455 7.021416867196551 0 0 0
113 1 1.7553614724571454 3.510706945628183 8.777146433703667 0 0 0
115 1 3.510592670648596 3.5105926706485953 7.021438359049851 0 0 0
151 1 0.00010376165199281889 0.00010376165199328565 10.53268011683434 0 0 0
152 1 1.7553255250887407 1.7553255250887423 10.53268011683434 0 0 0
153 1 3.5105541741277473 0.00010710236062281405 10.532876000210782 0 0 0
156 1 0.0001071023606225018 3.5105541741277455 10.532876000210782 0 0 0
158 1 3.5105926706485966 3.5105926706485957 10.532854508357483 0 0 0
106 1 5.265896949240841 1.7553433659205413 7.021375154246301 0 0 0
107 1 5.266014489875654 7.05478408524279e-05 8.777146433703669 0 0 0
109 1 7.021397694161196 8.260915540114533e-05 7.021442779229637 0 0 0
110 1 7.02145907024302 1.7553650069193047 8.777146433703667 0 0 0
117 1 5.266039454772789 3.5106749840171663 8.777146433703667 0 0 0
119 1 7.021428182917627 3.5106638523256706 7.0214720931798675 0 0 0
154 1 5.265896949240839 1.7553433659205415 10.532917713161032 0 0 0
155 1 7.021397694161196 8.260915540111772e-05 10.532850088177696 0 0 0
160 1 7.021428182917628 3.5106638523256706 10.532820774227467 0 0 0
351 1 8.777029081932712 1.755366654090095 7.021516356906674 0 0 0
352 1 8.777038401766255 6.2041273848129e-05 8.777146433703667 0 0 0
362 1 8.777053262314128 3.5106987302222254 8.777146433703667 0 0 0
401 1 8.777029081932712 1.7553666540900956 10.532776510500659 0 0 0
112 1 1.7553433659205389 5.26589694924084 7.021375154246302 0 0 0
114 1 7.054784085357333e-05 5.266014489875656 8.777146433703667 0 0 0
118 1 3.510674984017167 5.266039454772791 8.777146433703667 0 0 0
121 1 8.260915540308619e-05 7.0213976941611955 7.021442779229638 0 0 0
123 1 1.755365006919303 7.021459070243019 8.777146433703667 0 0 0
125 1 3.5106638523256715 7.021428182917627 7.021472093179868 0 0 0
157 1 1.75534336592054 5.265896949240841 10.532917713161034 0 0 0
161 1 8.260915540442461e-05 7.021397694161195 10.532850088177696 0 0 0
163 1 3.510663852325671 7.021428182917626 10.532820774227467 0 0 0
122 1 1.7553666540900945 8.777029081932712 7.021516356906675 0 0 0
124 1 6.204127384991575e-05 8.777038401766255 8.777146433703667 0 0 0
128 1 3.510698730222225 8.777053262314128 8.777146433703667 0 0 0
162 1 1.755366654090094 8.777029081932712 10.532776510500659 0 0 0
116 1 5.265996352004045 5.265996352004045 7.021464557469995 0 0 0
120 1 7.021516157356312 5.266074289554969 8.777146433703667 0 0 0
127 1 5.266074289554969 7.02151615735631 8.777146433703667 0 0 0
129 1 7.021517725186547 7.021517725186544 7.021557422637207 0 0 0
159 1 5.265996352004044 5.265996352004045 10.532828309937337 0 0 0
165 1 7.021517725186547 7.021517725186545 10.532735444770127 0 0 0
126 1 5.26607575427226 8.777052565737078 7.0215585756332155 0 0 0
130 1 7.02155572972528 8.777078734680117 8.777146433703667 0 0 0
164 1 5.26607575427226 8.777052565737078 10.53273429177412 0 0 0
361 1 8.777052565737078 5.2660757542722605 7.021558575633216 0 0 0
372 1 8.777078734680117 7.021555729725278 8.777146433703669 0 0 0
406 1 8.777052565737078 5.2660757542722605 10.532734291774117 0 0 0
371 1 8.777079836718604 8.777079836718606 7.021608160856547 0 0 0
411 1 8.777079836718604 8.777079836718604 10.532684706550786 0 0 0
131 1 6.263265063816706e-05 10.532693072215356 7.021516356906674 0 0 0
132 1 1.7553466775853317 12.288324459986875 7.021442779229638 0 0 0
133 1 1.755367245466885 10.532683752381812 8.777146433703667 0 0 0
134 1 6.427982143000466e-05 12.288263083905047 8.777146433703667 0 0 0
135 1 3.5106841509985323 10.532689843135444 7.021527945376118 0 0 0
138 1 3.510680726411205 12.288248368238731 8.777146433703667 0 0 0
166 1 6.263265063938786e-05 10.532693072215357 10.532776510500657 0 0 0
167 1 1.7553466775853317 12.288324459986875 10.532850088177696 0 0 0
168 1 3.5106841509985323 10.532689843135444 10.532764922031216 0 0 0
136 1 5.266033159386569 12.288256780979774 7.021509844705399 0 0 0
137 1 5.266085174937077 10.532662247739518 8.777146433703667 0 0 0
139 1 7.021542489156715 10.532653929545958 7.021590291708498 0 0 0
140 1 7.02153080359327 12.288191350554797 8.777146433703667 0 0 0
169 1 5.266033159386569 12.288256780979772 10.532783022701935 0 0 0
170 1 7.021542489156716 10.532653929545956 10.532702575698837 0 0 0
381 1 8.77706822460211 12.288179664991354 7.021590291708497 0 0 0
382 1 8.777083081451783 10.532639072696284 8.777146433703667 0 0 0
416 1 8.777068224602111 12.288179664991354 10.532702575698837 0 0 0
141 1 8.592082019515275e-05 14.043825204907227 7.021375154246302 0 0 0
142 1 1.755322184380112 15.799167980020323 7.021416867196551 0 0 0
143 1 1.7553587388998795 14.043707664272413 8.777146433703667 0 0 0
144 1 6.781428358836127e-05 15.799015208519885 8.777146433703667 0 0 0
145 1 3.510609795058898 14.043795027361785 7.0213986024288975 0 0 0
148 1 3.510670300032735 15.799051854115335 8.777146433703667 0 0 0
171 1 8.592082019612515e-05 14.043825204907227 10.532917713161032 0 0 0
172 1 1.755322184380112 15.799167980020322 10.532876000210784 0 0 0
173 1 3.5106097950588975 14.043795027361785 10.532894264978438 0 0 0
146 1 5.265927126786281 15.799112359089174 7.021398602428897 0 0 0
147 1 5.266035452849084 14.04368670129898 8.777146433703667 0 0 0
149 1 7.021465373168296 14.043688994761498 7.021509844705399 0 0 0
150 1 7.021473785909338 15.799041427736865 8.777146433703667 0 0 0
174 1 5.26592712678628 15.799112359089172 10.532894264978436 0 0 0
175 1 7.021465373168296 14.043688994761498 10.532783022701935 0 0 0
421 1 8.777032311012624 15.799038003149535 10.532764922031214 0 0 0
391 1 8.777032311012624 15.799038003149535 7.021527945376119 0 0 0
392 1 8.77705990640855 14.04363697921099 8.777146433703667 0 0 0
176 1 1.755043752719917 0.00038553402081652 12.288801256134539 0 0 0
177 1 0.00038553402081661946 1.7550437527199167 12.288801256134537 0 0 0
179 1 3.5100938325606226 1.7552436502461282 12.288802407918054 0 0 0
181 1 1.7552436502461266 3.5100938325606217 12.288802407918055 0 0 0
201 1 0.0006617356472138856 0.0006617356472134971 14.046603273587156 0 0 0
202 1 1.75476755109352 1.754767551093521 14.046603273587156 0 0 0
203 1 1.7513106992734542 0.00411858746727932 15.807359174155927 0 0 0
204 1 0.004118587467279904 1.7513106992734544 15.807359174155929 0 0 0
205 1 3.509599691418647 0.0006448163357613467 14.045110204176579 0 0 0
208 1 3.505974065936103 1.7548566076760699 15.803453338472794 0 0 0
211 1 0.0006448163357622484 3.509599691418647 14.045110204176579 0 0 0
213 1 1.7548566076760685 3.505974065936102 15.803453338472794 0 0 0
215 1 3.5098198891735417 3.50981988917354 14.04484898397275 0 0 0
178 1 5.265603963403736 0.0001795133600379096 12.288699916015787 0 0 0
180 1 7.021282334629908 1.7553459760824763 12.28846688094455 0 0 0
183 1 5.265685576106061 3.510488450399345 12.288611296349492 0 0 0
206 1 5.265377475515144 1.7552589518019326 14.04436152198037 0 0 0
207 1 5.264981168858986 0.0006370270820281463 15.799862818954505 0 0 0
209 1 7.021190871785907 0.0001765488033733439 14.043984117829782 0 0 0
210 1 7.021256391414666 1.7553490218640468 15.799334044200851 0 0 0
217 1 5.265010599181525 3.5099269879881123 15.79962086648894 0 0 0
219 1 7.021225513792249 3.5105435175852913 14.043927043178128 0 0 0
426 1 8.776994565682418 8.052681760044935e-05 12.288321977422713 0 0 0
431 1 8.77700236302807 3.510670915870727 12.288293176573248 0 0 0
451 1 8.776980343105146 1.755367289325662 14.04372042395272 0 0 0
452 1 8.777042549862397 9.929441518255648e-05 15.798993086766538 0 0 0
462 1 8.777048684069715 3.510666691683497 15.79902013778917 0 0 0
182 1 0.00017951336004011804 5.265603963403737 12.288699916015789 0 0 0
184 1 3.5104884503993463 5.265685576106062 12.288611296349492 0 0 0
186 1 1.7553459760824754 7.021282334629907 12.28846688094455 0 0 0
212 1 1.7552589518019306 5.265377475515144 14.044361521980369 0 0 0
214 1 0.0006370270820279389 5.264981168858987 15.799862818954505 0 0 0
218 1 3.509926987988113 5.265010599181525 15.79962086648894 0 0 0
221 1 0.000176548803373973 7.0211908717859055 14.043984117829782 0 0 0
223 1 1.7553490218640462 7.021256391414666 15.799334044200851 0 0 0
225 1 3.5105435175852935 7.021225513792247 14.043927043178128 0 0 0
187 1 8.052681759994248e-05 8.77699456568242 12.288321977422713 0 0 0
189 1 3.510670915870729 8.777002363028071 12.288293176573248 0 0 0
222 1 1.75536728932566 8.776980343105148 14.04372042395272 0 0 0
224 1 9.929441518364437e-05 8.777042549862397 15.798993086766538 0 0 0
228 1 3.5106666916834977 8.777048684069717 15.79902013778917 0 0 0
185 1 7.021380470350939 5.265967585971573 12.288351290246034 0 0 0
188 1 5.265967585971572 7.021380470350938 12.288351290246034 0 0 0
216 1 5.265647702899703 5.265647702899704 14.044025966071473 0 0 0
220 1 7.021236464457775 5.265777148096762 15.79909515387703 0 0 0
227 1 5.2657771480967615 7.021236464457774 15.799095153877028 0 0 0
229 1 7.021396987960233 7.021396987960233 14.043704783942655 0 0 0
190 1 7.02151611717041 8.777047047355186 12.288209125975733 0 0 0
226 1 5.266022297511904 8.77700975702985 14.043669341277344 0 0 0
230 1 7.02145787880018 8.777010708151524 15.798984653155399 0 0 0
436 1 8.777047047355186 7.02151611717041 12.288209125975733 0 0 0
461 1 8.77700975702985 5.2660222975119035 14.043669341277344 0 0 0
472 1 8.777010708151522 7.021457878800178 15.7989846531554 0 0 0
471 1 8.77705240135981 8.777052401359814 14.043606074653564 0 0 0
191 1 1.7553487599231334 10.532727588465649 12.288321977422713 0 0 0
192 1 8.331065826021481e-05 12.28843981951816 12.28846688094455 0 0 0
194 1 3.510576093326321 12.28841127946665 12.288432921179147 0 0 0
231 1 6.199741507550806e-05 10.532741811042921 14.04372042395272 0 0 0
232 1 1.75525273793736 12.288531282362163 14.04398411782978 0 0 0
233 1 1.7553299923255516 10.53267960428567 15.798993086766538 0 0 0
234 1 8.026487668780779e-05 12.288465762733402 15.799334044200851 0 0 0
235 1 3.5106447262409075 10.532724339173981 14.04368383680199 0 0 0
238 1 3.510400363402882 12.28846411791072 15.799136778896036 0 0 0
193 1 5.266044666748097 10.53269448134593 12.288245462243035 0 0 0
195 1 7.021466762557072 12.288255391590997 12.288255806697148 0 0 0
236 1 5.265891485468275 12.288400327796364 14.043775478418022 0 0 0
237 1 5.266009955577328 10.532726319019567 15.798999155332137 0 0 0
239 1 7.021494367762721 10.532682474813628 14.043626297983982 0 0 0
240 1 7.021385482873155 12.288336671274916 15.79901276334073 0 0 0
441 1 8.777070954845707 10.53265119930236 12.28817699447793 0 0 0
481 1 8.777039679334436 12.28822778638535 14.043626297983982 0 0 0
482 1 8.777052125607746 10.532670028540322 15.798964215533891 0 0 0
196 1 1.7552497733806944 14.04411819074433 12.288699916015787 0 0 0
197 1 0.00018563649460827882 15.799628321587448 12.288802407918057 0 0 0
199 1 3.510288618806993 15.799433535341077 12.288793879314685 0 0 0
241 1 0.00017033493880084415 14.044344678632925 14.044361521980369 0 0 0
242 1 1.7547844704049733 15.800122462729421 14.045110204176579 0 0 0
243 1 1.7547922596587069 14.044740985289081 15.799862818954505 0 0 0
244 1 0.0005726790646646016 15.803748088211965 15.803453338472794 0 0 0
245 1 3.5102361508404214 14.044254991700642 14.04426288805993 0 0 0
248 1 3.5092105626975174 15.800511591450551 15.800193478362258 0 0 0
198 1 5.265835907724847 14.04388624642322 12.28849647970402 0 0 0
200 1 7.021310874681418 15.79914606082175 12.288432921179147 0 0 0
246 1 5.265467162447425 15.799486003307646 14.044262888059928 0 0 0
247 1 5.265551006866895 14.044171147281174 15.799216283516971 0 0 0
249 1 7.0213218263517065 14.04383066867979 14.043775478418022 0 0 0
250 1 7.02125803623735 15.799321790745186 15.799136778896036 0 0 0
492 1 8.7769958351285 14.04371219857074 15.798999155332137 0 0 0
491 1 8.776997814974086 15.799077427907163 14.04368383680199 0 0 0
446 1 8.777027672802138 14.043677487399968 12.288245462243035 0 0 0
251 1 8.777176544290944 1.7554081787434452 3.9835833723671297e-16 0 0 0
253 1 10.532545609857124 2.11079972875994e-05 4.3181180541186184e-16 0 0 0
254 1 12.288344716402468 1.7550419186099548 1.0976082836519477e-16 0 0 0
255 1 12.288465762733402 8.02648766881266e-05 1.7549588232064834 0 0 0
256 1 10.532679604285672 1.7553299923255512 1.7552997806407968 0 0 0
263 1 10.532747307541172 3.5106484550028094 3.7843697692993045e-16 0 0 0
265 1 12.28846411791072 3.5104003634028804 1.755156088511298 0 0 0
303 1 10.532741811042923 6.199741507279442e-05 3.5105724434546124 0 0 0
304 1 12.288531282362163 1.7552527379373604 3.5103087495775513 0 0 0
305 1 12.28843981951816 8.331065825774187e-05 5.265825986462782 0 0 0
306 1 10.532727588465649 1.7553487599231352 5.2659708899846205 0 0 0
313 1 10.532724339173981 3.5106447262409066 3.510609030605345 0 0 0
315 1 12.28841127946665 3.5105760933263204 5.265859946228189 0 0 0
257 1 14.045834523603142 0.00030340031061298244 0 0 0 0
258 1 15.804720948677758 1.751378150464788 0 0 0 0
259 1 15.803748088211966 0.0005726790646653049 1.7508395289345378 0 0 0
260 1 14.044740985289081 1.7547922596587069 1.754430048452827 0 0 0
267 1 14.044333143796951 3.5099396979260202 8.655036872158107e-17 0 0 0
269 1 15.800511591450551 3.509210562697519 1.7540993890450745 0 0 0
307 1 14.044344678632923 0.00017033493880056863 3.5099313454269647 0 0 0
308 1 15.800122462729423 1.7547844704049742 3.509182663230757 0 0 0
309 1 15.799628321587448 0.0001856364946075092 5.265490459489279 0 0 0
310 1 14.044118190744332 1.7552497733806967 5.265592951391547 0 0 0
317 1 14.044254991700642 3.5102361508404205 3.5100299793474066 0 0 0
319 1 15.799433535341077 3.5102886188069906 5.265498988092649 0 0 0
264 1 12.288451352841404 5.265830954273148 4.2909895474372715e-16 0 0 0
266 1 10.532726319019567 5.26600995557733 1.7552937120751961 0 0 0
273 1 10.532690765776477 7.021470388355615 7.139344711228818e-16 0 0 0
275 1 12.288336671274914 7.021385482873155 1.7552801040666044 0 0 0
314 1 12.288400327796362 5.265891485468276 3.5105173889893138 0 0 0
316 1 10.532694481345931 5.266044666748098 5.2660474051643 0 0 0
323 1 10.53268247481363 7.0214943677627195 3.5106665694233494 0 0 0
325 1 12.288255391590997 7.021466762557069 5.266037060710187 0 0 0
274 1 12.288251765792454 8.77703138837159 5.253625840138038e-19 0 0 0
276 1 10.532670028540322 8.777052125607748 1.7553286518734446 0 0 0
324 1 12.28822778638535 8.77703967933444 3.5106665694233494 0 0 0
326 1 10.53265119930236 8.777070954845708 5.266115872929405 0 0 0
268 1 15.799782456222049 5.265389010351117 2.6231180707647506e-16 0 0 0
270 1 14.044171147281174 5.265551006866895 1.7550765838903626 0 0 0
277 1 14.043891199874922 7.021270801306664 2.3719819193408156e-16 0 0 0
279 1 15.799321790745187 7.021258036237349 1.7551560885112985 0 0 0
318 1 15.799486003307646 5.265467162447427 3.5100299793474057 0 0 0
320 1 14.04388624642322 5.265835907724847 5.265796387703315 0 0 0
327 1 14.04383066867979 7.021321826351705 3.5105173889893124 0 0 0
329 1 15.79914606082175 7.021310874681418 5.265859946228188 0 0 0
278 1 15.799073699145257 8.776974846606898 1.3869452032071594e-18 0 0 0
280 1 14.04371219857074 8.776995835128501 1.7552937120751957 0 0 0
328 1 15.799077427907163 8.776997814974086 3.5106090306053455 0 0 0
330 1 14.043677487399968 8.77702767280214 5.266047405164299 0 0 0
283 1 10.53267828755552 10.53267828755552 9.206084508202097e-16 0 0 0
284 1 12.288363169623521 12.288363169623523 2.3656339517224367e-18 0 0 0
285 1 12.28826427534789 10.532711445996545 1.7553082142519365 0 0 0
286 1 10.532711445996544 12.28826427534789 1.755308214251935 0 0 0
333 1 10.532669752788255 10.532669752788255 3.510686792753769 0 0 0
334 1 12.288325166187834 12.288325166187835 3.5105880834646768 0 0 0
335 1 12.288206036977659 10.53267510679288 5.266083741431601 0 0 0
336 1 10.532675106792881 12.288206036977657 5.2660837414316015 0 0 0
287 1 14.043743829182514 10.532735457504835 1.7815487047907064e-18 0 0 0
288 1 15.799387990556706 12.288526850897437 0 0 0 0
289 1 15.79905546246457 10.532673470078354 1.7552727296181616 0 0 0
290 1 14.043945006051306 12.288485689690296 1.7551977135303063 0 0 0
337 1 14.043699856636165 10.53271239711822 3.510623526129991 0 0 0
338 1 15.799178636562775 12.28849664035582 3.510365824229205 0 0 0
339 1 15.79905123827734 10.532719791119996 5.265999690834088 0 0 0
340 1 14.043754568176496 12.28834168379713 5.265941577161301 0 0 0
346 1 10.53271979112 15.79905123827734 5.265999690834087 0 0 0
345 1 12.288341683797128 14.043754568176496 5.265941577161302 0 0 0
344 1 12.28849664035582 15.799178636562777 3.5103658242292073 0 0 0
343 1 10.532712397118217 14.043699856636165 3.510623526129989 0 0 0
296 1 10.532673470078352 15.79905546246457 1.7552727296181618 0 0 0
295 1 12.288485689690294 14.043945006051306 1.7551977135303058 0 0 0
294 1 12.288526850897437 15.799387990556706 7.909986558885243e-16 0 0 0
293 1 10.532735457504836 14.043743829182512 1.7973989122587016e-16 0 0 0
350 1 14.044036578042007 15.799233703748724 5.265681571057841 0 0 0
349 1 15.799233703748722 14.044036578042007 5.26568157105784 0 0 0
348 1 15.799902264974525 15.799902264974527 3.509443883434586 0 0 0
347 1 14.044074451248365 14.044074451248363 3.51026690133586 0 0 0
300 1 14.044711554966543 15.799795166159956 1.7546720009183925 0 0 0
299 1 15.799795166159955 14.044711554966542 1.7546720009183934 0 0 0
298 1 15.803128090467354 15.803128090467357 1.5383794281673864e-19 0 0 0
297 1 14.044184000257586 14.044184000257587 3.702846212983593e-16 0 0 0
353 1 10.532693072215356 6.263265063919841e-05 7.021516356906673 0 0 0
354 1 12.288324459986875 1.755346677585333 7.0214427792296386 0 0 0
355 1 12.288263083905047 6.427982143067111e-05 8.777146433703669 0 0 0
356 1 10.532683752381814 1.7553672454668863 8.777146433703667 0 0 0
363 1 10.532689843135445 3.510684150998532 7.021527945376118 0 0 0
365 1 12.288248368238731 3.5106807264112025 8.777146433703667 0 0 0
402 1 10.532693072215357 6.263265063804929e-05 10.532776510500659 0 0 0
403 1 12.288324459986875 1.7553466775853326 10.532850088177696 0 0 0
407 1 10.532689843135445 3.510684150998532 10.532764922031216 0 0 0
357 1 14.043825204907229 8.592082019392786e-05 7.021375154246302 0 0 0
358 1 15.799167980020323 1.7553221843801123 7.0214168671965504 0 0 0
359 1 15.799015208519885 6.781428358862606e-05 8.777146433703667 0 0 0
360 1 14.043707664272413 1.755358738899881 8.777146433703667 0 0 0
367 1 14.043795027361787 3.5106097950588966 7.0213986024288975 0 0 0
369 1 15.799051854115334 3.5106703000327335 8.777146433703667 0 0 0
404 1 14.043825204907229 8.592082019342565e-05 10.532917713161032 0 0 0
405 1 15.799167980020322 1.7553221843801126 10.532876000210784 0 0 0
409 1 14.043795027361787 3.5106097950588975 10.532894264978438 0 0 0
364 1 12.288256780979772 5.26603315938657 7.021509844705397 0 0 0
366 1 10.53266224773952 5.266085174937078 8.777146433703667 0 0 0
373 1 10.532653929545958 7.021542489156714 7.021590291708497 0 0 0
375 1 12.288191350554797 7.02153080359327 8.777146433703667 0 0 0
408 1 12.288256780979772 5.266033159386569 10.532783022701935 0 0 0
412 1 10.532653929545958 7.021542489156714 10.532702575698837 0 0 0
374 1 12.288179664991354 8.777068224602111 7.021590291708497 0 0 0
376 1 10.532639072696286 8.777083081451785 8.777146433703667 0 0 0
413 1 12.288179664991352 8.777068224602113 10.532702575698837 0 0 0
368 1 15.79911235908917 5.2659271267862815 7.0213986024288975 0 0 0
370 1 14.043686701298984 5.266035452849087 8.777146433703667 0 0 0
377 1 14.0436889947615 7.0214653731682946 7.0215098447054 0 0 0
379 1 15.799041427736862 7.021473785909337 8.777146433703667 0 0 0
410 1 15.79911235908917 5.2659271267862815 10.532894264978438 0 0 0
414 1 14.0436889947615 7.0214653731682946 10.532783022701935 0 0 0
378 1 15.799038003149535 8.777032311012624 7.021527945376118 0 0 0
380 1 14.04363697921099 8.77705990640855 8.777146433703667 0 0 0
415 1 15.799038003149535 8.777032311012624 10.532764922031216 0 0 0
383 1 10.532642317429463 10.532642317429463 7.021608160856548 0 0 0
384 1 12.288204428961523 12.288204428961524 7.021557422637208 0 0 0
385 1 12.288166424422789 10.53264341946795 8.777146433703667 0 0 0
386 1 10.532643419467952 12.288166424422789 8.777146433703667 0 0 0
417 1 10.532642317429465 10.532642317429463 10.532684706550784 0 0 0
418 1 12.28820442896152 12.288204428961523 10.532735444770127 0 0 0
387 1 14.043646399875808 10.53266958841099 7.021558575633215 0 0 0
388 1 15.799058301822397 12.28829397123044 7.021472093179868 0 0 0
389 1 15.799023423925844 10.53266889183394 8.777146433703669 0 0 0
390 1 14.0436478645931 12.288205996791758 8.777146433703667 0 0 0
419 1 14.043646399875808 10.532669588410991 10.53273429177412 0 0 0
420 1 15.799058301822397 12.28829397123044 10.532820774227465 0 0 0
423 1 12.28829397123044 15.799058301822399 10.532820774227465 0 0 0
422 1 10.532669588410991 14.043646399875806 10.53273429177412 0 0 0
396 1 10.53266889183394 15.799023423925846 8.777146433703667 0 0 0
395 1 12.288205996791758 14.043647864593098 8.777146433703667 0 0 0
394 1 12.28829397123044 15.799058301822397 7.0214720931798675 0 0 0
393 1 10.532669588410991 14.043646399875806 7.021558575633215 0 0 0
425 1 15.79912948349947 15.799129483499472 10.532854508357483 0 0 0
424 1 14.043725802144023 14.043725802144023 10.532828309937337 0 0 0
400 1 14.043682699375278 15.799047170130901 8.777146433703667 0 0 0
399 1 15.799047170130901 14.043682699375278 8.777146433703667 0 0 0
398 1 15.79912948349947 15.799129483499472 7.021438359049852 0 0 0
397 1 14.043725802144023 14.043725802144023 7.021464557469996 0 0 0
427 1 12.28843981951816 8.331065825846331e-05 12.28846688094455 0 0 0
428 1 10.532727588465649 1.755348759923135 12.288321977422711 0 0 0
432 1 12.28841127946665 3.5105760933263213 12.288432921179146 0 0 0
453 1 10.532741811042923 6.199741507224018e-05 14.043720423952722 0 0 0
454 1 12.288531282362163 1.755252737937359 14.043984117829782 0 0 0
455 1 12.288465762733402 8.02648766879213e-05 15.79933404420085 0 0 0
456 1 10.532679604285674 1.7553299923255519 15.798993086766538 0 0 0
463 1 10.532724339173981 3.510644726240907 14.043683836801991 0 0 0
465 1 12.288464117910719 3.5104003634028804 15.799136778896036 0 0 0
429 1 15.799628321587447 0.00018563649460815964 12.288802407918055 0 0 0
430 1 14.044118190744332 1.755249773380696 12.288699916015789 0 0 0
434 1 15.799433535341075 3.5102886188069915 12.288793879314685 0 0 0
457 1 14.044344678632923 0.0001703349388021593 14.044361521980369 0 0 0
458 1 15.80012246272942 1.754784470404973 14.045110204176577 0 0 0
459 1 15.803748088211965 0.0005726790646642362 15.803453338472794 0 0 0
460 1 14.044740985289081 1.7547922596587067 15.799862818954505 0 0 0
467 1 14.044254991700642 3.5102361508404196 14.044262888059928 0 0 0
469 1 15.80051159145055 3.5092105626975174 15.800193478362258 0 0 0
433 1 10.532694481345931 5.266044666748098 12.288245462243035 0 0 0
437 1 12.288255391590997 7.02146676255707 12.28825580669715 0 0 0
464 1 12.288400327796362 5.265891485468278 14.043775478418022 0 0 0
466 1 10.532726319019568 5.266009955577328 15.798999155332137 0 0 0
473 1 10.532682474813631 7.0214943677627195 14.043626297983982 0 0 0
475 1 12.288336671274914 7.021385482873154 15.79901276334073 0 0 0
438 1 10.53265119930236 8.777070954845708 12.28817699447793 0 0 0
474 1 12.288227786385349 8.77703967933444 14.043626297983984 0 0 0
476 1 10.532670028540322 8.777052125607748 15.79896421553389 0 0 0
435 1 14.043886246423222 5.265835907724847 12.288496479704019 0 0 0
439 1 15.799146060821748 7.021310874681418 12.288432921179147 0 0 0
468 1 15.799486003307647 5.265467162447427 14.044262888059928 0 0 0
470 1 14.044171147281174 5.265551006866895 15.799216283516973 0 0 0
477 1 14.04383066867979 7.021321826351706 14.043775478418022 0 0 0
479 1 15.799321790745186 7.021258036237349 15.799136778896036 0 0 0
440 1 14.04367748739997 8.777027672802138 12.288245462243035 0 0 0
478 1 15.79907742790716 8.776997814974086 14.043683836801991 0 0 0
480 1 14.043712198570741 8.776995835128503 15.798999155332138 0 0 0
442 1 12.288206036977657 10.532675106792881 12.288209125975731 0 0 0
443 1 10.532675106792883 12.288206036977659 12.288209125975731 0 0 0
483 1 10.532669752788257 10.532669752788255 14.043606074653564 0 0 0
484 1 12.288325166187834 12.288325166187835 14.043704783942657 0 0 0
485 1 12.28826427534789 10.532711445996544 15.798984653155399 0 0 0
486 1 10.532711445996547 12.28826427534789 15.7989846531554 0 0 0
444 1 15.799051238277341 10.532719791119998 12.288293176573248 0 0 0
445 1 14.043754568176496 12.28834168379713 12.288351290246034 0 0 0
487 1 14.043699856636167 10.532712397118217 14.043669341277344 0 0 0
488 1 15.799178636562774 12.288496640355822 14.043927043178126 0 0 0
489 1 15.799055462464569 10.53267347007835 15.79902013778917 0 0 0
490 1 14.043945006051306 12.288485689690294 15.799095153877028 0 0 0
496 1 10.532673470078354 15.799055462464572 15.79902013778917 0 0 0
495 1 12.288485689690294 14.043945006051304 15.79909515387703 0 0 0
494 1 12.28849664035582 15.799178636562777 14.043927043178128 0 0 0
493 1 10.532712397118217 14.043699856636165 14.043669341277344 0 0 0
448 1 10.53271979112 15.79905123827734 12.288293176573248 0 0 0
447 1 12.288341683797128 14.043754568176496 12.288351290246034 0 0 0
500 1 14.044711554966543 15.799795166159956 15.79962086648894 0 0 0
499 1 15.799795166159955 14.044711554966542 15.79962086648894 0 0 0
498 1 15.799902264974527 15.799902264974525 14.04484898397275 0 0 0
497 1 14.044074451248365 14.044074451248365 14.044025966071473 0 0 0
450 1 14.044036578042007 15.799233703748722 12.288611296349492 0 0 0
449 1 15.799233703748722 14.044036578042007 12.288611296349494 0 0 0

Velocities

1 -2.471609097652288e-09 -2.47160919344198e-09 -1.91294295461828e-15
2 2.471611696517858e-09 2.471602980796247e-09 -6.197821137615708e-16
3 -8.951052208053034e-09 8.951057607441827e-09 -1.5307719412747972e-08
4 8.951053611824261e-09 -8.951056752281641e-09 -1.5307717592232162e-08
5 9.628632588898687e-09 9.451662981072766e-10 3.4830024320598985e-16
8 5.6214591840373625e-09 -3.2644053325121123e-09 6.38887380936223e-09
11 9.451631485056753e-10 9.628634703456797e-09 -1.0675511930231883e-15
13 -3.2644032159034185e-09 5.621464259703575e-09 6.388875762921713e-09
15 5.119432491002674e-09 5.1194343029493725e-09 -3.5094163336032543e-16
51 2.9099845847578605e-11 2.9103239897192e-11 1.112232843737563e-08
52 -2.9100172753207092e-11 -2.9101639772261395e-11 1.112232994011243e-08
53 -1.8639630502913603e-09 1.8639657591311525e-09 -2.985838386156208e-09
54 1.8639660837832954e-09 -1.86396312645917e-09 -2.985841156441038e-09
55 2.457765427215134e-09 -4.327680318667837e-09 -4.9511575131893946e-09
58 4.548186312416128e-09 -2.700757528458331e-09 1.0681808946807913e-09
61 -4.3276815297179336e-09 2.4577684691811134e-09 -4.95115427047659e-09
63 -2.70075472826672e-09 4.548186119912129e-09 1.0681801499877554e-09
65 8.314384639882625e-09 8.31438555297382e-09 4.542822162234016e-09
6 1.366379435133943e-08 -3.042562089265227e-09 -7.365581878602255e-16
7 2.7126250968227956e-09 6.198902864345247e-10 3.5256728408608276e-09
9 6.552553165237309e-09 1.77788549590324e-09 -1.655560673672324e-16
10 6.030398892253014e-09 -4.840640850870378e-09 1.871957143291815e-09
17 -1.4058495627833058e-09 2.4163203570578668e-09 5.209230193410698e-09
19 5.6665530081228915e-09 6.212590815951765e-09 -3.574027987900598e-16
56 -4.3822253261799204e-09 3.0078950799840737e-10 1.0729526246386241e-09
57 3.812967823379496e-09 3.6658776135153332e-09 3.2513351269633824e-09
59 3.711625977355116e-09 4.8636744758783084e-09 3.3817257190430737e-09
60 8.171252188444563e-09 -5.403488704557853e-09 7.985924678998163e-09
67 -6.261058161086826e-09 4.591675796592169e-09 -2.439870764049588e-10
69 1.6781332681583028e-09 -1.7270822972880006e-10 -2.1166218544684355e-10
252 -1.0161368266644133e-09 2.5591547668687386e-09 2.606607520758487e-09
262 -4.922412195797563e-09 4.935553677301745e-10 2.742302375313589e-09
301 -2.84168396254378e-09 -4.210948795843306e-09 1.6229169558294463e-09
302 -1.3711231198189649e-09 1.3691254259641861e-09 4.3549469461335895e-09
312 1.0822064877266535e-09 5.316158011348184e-09 5.278324021883951e-09
12 -3.042560917210962e-09 1.3663794334001676e-08 5.684792730649796e-16
14 6.198939134475902e-10 2.7126234975710904e-09 3.525674571296048e-09
18 2.4163175591115026e-09 -1.4058509707547866e-09 5.209229112276387e-09
21 1.7778861109545464e-09 6.552555177449619e-09 -1.8748999280790022e-16
23 -4.840639397522469e-09 6.0303976146769736e-09 1.8719555500775735e-09
25 6.21258883175779e-09 5.666552701405645e-09 -1.2501427891151946e-15
62 3.007906954350285e-10 -4.382226988798581e-09 1.0729488698435417e-09
64 3.6658646919280066e-09 3.812965095770048e-09 3.2513363580524826e-09
68 4.591672065846937e-09 -6.261061614064534e-09 -2.439846136129191e-10
71 4.863673273869148e-09 3.711624916789728e-09 3.3817262206689436e-09
73 -5.403486346210171e-09 8.171256164043666e-09 7.985925737910993e-09
75 -1.7271213942753607e-10 1.678137823832739e-09 -2.1166402504627353e-10
24 2.5591533150231534e-09 -1.0161361007416205e-09 2.606602844926327e-09
28 4.935554319087371e-10 -4.922413058091438e-09 2.742303875181889e-09
72 -4.2109450023633885e-09 -2.841684341880504e-09 1.6229203240390925e-09
74 1.3691297742897885e-09 -1.3711251076936322e-09 4.354949859439632e-09
78 5.3161520058187415e-09 1.0822039097058021e-09 5.2783239595052425e-09
16 -7.806682660847232e-10 -7.806691012264459e-10 2.0183190215733519e-16
20 -4.3174043802392316e-10 -3.654277703857731e-09 -2.728252223040492e-09
27 -3.6542746331888604e-09 -4.317383993707161e-10 -2.728252457703448e-09
29 4.957006152471019e-09 4.9570154125687125e-09 2.0413573896424265e-15
66 -4.15926504994751e-09 -4.159270011236423e-09 4.939890227198975e-09
70 -6.675325438345355e-10 -1.7109624302708836e-09 4.18726822208021e-09
77 -1.7109579933645224e-09 -6.675303278920219e-10 4.1872711595431464e-09
79 -2.6437298590822982e-09 -2.6437267250849102e-09 2.4510745917345736e-09
26 -2.3280633471458916e-09 -1.992343681306519e-09 -4.787283449548326e-16
30 5.114510181237707e-09 -2.516718958815932e-09 2.0239589943555004e-09
76 -8.046414740560606e-09 -1.2816402683497758e-09 -2.0520876953070977e-09
80 3.775145268682792e-09 -5.896880311188754e-09 -2.9754590085100896e-09
261 -1.992340592429886e-09 -2.3280712979579523e-09 5.528551069976545e-16
272 -2.5167181945364777e-09 5.114514225042304e-09 2.023958394026966e-09
311 -1.2816381965163423e-09 -8.046420095741181e-09 -2.052085171919772e-09
322 -5.896878470767153e-09 3.77514752261898e-09 -2.9754592679613855e-09
271 -2.124763053288121e-09 -2.124768419318287e-09 6.177554891234661e-16
321 -5.375849203576694e-09 -5.3758488185651766e-09 -7.029456318791359e-09
22 -1.3174861413218594e-09 -3.793173278506046e-09 3.7760905202135994e-16
31 1.3174818867412533e-09 3.793170767442469e-09 -1.5768389138715712e-15
32 -1.7778836976218185e-09 -6.552559089951128e-09 -1.0318710060905952e-15
33 -2.5591530746513677e-09 1.016136473167656e-09 2.6066070828311404e-09
34 4.840640481599222e-09 -6.030397839424593e-09 1.871958204232784e-09
35 6.25323730537147e-09 -1.8242247377087436e-09 4.276552089557604e-16
38 4.737049980176995e-10 -5.285160444664046e-09 -1.912446633405552e-10
81 4.210948889175163e-09 2.841687258867239e-09 1.622918276522176e-09
82 -4.8636724662199484e-09 -3.711632098723102e-09 3.381723802078083e-09
83 -1.3691249476243326e-09 1.3711222723581882e-09 4.354947516115186e-09
84 5.403480445082833e-09 -8.171255932685822e-09 7.985925583622354e-09
85 -1.6979039532874138e-09 -1.8174461257003579e-09 -5.706741649876828e-09
88 8.896665003175764e-09 -3.1497751098081423e-09 -1.703061032041657e-09
36 5.530660353029111e-10 -1.315791639071357e-08 -3.193764048285767e-16
37 -6.083279626198694e-09 7.582248738761557e-10 2.1296915002621025e-09
39 4.3125558800112775e-09 -2.0550526848041756e-10 -1.273970463951117e-16
40 7.305048843073851e-09 -7.305043741332934e-09 -3.946186316578972e-09
86 -6.487954941100163e-09 -1.8831617298283455e-09 -2.6672737934991454e-09
87 1.5943826159028916e-09 5.416083690266444e-09 3.7377154909203124e-12
89 -5.925610822482568e-10 4.83322434948715e-09 -5.333534407086293e-10
90 1.4622509990744011e-09 -1.4622523114292347e-09 -2.44376518602599e-10
281 2.0550502164864018e-10 -4.312555498984439e-09 2.4037178565115416e-16
282 -9.45282310414694e-10 9.452814522874192e-10 -6.339597520378841e-09
331 -4.833223094596197e-09 5.925590452851637e-10 -5.333561760644339e-10
332 -2.7754421841658183e-09 2.7754395352687404e-09 -2.222145857929576e-09
41 3.0425553790450204e-09 -1.3663790222968094e-08 7.803069091700591e-16
42 -9.451680376677954e-10 -9.628633272944208e-09 -9.053753538916753e-16
43 -6.19892576980462e-10 -2.712623283940666e-09 3.525675420409381e-09
44 3.2643997785868834e-09 -5.621465879922085e-09 6.388874009710001e-09
45 2.6544460756458284e-09 1.5699040918748422e-09 -5.890622809017192e-16
48 6.123643088163402e-09 -6.123639464366835e-09 3.856129249274266e-09
91 -3.0079059928631424e-10 4.382229094636759e-09 1.0729481501553922e-09
92 4.3276844349114285e-09 -2.457771083524747e-09 -4.951153877168256e-09
93 -3.665868739788877e-09 -3.812959508628355e-09 3.251335906003293e-09
94 2.700753805239063e-09 -4.548188865108154e-09 1.0681836790962659e-09
95 6.287535604917587e-09 1.554411046913235e-09 -1.731261707492971e-09
98 1.1426295954817005e-09 -1.1426390452307378e-09 -5.673978334425836e-09
46 -1.5699057326116232e-09 -2.654441268026416e-09 -5.76789000811123e-16
47 -1.4398945498624091e-09 1.4398940021680186e-09 -5.26859936776179e-09
49 1.3157921494211909e-08 -5.530704811692246e-10 1.8567218117891338e-15
50 5.285157588936319e-09 -4.737024516260429e-10 -1.91244372197272e-10
96 -1.5544046496743615e-09 -6.287540502056107e-09 -1.7312634299475396e-09
97 -6.101047025984745e-09 6.10105354582589e-09 -4.25856995557167e-09
99 1.8831589272752467e-09 6.487958023430012e-09 -2.6672727777452554e-09
100 3.1497712691265072e-09 -8.8966702751769e-09 -1.703063413325596e-09
342 -5.416085366050976e-09 -1.5943805280767533e-09 3.737754825979025e-12
341 1.817451703185708e-09 1.697899258633955e-09 -5.70674041820147e-09
291 1.8242281566999465e-09 -6.253241234022958e-09 -7.259227926664855e-16
292 -7.582317821313463e-10 6.083276779054752e-09 2.1296901741694933e-09
101 7.098109194572278e-09 7.0981101512519855e-09 -2.935364383968909e-09
102 -7.098107257175686e-09 -7.098113039769687e-09 -2.935363574066224e-09
103 1.4547713666707383e-09 -1.4547666419003847e-09 1.2751723228793726e-15
104 -1.454773683854752e-09 1.454768063361474e-09 3.7122417646500116e-16
105 1.8225584637239387e-09 2.684366344293425e-09 6.023739453777989e-10
108 8.876005216562582e-10 -4.46501134222883e-09 -1.2614436667428416e-15
111 2.6843564457650997e-09 1.8225620965866768e-09 6.023723174047172e-10
113 -4.465005047794591e-09 8.876034726800137e-10 9.464639060014194e-16
115 -3.329893752475959e-10 -3.3298527943736645e-10 7.963519325590637e-09
151 7.0981101800966e-09 7.0981097522348215e-09 2.9353661009746206e-09
152 -7.098106935077493e-09 -7.098111928651108e-09 2.9353662351321233e-09
153 1.8225547661157454e-09 2.6843624484366063e-09 -6.023731077512085e-10
156 2.6843595312374334e-09 1.8225627071310126e-09 -6.023725487625608e-10
158 -3.3299150409890707e-10 -3.329856472766199e-10 -7.963518904696472e-09
106 -4.810179896481438e-09 -5.8339731432139145e-09 2.632509163210143e-09
107 -7.085795355144209e-09 8.084423729988639e-10 -4.44169208369235e-15
109 4.44156533733989e-09 5.1943823015135e-10 5.491969669126599e-11
110 9.33723345037422e-10 -6.320910104649999e-09 -2.2354576065557337e-16
117 -5.371780320619754e-09 1.906169092232221e-09 -3.3837610437018257e-16
119 2.2713467072174604e-09 8.359583054988377e-10 1.3734834358453945e-09
154 -4.8101745280298025e-09 -5.833971398114751e-09 -2.6325075241750293e-09
155 4.441565117174357e-09 5.194387735418178e-10 -5.491547305852737e-11
160 2.271344260983844e-09 8.359593210232839e-10 -1.3734844617822222e-09
351 -5.110367924564329e-10 -5.081251240072235e-09 8.525812427416484e-09
352 -4.452719386228431e-09 6.425862255731792e-09 -2.0431601780348101e-16
362 -1.1178465133413001e-10 -1.6125292985736495e-09 -2.0191229994696948e-16
401 -5.110360307783371e-10 -5.0812543264459636e-09 -8.525811536238089e-09
112 -5.833963768714274e-09 -4.810179412432754e-09 2.6325068458007807e-09
114 8.08431566683251e-10 -7.085801227781386e-09 5.268649076741234e-16
118 1.9061642283601955e-09 -5.371785924677795e-09 -2.2114321648942142e-16
121 5.194296987557477e-10 4.441567790484195e-09 5.491644386007667e-11
123 -6.320903216045319e-09 9.337269321356257e-10 4.472417536771787e-16
125 8.359547949467912e-10 2.271346390909836e-09 1.3734815292675637e-09
157 -5.833966398381609e-09 -4.810182618886743e-09 -2.6325103757355693e-09
161 5.19427381571734e-10 4.441569724049861e-09 -5.4915193926791285e-11
163 8.359556206896017e-10 2.271349926390956e-09 -1.373484491644426e-09
122 -5.081250386752396e-09 -5.110381851104659e-10 8.525808665898503e-09
124 6.4258555854147406e-09 -4.452721744275649e-09 4.92762160584866e-16
128 -1.6125301922250104e-09 -1.1178805791758276e-10 1.8268255709487714e-15
162 -5.081248978173732e-09 -5.110374665115011e-10 -8.52580960980846e-09
116 -3.736521650934495e-09 -3.736522958190818e-09 -5.390962772970353e-10
120 1.738815928729421e-09 -3.2284631953333163e-09 6.45097779741285e-16
127 -3.2284592990076083e-09 1.7388220105926504e-09 8.585533243751641e-16
129 6.149893075604035e-09 6.149899293571433e-09 -2.380564101647458e-09
159 -3.7365183432109814e-09 -3.736522769230778e-09 5.390987041444775e-10
165 6.149891304664905e-09 6.149896800916016e-09 2.380566501008576e-09
126 2.053365110173739e-10 -2.8890069568329453e-09 -3.3101052549434973e-09
130 -2.377289217548659e-10 -5.279234274353352e-09 -8.183156977761479e-16
164 2.0533560124732328e-10 -2.8890080186365764e-09 3.310101594879311e-09
361 -2.8890038704592175e-09 2.053307569114788e-10 -3.310107069450014e-09
372 -5.279229567300881e-09 -2.3772068143447285e-10 -4.6632126416323905e-15
406 -2.8890041901536923e-09 2.0533044442815745e-10 3.3101074946076103e-09
371 -5.466830963041908e-09 -5.466837211059299e-09 -2.00714713522041e-09
411 -5.466829606781665e-09 -5.466832341015422e-09 2.0071516515057977e-09
131 5.081255326392592e-09 5.110388531937977e-10 8.525812409839298e-09
132 -5.194312323277401e-10 -4.44157211041588e-09 5.4918301483282655e-11
133 -6.425856854577769e-09 4.452723229623052e-09 -6.105443355539315e-16
134 6.320906662976726e-09 -9.337244585597189e-10 -1.1258413510435933e-15
135 3.70477462140096e-09 8.252050253005258e-09 -3.9078191190016245e-09
138 5.5616991117830866e-09 -1.9708081604499202e-10 1.3089288313125408e-16
166 5.081251867442596e-09 5.110353263387727e-10 -8.525806815636684e-09
167 -5.194301698844476e-10 -4.4415717255205585e-09 -5.491674732945605e-11
168 3.7047728774332336e-09 8.252050120518742e-09 3.907819449411305e-09
136 1.2182744475364545e-09 -2.9916036202063202e-09 -6.502997254071362e-09
137 -1.392086947132309e-08 4.708117341927004e-09 -1.031615141592197e-17
139 5.153727764098998e-09 1.2591712123880137e-09 -3.405312063648408e-10
140 3.319202392660193e-09 -3.3192037012592173e-09 9.546515699501619e-16
169 1.2182749317944077e-09 -2.9916001491585116e-09 6.50299772463669e-09
170 5.1537277189541715e-09 1.2591740032171194e-09 3.4053124001689077e-10
381 -1.2591683470060963e-09 -5.1537303097864394e-09 -3.4052843863396136e-10
382 -3.846463615043581e-09 3.846467088415883e-09 -1.8748999280790022e-16
416 -1.2591713279918193e-09 -5.153732098152525e-09 3.4053020506612114e-10
141 5.833965182100374e-09 4.810181880750528e-09 2.632506330128184e-09
142 -2.6843588437741263e-09 -1.8225643004954867e-09 6.023722735368662e-10
143 -8.084308840273797e-10 7.085801135313365e-09 2.4788340395275272e-17
144 4.465006172734547e-09 -8.876022808866539e-10 4.864524012115232e-16
145 2.4018990575084974e-09 6.168327627987324e-09 3.020401110425681e-09
148 1.0022077860723188e-09 -1.0022165263296416e-09 -1.8978925222240516e-16
171 5.833959143961118e-09 4.8101816219001615e-09 -2.632505644617898e-09
172 -2.6843592235615476e-09 -1.822558531084376e-09 -6.02375954229834e-10
173 2.4019008102507328e-09 6.168324943030866e-09 -3.02040263610754e-09
146 -6.168321654787582e-09 -2.401909078354724e-09 3.020403747525997e-09
147 8.452338950347877e-10 -8.452233110777475e-10 -4.6863108679098057e-17
149 2.9915969018149113e-09 -1.2182685797419228e-09 -6.5029959309749145e-09
150 1.9707496558938817e-10 -5.561709224454153e-09 -1.1807512808282788e-15
174 -6.168318514804754e-09 -2.4019076843110416e-09 -3.0203979523124775e-09
175 2.991596198276741e-09 -1.2182690119604399e-09 6.5029965173318386e-09
421 -8.252046637796754e-09 -3.7047781272610117e-09 3.907823843725617e-09
391 -8.252045938615322e-09 -3.7047776174474776e-09 -3.907820877688015e-09
392 -4.708114552705854e-09 1.39208710063575e-08 -3.2930934634208116e-16
176 -1.8639604398537683e-09 1.8639652059755807e-09 2.9858375987132616e-09
177 1.863963023850464e-09 -1.8639616539566344e-09 2.9858420695533585e-09
179 4.54818172646048e-09 -2.7007570099911684e-09 -1.0681788961578182e-09
181 -2.7007520553324637e-09 4.548184477872369e-09 -1.0681826273194714e-09
201 2.9099514134514407e-11 2.9102905780409945e-11 -1.1122327719264921e-08
202 -2.9099047813250242e-11 -2.9102244457534672e-11 -1.112232934402796e-08
203 -8.951055087707025e-09 8.95105754851318e-09 1.530771970209551e-08
204 8.951052712833784e-09 -8.951056008330964e-09 1.5307714561143944e-08
205 2.457764472230236e-09 -4.327681949616223e-09 4.951152816881766e-09
208 5.6214574032767905e-09 -3.2644060605714616e-09 -6.388872311816663e-09
211 -4.327687218416706e-09 2.4577633757029756e-09 4.951153711912653e-09
213 -3.2644017929024472e-09 5.621462342701027e-09 -6.388873769037751e-09
215 8.314382675103838e-09 8.314388462411966e-09 -4.542823937602599e-09
178 3.812970882204364e-09 3.66587387049706e-09 -3.2513324482855463e-09
180 8.171250692430663e-09 -5.403490105474666e-09 -7.98592745158768e-09
183 -6.261057820372405e-09 4.591676854789985e-09 2.439874824771757e-10
206 -4.382222255952651e-09 3.007876293519558e-10 -1.0729538012649702e-09
207 2.7126267241433053e-09 6.198896132884796e-10 -3.525672356661243e-09
209 3.7116203958471366e-09 4.863673989275675e-09 -3.3817248778920564e-09
210 6.030398629947303e-09 -4.8406413123842064e-09 -1.8719571234611427e-09
217 -1.4058484372321314e-09 2.4163221429545074e-09 -5.209228185431302e-09
219 1.6781310015936197e-09 -1.7270717018841052e-10 2.1166379753167893e-10
426 -1.3711184397802983e-09 1.369126014875061e-09 -4.354951801343194e-09
431 1.0822077891403455e-09 5.316157326029209e-09 -5.278323839388011e-09
451 -2.8416817303912855e-09 -4.2109485693304555e-09 -1.6229157574258623e-09
452 -1.016136528603399e-09 2.5591562259254775e-09 -2.606605778363506e-09
462 -4.922411813193285e-09 4.93554823784551e-10 -2.7423011217747267e-09
182 3.665864502034296e-09 3.812966784006261e-09 -3.2513380118103676e-09
184 4.5916728146566915e-09 -6.261062670539025e-09 2.439874535245819e-10
186 -5.4034849905133e-09 8.171257406615566e-09 -7.985924880309532e-09
212 3.007960461109771e-10 -4.382223911609861e-09 -1.0729481247661225e-09
214 6.198905338202839e-10 2.712623538659643e-09 -3.525672232328341e-09
218 2.416317280622949e-09 -1.4058512582698995e-09 -5.209228863135373e-09
221 4.8636722402704695e-09 3.711627879747567e-09 -3.3817253276877603e-09
223 -4.840637561082027e-09 6.030398885192093e-09 -1.871958229208915e-09
225 -1.7271547760009882e-10 1.6781373483887923e-09 2.116632225270405e-10
187 1.3691251134808647e-09 -1.371125477866182e-09 -4.354951847314299e-09
189 5.3161498158017305e-09 1.0822011439273567e-09 -5.278322899765545e-09
222 -4.210940906428161e-09 -2.841689828216279e-09 -1.6229173903014488e-09
224 2.559152178665537e-09 -1.0161377280586096e-09 -2.6066040780335874e-09
228 4.935533658991551e-10 -4.922417723849228e-09 -2.7423037395678366e-09
185 -6.67533336610731e-10 -1.7109626037892665e-09 -4.187273280178626e-09
188 -1.7109585840406275e-09 -6.675309331933392e-10 -4.187273650426292e-09
216 -4.159266706131413e-09 -4.159273246118366e-09 -4.939889531995753e-09
220 -4.317405047270937e-10 -3.654278861698576e-09 2.728247990544044e-09
227 -3.654273636740595e-09 -4.317351971220602e-10 2.7282534442512273e-09
229 -2.643726363024908e-09 -2.643726820181998e-09 -2.451069582590478e-09
190 3.775146948130412e-09 -5.896881578774342e-09 2.975455979675358e-09
226 -8.046416495819236e-09 -1.2816391655867958e-09 2.052089161336731e-09
230 5.114507030414294e-09 -2.516720289552877e-09 -2.0239598799752983e-09
436 -5.896878325342223e-09 3.775147935157057e-09 2.9754576045135127e-09
461 -1.2816376845244388e-09 -8.046415242634829e-09 2.0520895427802294e-09
472 -2.5167130054354388e-09 5.114513470350013e-09 -2.0239669279765183e-09
471 -5.375843939399377e-09 -5.375855104363661e-09 7.0294598442766875e-09
191 -1.3691227025518546e-09 1.371122143008121e-09 -4.354954426841582e-09
192 5.403481695016119e-09 -8.171254336617166e-09 -7.9859279422705e-09
194 8.896662674076446e-09 -3.1497698491724363e-09 1.7030591006754856e-09
231 4.21093840656159e-09 2.841687859346006e-09 -1.6229151205908628e-09
232 -4.8636699038567135e-09 -3.7116239445609707e-09 -3.3817204585065446e-09
233 -2.559153238104182e-09 1.0161409165903461e-09 -2.6066046208231258e-09
234 4.840637751877132e-09 -6.030399817684389e-09 -1.871959724434096e-09
235 -1.6979022288968427e-09 -1.8174499719572214e-09 5.70674357999654e-09
238 4.737010655634548e-10 -5.285160326848421e-09 1.9124422881514975e-10
193 1.5943860094583815e-09 5.416084615910844e-09 -3.736561328586103e-12
195 1.462247203378557e-09 -1.4622538484565715e-09 2.443767538665301e-10
236 -6.487949595397799e-09 -1.8831627517511178e-09 2.6672747359261434e-09
237 -6.0832751647715935e-09 7.582292752114833e-10 -2.12969244107277e-09
239 -5.925685849652906e-10 4.833230332040431e-09 5.333575067476161e-10
240 7.305042567567458e-09 -7.30504980305867e-09 3.946182783414188e-09
441 -2.775434698988413e-09 2.7754403669551187e-09 2.222138784388854e-09
481 -4.833216541310158e-09 5.925578830500221e-10 5.333580995645323e-10
482 -9.452764189022278e-10 9.452829281701831e-10 6.339598175842654e-09
196 -3.6658666341320347e-09 -3.812965467144456e-09 -3.251330922870828e-09
197 2.700751776501192e-09 -4.548186874829769e-09 -1.0681863634481821e-09
199 1.1426289143891849e-09 -1.1426340638951926e-09 5.673978665694658e-09
241 -3.007876282910436e-10 4.382223066755557e-09 -1.0729478457846188e-09
242 4.327684045509136e-09 -2.457767384653663e-09 4.951153656927607e-09
243 -6.19891889517155e-10 -2.712624313332838e-09 -3.525675332974144e-09
244 3.2644057848768775e-09 -5.6214599691798755e-09 -6.388871458463961e-09
245 6.2875292705482735e-09 1.5544044181185607e-09 1.7312600371602303e-09
248 6.123643387008442e-09 -6.123642650260116e-09 -3.856126699358604e-09
198 -6.1010457706372266e-09 6.1010512671201416e-09 4.258565007123906e-09
200 3.1497674095067913e-09 -8.896669617609834e-09 1.703058778772144e-09
246 -1.5544011379597518e-09 -6.287531354361024e-09 1.7312640305777127e-09
247 -1.4398935428806808e-09 1.4398936825134492e-09 5.268601617038158e-09
249 1.8831561024936265e-09 6.487956857927316e-09 2.667272941273186e-09
250 5.285157018053328e-09 -4.73702038787501e-10 1.9124270642079743e-10
492 -7.582208572336884e-10 6.083281466304571e-09 -2.1296901971550454e-09
491 1.8174537658760935e-09 1.6978975278444238e-09 5.7067435926864805e-09
446 -5.416080979265888e-09 -1.59437659559434e-09 -3.7386045402413024e-12
251 -3.793171747934006e-09 -1.3174837712560528e-09 -1.0867809358752807e-15
253 3.793175795794876e-09 1.3174883022642124e-09 -9.083048850292988e-16
254 -6.5525535362736946e-09 -1.777888406354867e-09 2.8127551478460784e-17
255 -6.0303980004736895e-09 4.840639169469737e-09 1.87195444947526e-09
256 1.0161342474751532e-09 -2.5591546912267426e-09 2.6066045058953657e-09
263 -1.8242306454493221e-09 6.253240335332945e-09 5.456439534281199e-16
265 -5.285158854193306e-09 4.737074148527194e-10 -1.9124351031418806e-10
303 2.8416811462878463e-09 4.210948390403708e-09 1.6229178678901404e-09
304 -3.71162368225526e-09 -4.8636725076840815e-09 3.381728544613414e-09
305 -8.171252305475577e-09 5.4034926385085525e-09 7.985929657172959e-09
306 1.3711239995797004e-09 -1.3691272050158646e-09 4.354949508797289e-09
313 -1.8174510097131064e-09 -1.6978987816837508e-09 -5.706742785037281e-09
315 -3.149768151804912e-09 8.896663773120098e-09 -1.7030630408995606e-09
257 -1.3663798724659941e-08 3.0425641747404336e-09 -3.602573889514849e-16
258 -9.628630025821848e-09 -9.451674745968876e-10 -3.6296139633324275e-16
259 -5.621462553176572e-09 3.2644076171108137e-09 6.3888781870711706e-09
260 -2.7126222439477225e-09 -6.198917385653994e-10 3.525677420500991e-09
267 1.5699029283754526e-09 2.654445293778076e-09 2.017996256724455e-16
269 -6.123643374093154e-09 6.123639183819042e-09 3.856128901897717e-09
307 4.382229245089778e-09 -3.0078424807278423e-10 1.0729486747462749e-09
308 -2.457769919975072e-09 4.3276800569149335e-09 -4.951160785678724e-09
309 -4.5481869156929724e-09 2.700754860471202e-09 1.068182750660244e-09
310 -3.812970730009587e-09 -3.66587428201229e-09 3.25133448079285e-09
317 1.5544037907253132e-09 6.28753355221648e-09 -1.7312630267989855e-09
319 -1.1426300583194516e-09 1.1426380880797942e-09 -5.673977168502372e-09
264 -1.3157915740762986e-08 5.530641625461416e-10 5.474526102723016e-16
266 7.582290875636291e-10 -6.08328225292124e-09 2.1296930711002074e-09
273 -2.055063292711541e-10 4.312561573893066e-09 -7.81208303366251e-16
275 -7.305045211957564e-09 7.305044215316048e-09 -3.9461831025077336e-09
314 -1.8831581074947834e-09 -6.487955830697082e-09 -2.667276657796573e-09
316 5.4160772655217995e-09 1.5943811151848398e-09 3.734928053779768e-12
323 4.833225307669181e-09 -5.925601392772532e-10 -5.333520013323304e-10
325 -1.4622509482207453e-09 1.4622577535966942e-09 -2.443791339603012e-10
274 -4.312562468000993e-09 2.0550718709796414e-10 5.253625840138038e-16
276 9.452806806939874e-10 -9.452822310920048e-10 -6.339602904556606e-09
324 5.925590262807695e-10 -4.833228683991375e-09 -5.333530757942123e-10
326 2.7754397852553977e-09 -2.775443249012829e-09 -2.222144043723524e-09
268 -2.6544456182633897e-09 -1.5699046325433387e-09 -6.514075391146277e-16
270 1.4398920242661983e-09 -1.4398932428601127e-09 -5.268602102870809e-09
277 -5.530655626648454e-10 1.3157914827443102e-08 6.009453089477403e-16
279 -4.737070559475969e-10 5.285160447482664e-09 -1.9124505620523452e-10
318 -6.287531367444692e-09 -1.5544061857273452e-09 -1.7312581114213175e-09
320 6.1010520181804475e-09 -6.101048395081474e-09 -4.258571803945609e-09
327 6.487955330280113e-09 1.88316135164888e-09 -2.667272321390383e-09
329 -8.896668084338306e-09 3.1497682514840867e-09 -1.7030608018363773e-09
278 -6.253232943299607e-09 1.8242279932377427e-09 1.3869452032071594e-15
280 6.083282018314621e-09 -7.582268566969124e-10 2.1296952348717413e-09
328 1.6978966188165456e-09 1.817451375456149e-09 -5.706744721369336e-09
330 -1.5943784888648697e-09 -5.416090039725307e-09 3.737382207458413e-12
283 2.1247669040441267e-09 2.1247644962324386e-09 -8.8697188905275875e-16
284 -4.957005922089685e-09 -4.957014634515289e-09 2.3656339517224366e-15
285 -5.1145121883421175e-09 2.516718900703714e-09 2.0239581166980183e-09
286 2.516719632786034e-09 -5.114513171462721e-09 2.0239622972140677e-09
333 5.375850592890404e-09 5.37585243380026e-09 -7.029457712178949e-09
334 2.6437273441924906e-09 2.643724438398067e-09 2.4510761797443674e-09
335 -3.775151079971175e-09 5.896889442086612e-09 -2.9754563707302067e-09
336 5.896883682027466e-09 -3.775148238776669e-09 -2.9754591447708455e-09
287 2.3280638168086524e-09 1.9923475749238242e-09 1.7815487047907063e-15
288 -6.212589093415625e-09 -5.666552657180084e-09 -1.0384061140129859e-15
289 -4.93556639814518e-10 4.922410674845089e-09 2.7423047987118856e-09
290 3.6542756370641238e-09 4.3173300644426196e-10 -2.7282537437687913e-09
337 8.046419659020388e-09 1.2816421807315055e-09 -2.052092843942814e-09
338 1.7271198785716302e-10 -1.678138406809848e-09 -2.1166006699912372e-10
339 -5.316153579671787e-09 -1.0821984641164484e-09 5.278320964354838e-09
340 1.7109580847621381e-09 6.675306229881509e-10 4.187271837458483e-09
346 -1.0822089323077137e-09 -5.316153836869598e-09 5.278323649007219e-09
345 6.675356782826204e-10 1.7109588221401487e-09 4.187268364049796e-09
344 -1.6781347043707453e-09 1.7270449877371632e-10 -2.116682066638315e-10
343 1.2816414150945523e-09 8.046419166215974e-09 -2.0520876630728656e-09
296 4.922415648137334e-09 -4.93555517278279e-10 2.742305093167323e-09
295 4.317376629316578e-10 3.654279207233018e-09 -2.728250565827263e-09
294 -5.666552276341036e-09 -6.21258826323157e-09 -1.1090153260480124e-15
293 1.9923385588845796e-09 2.328070413427339e-09 -1.1228367037229538e-15
350 6.261060618959929e-09 -4.591679221326504e-09 -2.439843664255135e-10
349 -4.591673445580987e-09 6.261061400459308e-09 -2.43983032806345e-10
348 -8.31438247471264e-09 -8.314387133305637e-09 4.542818750894183e-09
347 4.159264916967218e-09 4.159272478649011e-09 4.939893881983889e-09
300 1.4058470822581252e-09 -2.416320855240716e-09 5.209231214440821e-09
299 -2.416314407734108e-09 1.4058548982378108e-09 5.209225780133071e-09
298 -5.119426801026927e-09 -5.1194400617374115e-09 1.5383794281673865e-16
297 7.80670478472272e-10 7.806675314749025e-10 -7.403040206429679e-16
353 5.110397956014298e-10 5.081253122183317e-09 8.525812554062369e-09
354 -4.441568918879496e-09 -5.194377061408573e-10 5.49131846064537e-11
355 -9.337230187327229e-10 6.320907324064863e-09 -5.0257536491519455e-15
356 4.4527175545954254e-09 -6.425861676586021e-09 2.2009041623683802e-16
363 8.252045137576346e-09 3.7047762905201046e-09 -3.9078185421756525e-09
365 -1.97075923470954e-10 5.561709667789865e-09 1.7276722093676704e-18
402 5.110334545937244e-10 5.081258040190051e-09 -8.525809269832616e-09
403 -4.441567543952882e-09 -5.194346178141087e-10 -5.4914227331748234e-11
407 8.252045118196372e-09 3.7047767135744473e-09 3.907818482383171e-09
357 4.810176114550634e-09 5.833969825666025e-09 2.632507272602717e-09
358 -1.8225608592729104e-09 -2.6843605444045096e-09 6.023763027689232e-10
359 -8.876004612722366e-10 4.4650088865320075e-09 1.7066396781231945e-16
360 7.085801349450824e-09 -8.084366360716029e-10 3.324642260287526e-16
367 6.168321138110306e-09 2.4019037144060982e-09 3.020401832083283e-09
369 -1.0022082984585823e-09 1.0022122518948895e-09 3.245019106290581e-16
404 4.810176429747528e-09 5.8339695711712234e-09 -2.6325064044802113e-09
405 -1.8225585079110333e-09 -2.684361265970564e-09 -6.023776999299273e-10
409 6.168320894217449e-09 2.4019019955764717e-09 -3.020403546209345e-09
364 -2.991596743169533e-09 1.2182699025455347e-09 -6.502990203854215e-09
366 4.708116047818361e-09 -1.3920873619118998e-08 -5.865071569888161e-16
373 1.2591693741447828e-09 5.153734077163483e-09 -3.405280143777597e-10
375 -3.3192019208554476e-09 3.319203385921481e-09 -1.798275552950899e-16
408 -2.991596560486976e-09 1.2182732663561898e-09 6.502995801474615e-09
412 1.2591713019265038e-09 5.153732958533286e-09 3.405327100405924e-10
374 -5.153729787428503e-09 -1.2591744456889955e-09 -3.405291315056335e-10
376 3.846460800289971e-09 -3.8464703142052475e-09 -1.8562711146910378e-15
413 -5.153724951148176e-09 -1.2591781860617706e-09 3.4053198622105286e-10
368 -2.40189596817707e-09 -6.168324244493107e-09 3.0203996298070765e-09
370 -8.452361581210653e-10 8.452246118605712e-10 -2.1754057393055318e-16
377 -1.2182749258950869e-09 2.9916029168242022e-09 -6.502999824723198e-09
379 -5.561696594118675e-09 1.9707962189134097e-10 6.97078178388347e-16
410 -2.4018958888543807e-09 -6.16832346809224e-09 -3.02040186571538e-09
414 -1.2182767788517e-09 2.991602808974969e-09 6.502998124210771e-09
378 -3.7047766804482105e-09 -8.252049961128001e-09 -3.907817631016352e-09
380 1.3920870417578079e-08 -4.70811590296091e-09 1.108112758161461e-15
415 -3.7047742865705742e-09 -8.252048835029612e-09 3.907819502160471e-09
383 5.466834263121176e-09 5.466835063859687e-09 -2.0071506096443393e-09
384 -6.149893228240119e-09 -6.149901329370225e-09 -2.3805700778909787e-09
385 2.377296382130195e-10 5.279235416748285e-09 -1.3728245344905137e-15
386 5.279228536105921e-09 2.377260422511062e-10 -1.0879827948035364e-15
417 5.466826609683521e-09 5.466833953041572e-09 2.007155011903361e-09
418 -6.1498890169264346e-09 -6.149895149561848e-09 2.3805653249896143e-09
387 -2.0533474891407757e-10 2.889009041722856e-09 -3.310101896520668e-09
388 -8.359576146205112e-10 -2.2713455912914453e-09 1.3734807430804658e-09
389 1.612528268584069e-09 1.1178622576932603e-10 -3.4204905098159233e-15
390 3.228459267634865e-09 -1.738823215922281e-09 4.684157146099894e-16
419 -2.053350771671026e-10 2.889004767012358e-09 3.310103087288809e-09
420 -8.359556079667982e-10 -2.2713433791198553e-09 -1.3734793852803416e-09
423 -2.2713435132773585e-09 -8.359633911676595e-10 -1.373481459388387e-09
422 2.889003844018321e-09 -2.0532845895720796e-10 3.3101005361448804e-09
396 1.1178825691091479e-10 1.6125225837913383e-09 -1.3436782817899517e-15
395 -1.7388221142466277e-09 3.2284654982452554e-09 1.4493397564151721e-15
394 -2.2713452054947293e-09 -8.359565454167622e-10 1.3734853762466341e-09
393 2.889002856090282e-09 -2.0533060803120406e-10 -3.3101019017570873e-09
425 3.3299207533400513e-10 3.329837720662507e-10 -7.963518070628676e-09
424 3.736520449372511e-09 3.736521391621569e-09 5.3909986957549e-10
400 5.3717817995247715e-09 -1.9061659000373983e-09 -2.289523652971849e-16
399 -1.906164278589448e-09 5.3717838748534544e-09 1.2956039246597208e-15
398 3.3299021418033854e-10 3.329854858419662e-10 7.96351642828845e-09
397 3.736522038915449e-09 3.7365227924265724e-09 -5.390992775238198e-10
427 -8.17125256026967e-09 5.403489541983577e-09 -7.985927979190104e-09
428 1.3711228962732043e-09 -1.3691276253660248e-09 -4.354947530237029e-09
432 -3.1497683633320834e-09 8.896663378910369e-09 1.7030645471292624e-09
453 2.841680903512343e-09 4.2109503362133124e-09 -1.6229220509601402e-09
454 -3.7116251965975092e-09 -4.863668888436152e-09 -3.381728050499162e-09
455 -6.030396683236304e-09 4.840640262442477e-09 -1.8719514907614853e-09
456 1.016130144328772e-09 -2.5591568298595892e-09 -2.6066048015526622e-09
463 -1.8174501122249517e-09 -1.6979011998239144e-09 5.706738729664792e-09
465 -5.285153181419164e-09 4.737068857343263e-10 1.912432965335312e-10
429 -4.548183211563755e-09 2.7007519567800314e-09 -1.0681813048239533e-09
430 -3.812972653847709e-09 -3.6658717751609425e-09 -3.2513374868016514e-09
434 -1.142626684466702e-09 1.142634584396938e-09 5.673979007138789e-09
457 4.382228165595112e-09 -3.007905172259922e-10 -1.072949304742034e-09
458 -2.457760601812569e-09 4.327682584950073e-09 4.951159032241663e-09
459 -5.62145903413363e-09 3.2644079752647744e-09 -6.388874611540859e-09
460 -2.7126251957085556e-09 -6.198919371730915e-10 -3.5256732798505082e-09
467 1.55440122207814e-09 6.287537650726197e-09 1.7312645560388867e-09
469 -6.1236393839590695e-09 6.123643179645524e-09 -3.856128574240927e-09
433 5.416078693330207e-09 1.594381290881592e-09 -3.737569739704074e-12
437 -1.4622506934266525e-09 1.4622550333392424e-09 2.443723982921702e-10
464 -1.883155636472827e-09 -6.487959904370338e-09 2.6672745631818095e-09
466 7.582235373790984e-10 -6.083276853241371e-09 -2.1296908455579373e-09
473 4.833218110937919e-09 -5.925605495618448e-10 5.333580785320012e-10
475 -7.305044736021429e-09 7.3050478453807086e-09 3.946183484999337e-09
438 2.7754377589212444e-09 -2.775442037539029e-09 2.2221404928313204e-09
474 5.925660259071677e-10 -4.833226669375346e-09 5.333534345491023e-10
476 9.452780504257228e-10 -9.452829185553117e-10 6.339603184289272e-09
435 6.101046307866994e-09 -6.101047640482465e-09 4.258570982699793e-09
439 -8.89666237055073e-09 3.149768526634665e-09 1.7030596590187688e-09
468 -6.287535886434262e-09 -1.5544068828055234e-09 1.73126354172042e-09
470 1.4398922373567253e-09 -1.4398945793936324e-09 5.26859739495641e-09
477 6.4879547116513985e-09 1.8831598711857894e-09 2.6672758149068355e-09
479 -4.737035289423396e-10 5.285159263538945e-09 1.9124433749359544e-10
440 -1.594383669707823e-09 -5.416081712246081e-09 -3.737628086199231e-12
478 1.6979034713372889e-09 1.8174512033051155e-09 5.706739792408549e-09
480 6.083275302880912e-09 -7.582324165121593e-10 -2.129695554791565e-09
442 -3.775144767808084e-09 5.896883621033126e-09 2.9754617952829212e-09
443 5.896877165548357e-09 -3.7751521880851064e-09 2.975461924069617e-09
483 5.375845518642009e-09 5.3758548631702925e-09 7.029459475906926e-09
484 2.6437297767549615e-09 2.6437239079275824e-09 -2.451075143741971e-09
485 -5.114511611449832e-09 2.5167210473739926e-09 -2.023960172402599e-09
486 2.5167106298110345e-09 -5.114514296402678e-09 -2.023965798679823e-09
444 -5.31615476470469e-09 -1.0822033893343364e-09 -5.278323136414385e-09
445 1.710956567809601e-09 6.675309992797355e-10 -4.187273997213648e-09
487 8.046412780016495e-09 1.2816409960411182e-09 2.052086736177312e-09
488 1.7271698323356594e-10 -1.6781414895028828e-09 2.116673826393038e-10
489 -4.935488469612272e-10 4.922420328176001e-09 -2.7423031368414525e-09
490 3.6542764106434397e-09 4.3173668152698983e-10 2.7282532828511974e-09
496 4.922410521758308e-09 -4.935618486711131e-10 -2.7423026092253828e-09
495 4.31739268615186e-10 3.654283173367481e-09 2.728247541048805e-09
494 -1.6781347572525382e-09 1.7270424803589742e-10 2.116648346983759e-10
493 1.2816389633023385e-09 8.046418785414484e-09 2.0520910401462213e-09
448 -1.082209494777692e-09 -5.316154940176094e-09 -5.278323120489755e-09
447 6.675362840195202e-10 1.710960534638889e-09 -4.187272751248023e-09
500 1.4058463886681545e-09 -2.4163216643781555e-09 -5.209229275726267e-09
499 -2.4163169100043967e-09 1.405851458517558e-09 -5.209226269439887e-09
498 -8.314387757032863e-09 -8.314382224275286e-09 -4.542824012031641e-09
497 4.159263828444526e-09 4.159269369085569e-09 -4.939889159435917e-09
450 6.261060039222618e-09 -4.591675241165855e-09 2.439854433292582e-10
449 -4.591671577892212e-09 6.261061684098015e-09 2.439786868844604e-10
