LAMMPS data file via write_data, version 29 Aug 2024, timestep = 29, units = metal

500 atoms
3 atom types

0 17.69320287916307 xlo xhi
0 17.69320287916307 ylo yhi
0 17.69320287916307 zlo zhi

Masses

1 54.7138
2 58.71
3 58.71

Atoms # atomic

1 2 0.00613263439891816 0.0061326343989185905 1.0551559922615127e-15 0 0 0
2 3 1.76318765351739 1.7631876535173872 8.873959321246267e-16 0 0 0
3 1 1.7628868274591114 0.006433460457196236 1.7561178247225109 0 0 0
4 1 0.006433460457195691 1.7628868274591103 1.7561178247225127 0 0 0
5 1 3.5316867467589876 0.006365897265660647 5.840658013598275e-16 0 0 0
8 1 3.5312123871857453 1.7685815940105687 1.7621573752661908 0 0 0
21 1 0.006365897265655697 3.5316867467589903 9.951850632366214e-16 0 0 0
23 1 1.7685815940105702 3.5312123871857466 1.762157375266192 0 0 0
25 1 3.529941748431047 3.5299417484310465 8.627953009133636e-16 0 0 0
51 1 0.0007095584093667433 0.000709558409371192 3.5368689716993766 0 0 0
52 1 1.768610729506938 1.7686107295069384 3.536868971699376 0 0 0
53 1 1.7690329123206254 0.00028737559568089386 5.3079545888908815 0 0 0
54 1 0.00028737559567640895 1.769032912320626 5.307954588890881 0 0 0
55 1 3.5355714393648126 0.0006459058327458591 3.535268336354034 0 0 0
58 1 3.5378261242100257 1.768937434207616 5.30732094143907 0 0 0
71 1 0.0006459058327451346 3.5355714393648126 3.5352683363540347 0 0 0
73 1 1.768937434207617 3.5378261242100257 5.30732094143907 0 0 0
75 1 3.537569126955709 3.5375691269557104 3.5373099200307996 0 0 0
6 1 5.307196176649901 1.7690696221460729 6.902297766257398e-16 0 0 0
7 1 5.307178875285583 0.0006209043836580879 1.7684099499480277 0 0 0
9 1 7.077519561650419 0.00028843862384761746 1.0296485466466116e-16 0 0 0
12 1 7.077317082341625 1.7692926571204715 1.7689929747046091 0 0 0
27 1 5.306525818382956 3.5375249714364716 1.7683568940951802 0 0 0
29 1 7.0772429286677685 3.5382179104190925 1.0530445031182094e-15 0 0 0
56 1 5.304909189766744 1.768940930933903 3.5356775174610786 0 0 0
57 1 5.306489557972255 0.00037599716381445943 5.3063658452944304 0 0 0
59 1 7.076635041344321 0.00037055136854121295 3.538002546842138 0 0 0
62 1 7.076012782279659 1.7691591441630536 5.306715340102756 0 0 0
77 1 5.307153209769985 3.537985974825836 5.307037790256163 0 0 0
79 1 7.076375135440727 3.5380515841554554 3.537947916167354 0 0 0
60 1 8.846546242372124 1.769305089535589 3.538437254780356 0 0 0
61 1 8.846307908146779 0.00015980110337086324 5.307555967221122 0 0 0
81 1 8.846307025744125 3.5383024634854325 5.307516586615477 0 0 0
10 1 8.846818396811289 1.7693433383883805 1.4991154994865462e-18 0 0 0
11 1 8.846605203569457 3.1358386711679064e-05 1.7693022730843158 0 0 0
14 1 12.38500360542896 1.7690318492924613 0 0 0 0
15 1 12.385206084737751 2.7630795837352153e-05 1.7689929747046103 0 0 0
16 1 10.61591796350992 1.7692889295295964 1.7693022730843173 0 0 0
31 1 8.846604057102288 3.538562416826973 1.7692730038633584 0 0 0
33 1 10.6159783466319 3.5385157801922107 6.316592080505218e-19 0 0 0
35 1 12.385813406411314 3.538135213449036 1.7689238973740207 0 0 0
63 1 10.615976924707255 1.5198380716900235e-05 3.538437254780356 0 0 0
64 1 12.385888125735054 1.7689497365477662 3.5380025468421374 0 0 0
65 1 12.386510384799715 0.00016114375325185297 5.306715340102757 0 0 0
66 1 10.616215258932598 1.7691604868129367 5.307555967221122 0 0 0
83 1 10.616230621514246 3.538413127425278 3.5383830352706083 0 0 0
85 1 12.385836529352423 3.5382123206338436 5.307391569065251 0 0 0
17 1 14.155326990429476 0.00025066577023716123 3.528583406232436e-16 0 0 0
18 1 15.93083642032039 1.762954390650647 2.1903515224211165e-16 0 0 0
19 1 15.931310779893632 0.0007386939057386945 1.7621573752661923 0 0 0
20 1 14.155344291793794 1.7686993835326483 1.7684099499480266 0 0 0
37 1 14.156880473380005 3.5360018684329093 6.626026266478644e-19 0 0 0
39 1 15.92540406727173 3.5371190998076503 1.7679818907142686 0 0 0
67 1 14.157613977312636 0.0003793569824039335 3.535677517461078 0 0 0
68 1 15.926951727714567 1.7686743820835593 3.535268336354036 0 0 0
69 1 15.924697042869353 0.00038285370869199734 5.307320941439069 0 0 0
70 1 14.156033609107123 1.7689442907524924 5.3063658452944304 0 0 0
87 1 14.155568984748388 3.537872134076583 3.5377275961645913 0 0 0
89 1 15.924756761743627 3.537766405335751 5.3067205195619565 0 0 0
22 1 1.7690696221460744 5.307196176649901 2.6354208811502087e-18 0 0 0
24 1 0.0006209043836548136 5.307178875285581 1.768409949948028 0 0 0
28 1 3.53752497143647 5.306525818382955 1.7683568940951806 0 0 0
41 1 0.00028843862384647455 7.077519561650422 9.3761636688629e-19 0 0 0
42 1 1.769292657120473 7.077317082341628 1.768992974704609 0 0 0
43 1 3.5382179104190907 7.07724292866777 2.824409667138427e-16 0 0 0
72 1 1.7689409309339053 5.304909189766743 3.5356775174610786 0 0 0
74 1 0.0003759971638141835 5.306489557972254 5.3063658452944304 0 0 0
78 1 3.5379859748258355 5.307153209769985 5.307037790256163 0 0 0
91 1 0.00037055136853801597 7.076635041344323 3.5380025468421388 0 0 0
92 1 1.7691591441630536 7.076012782279661 5.306715340102757 0 0 0
93 1 3.538051584155455 7.0763751354407285 3.5379479161673535 0 0 0
301 1 1.7693050895355906 8.846546242372124 3.538437254780357 0 0 0
302 1 0.00015980110337009547 8.846307908146777 5.307555967221122 0 0 0
304 1 3.538302463485432 8.846307025744126 5.307516586615475 0 0 0
26 1 5.30462181300608 5.304621813006079 0 0 0 0
32 1 7.076397307622318 5.3072086766772895 1.7688077972720755 0 0 0
44 1 5.30720867667729 7.076397307622319 1.7688077972720753 0 0 0
45 1 7.075991029110543 7.0759910291105435 2.064591471489583e-18 0 0 0
76 1 5.307271148279241 5.307271148279242 3.5379914065218263 0 0 0
82 1 7.0768484849899345 5.307508143907769 5.307503981549064 0 0 0
94 1 5.307508143907769 7.0768484849899345 5.307503981549064 0 0 0
95 1 7.076863514292055 7.076863514292054 3.538214009202172 0 0 0
30 1 8.84654138400912 5.307682092974875 2.0675359892548182e-17 0 0 0
46 1 8.846309752235864 7.07686274097063 1.7690364270775867 0 0 0
80 1 8.846284380476572 5.307564396709152 3.538270007530801 0 0 0
96 1 8.846464366076955 7.077003930001449 5.307658282572479 0 0 0
253 1 5.307682092974876 8.84654138400912 2.3983400705998417e-19 0 0 0
256 1 7.076862740970628 8.846309752235864 1.7690364270775856 0 0 0
303 1 5.30756439670915 8.846284380476574 3.5382700075308007 0 0 0
306 1 7.077003930001449 8.846464366076955 5.30765828257248 0 0 0
255 1 8.846256733358567 8.846256733358567 2.1034421333475142e-18 0 0 0
305 1 8.84647416462384 8.84647416462384 3.5383112424398178 0 0 0
34 1 12.386227968403816 5.306886849741261 4.715736470026403e-19 0 0 0
36 1 10.6162031857679 5.307648915970576 1.7691583944015112 0 0 0
47 1 10.616261103128476 7.07680897186848 0 0 0 0
48 1 12.385797462554466 7.076725704524915 1.769021857411817 0 0 0
84 1 12.385844995687542 5.307458030585264 3.538171083745209 0 0 0
86 1 10.6160573412095 5.307603158399894 5.307615315512869 0 0 0
97 1 10.616046578981495 7.076972425371036 3.5383067437603093 0 0 0
98 1 12.385557754227545 7.0769654128518305 5.307622029974578 0 0 0
257 1 12.385714195210898 8.846262063950899 1.315497927825561e-18 0 0 0
258 1 10.616071657580864 8.846451509498513 1.769053243834635 0 0 0
307 1 12.385550741708341 8.846476588097882 3.538306743760308 0 0 0
308 1 10.616017263503798 8.846505903575578 5.307690458896911 0 0 0
100 1 15.924310846445536 7.076686637726956 5.307391569065252 0 0 0
38 1 15.926521298646469 5.30564269369937 7.916424041539246e-16 0 0 0
40 1 14.155641174298207 5.306881992781172 1.7685869703444843 0 0 0
49 1 14.155636317338116 7.076295198675561 0 0 0 0
50 1 15.924387953630342 7.076709760668062 1.7689238973740238 0 0 0
88 1 15.924651033002796 5.306954182330987 3.5377275961645878 0 0 0
90 1 14.155127472123523 5.307395694955853 5.307372246208903 0 0 0
99 1 14.15506513649411 7.076678171391837 3.538171083745206 0 0 0
259 1 15.924007386887169 8.846544820447477 9.666778855989156e-19 0 0 0
260 1 14.154874251108799 8.846319981311476 1.7691583944015123 0 0 0
309 1 15.924110039654098 8.846292545565131 3.538383035270609 0 0 0
310 1 14.15492000867948 8.84646582586988 5.307615315512869 0 0 0
101 1 4.2696813976108256e-05 4.269681397323243e-05 7.077471828614382 0 0 0
102 1 1.769277591102333 1.7692775911023308 7.0774718286143825 0 0 0
105 1 3.538438597300497 3.951651550944823e-05 7.077201133653098 0 0 0
108 1 3.5385866306206055 1.7692982117798712 8.846601439581535 0 0 0
121 1 3.951651550551602e-05 3.5384385973004977 7.077201133653096 0 0 0
123 1 1.7692982117798728 3.538586630620607 8.846601439581535 0 0 0
125 1 3.538370300223146 3.538370300223147 7.076940619538319 0 0 0
151 1 4.269681397243477e-05 4.2696813977902265e-05 10.61573105054869 0 0 0
152 1 1.7692775911023335 1.769277591102331 10.615731050548689 0 0 0
153 1 3.538438597300496 3.951651551066071e-05 10.616001745509973 0 0 0
161 1 3.951651550642138e-05 3.538438597300499 10.616001745509973 0 0 0
163 1 3.538370300223147 3.538370300223148 10.616262259624753 0 0 0
106 1 5.307505388348081 1.7691570795588247 7.076906027975926 0 0 0
107 1 5.3077464833659445 2.1653146475212697e-05 8.846601439581535 0 0 0
109 1 7.076635584305358 0.00016208425235353773 7.076628669492432 0 0 0
112 1 7.076962233388964 1.7691721192097494 8.846601439581535 0 0 0
127 1 5.30769743000721 3.5384334380744913 8.846601439581537 0 0 0
129 1 7.0768574660337125 3.538286253048195 7.076855256981967 0 0 0
154 1 5.307505388348081 1.7691570795588245 10.616296851187144 0 0 0
155 1 7.076635584305358 0.00016208425235292672 10.616574209670638 0 0 0
165 1 7.0768574660337125 3.538286253048195 10.616347622181104 0 0 0
110 1 8.846240248968416 1.7691729869279638 7.076779847448601 0 0 0
111 1 8.84643825818395 0.00014782468819671878 8.846601439581535 0 0 0
131 1 8.846437116935627 3.5383115881645355 8.846601439581535 0 0 0
156 1 8.846240248968416 1.7691729869279635 10.616423031714469 0 0 0
113 1 10.61628291811096 0.00014730098834263465 7.0767798474486 0 0 0
114 1 12.38588758277402 1.7691582036639533 7.0766286694924325 0 0 0
115 1 12.385560933690412 0.0001481687065584795 8.846601439581535 0 0 0
116 1 10.616084908895429 1.7691724632281125 8.846601439581535 0 0 0
133 1 10.616056715422825 3.5383037751012765 7.077005652835403 0 0 0
135 1 12.385599138043101 3.53831025730015 8.846601439581535 0 0 0
157 1 10.61628291811096 0.00014730098834141644 10.616423031714472 0 0 0
158 1 12.38588758277402 1.769158203663954 10.616574209670638 0 0 0
167 1 10.616056715422827 3.5383037751012765 10.616197226327667 0 0 0
104 1 17.693190555173803 1.769332611905574 8.846601439581535 -1 0 0
117 1 14.155017778731297 0.00016320835748319295 7.0769060279759275 0 0 0
118 1 15.92408456977888 1.7692807714007985 7.077201133653095 0 0 0
119 1 15.92393653645877 2.207613643345543e-05 8.846601439581535 0 0 0
120 1 14.154776683713433 1.7692986347698283 8.846601439581535 0 0 0
137 1 14.155070631589304 3.5382549957488676 7.076658038923801 0 0 0
139 1 15.923965834773995 3.538557332305386 8.846601439581535 0 0 0
159 1 14.155017778731297 0.00016320835748303105 10.616296851187144 0 0 0
160 1 15.92408456977888 1.7692807714007963 10.616001745509976 0 0 0
169 1 14.155070631589302 3.5382549957488676 10.61654484023927 0 0 0
122 1 1.7691570795588256 5.307505388348081 7.076906027975927 0 0 0
124 1 2.1653146474031737e-05 5.307746483365944 8.846601439581537 0 0 0
128 1 3.5384334380744913 5.30769743000721 8.846601439581535 0 0 0
141 1 0.00016208425235245984 7.076635584305361 7.076628669492429 0 0 0
142 1 1.7691721192097498 7.076962233388965 8.846601439581535 0 0 0
143 1 3.538286253048194 7.076857466033713 7.076855256981967 0 0 0
162 1 1.7691570795588247 5.307505388348079 10.616296851187144 0 0 0
171 1 0.00016208425235168878 7.076635584305359 10.616574209670636 0 0 0
172 1 3.5382862530481938 7.076857466033713 10.616347622181104 0 0 0
351 1 1.7691729869279633 8.846240248968416 7.0767798474486 0 0 0
352 1 0.0001478246881944795 8.846438258183948 8.846601439581535 0 0 0
354 1 3.538311588164536 8.846437116935627 8.846601439581535 0 0 0
401 1 1.7691729869279647 8.846240248968416 10.616423031714469 0 0 0
126 1 5.307545620356037 5.307545620356038 7.076820907929301 0 0 0
132 1 7.0769824793865945 5.307619755516034 8.846601439581535 0 0 0
144 1 5.3076197555160345 7.076982479386595 8.846601439581535 0 0 0
145 1 7.077001226627958 7.07700122662796 7.077068420477544 0 0 0
164 1 5.307545620356038 5.307545620356037 10.61638197123377 0 0 0
173 1 7.077001226627957 7.077001226627959 10.616134458685528 0 0 0
130 1 8.846467846235631 5.307616548257523 7.077069978644413 0 0 0
146 1 8.846501033496356 7.077040467217765 8.846601439581537 0 0 0
166 1 8.846467846235631 5.307616548257522 10.616132900518657 0 0 0
353 1 5.307616548257524 8.846467846235631 7.077069978644414 0 0 0
356 1 7.077040467217765 8.846501033496358 8.846601439581535 0 0 0
402 1 5.307616548257523 8.846467846235631 10.616132900518657 0 0 0
355 1 8.846507906426355 8.846507906426357 7.077125873145031 0 0 0
403 1 8.846507906426357 8.846507906426357 10.616077006018038 0 0 0
134 1 12.385559781963225 5.3075870552183035 7.077023040892255 0 0 0
136 1 10.616021777545013 5.307625635515931 8.846601439581535 0 0 0
147 1 10.616014462317505 7.077034746609419 7.077110061915935 0 0 0
148 1 12.385496080091531 7.0770270869878455 8.846601439581535 0 0 0
168 1 12.385559781963227 5.307587055218301 10.616179838270815 0 0 0
174 1 10.616014462317503 7.077034746609419 10.616092817247136 0 0 0
357 1 12.38548842046996 8.846508704761872 7.077110061915935 0 0 0
358 1 10.616006515071346 8.846516652008033 8.846601439581535 0 0 0
404 1 12.385488420469962 8.846508704761872 10.616092817247136 0 0 0
175 1 14.154936111861076 7.076963385116154 10.616179838270813 0 0 0
138 1 15.924268171330509 5.307452535490071 7.076658038923801 0 0 0
140 1 14.154938419758826 5.307584747320551 8.846601439581535 0 0 0
149 1 14.154936111861074 7.076963385116152 7.077023040892255 0 0 0
150 1 15.924212909779229 7.076924029036277 8.846601439581537 0 0 0
170 1 15.924268171330512 5.3074525354900715 10.616544840239266 0 0 0
359 1 15.9242193919781 8.846466451656552 7.077005652835402 0 0 0
360 1 14.154897531563446 8.846501389534364 8.846601439581539 0 0 0
405 1 15.924219391978099 8.846466451656552 10.616197226327666 0 0 0
176 1 1.7690329123206274 0.00028737559568164825 12.38524829027219 0 0 0
177 1 0.0002873755956778151 1.7690329123206232 12.385248290272191 0 0 0
179 1 3.5378261242100235 1.7689374342076138 12.385881937724 0 0 0
186 1 1.7689374342076165 3.537826124210028 12.385881937724001 0 0 0
201 1 0.0007095584093718108 0.0007095584093720084 14.156333907463694 0 0 0
202 1 1.768610729506937 1.7686107295069355 14.156333907463692 0 0 0
203 1 1.76288682745911 0.006433460457197361 15.93708505444056 0 0 0
204 1 0.006433460457194851 1.7628868274591085 15.937085054440557 0 0 0
205 1 3.5355714393648108 0.0006459058327466998 14.157934542809036 0 0 0
208 1 3.531212387185746 1.7685815940105691 15.931045503896879 0 0 0
221 1 0.0006459058327450714 3.5355714393648143 14.157934542809038 0 0 0
223 1 1.76858159401057 3.5312123871857484 15.931045503896877 0 0 0
225 1 3.5375691269557086 3.537569126955712 14.155892959132274 0 0 0
178 1 5.306489557972255 0.00037599716381324664 12.386837033868643 0 0 0
181 1 7.076012782279659 1.7691591441630525 12.386487539060314 0 0 0
188 1 5.307153209769986 3.5379859748258378 12.386165088906907 0 0 0
206 1 5.304909189766745 1.7689409309339035 14.157525361701994 0 0 0
207 1 5.307178875285584 0.0006209043836564539 15.924792929215043 0 0 0
209 1 7.0766350413443195 0.00037055136854138263 14.155200332320932 0 0 0
212 1 7.077317082341625 1.7692926571204717 15.924209904458463 0 0 0
227 1 5.306525818382956 3.5375249714364716 15.92484598506789 0 0 0
229 1 7.076375135440726 3.538051584155455 14.155254962995718 0 0 0
180 1 8.846307908146779 0.00015980110336945506 12.38564691194195 0 0 0
190 1 8.846307025744126 3.5383024634854334 12.385686292547593 0 0 0
210 1 8.846546242372126 1.7693050895355906 14.154765624382714 0 0 0
182 1 12.386510384799717 0.00016114375325329666 12.386487539060314 0 0 0
183 1 10.616215258932598 1.7691604868129365 12.38564691194195 0 0 0
192 1 12.385836529352426 3.5382123206338427 12.38581131009782 0 0 0
211 1 8.846605203569458 3.135838671125237e-05 15.923900606078758 0 0 0
213 1 10.615976924707253 1.5198380718049664e-05 14.154765624382714 0 0 0
214 1 12.385888125735056 1.7689497365477647 14.155200332320932 0 0 0
215 1 12.385206084737753 2.7630795834974918e-05 15.924209904458461 0 0 0
216 1 10.61591796350992 1.7692889295295968 15.923900606078755 0 0 0
231 1 8.84660405710229 3.538562416826972 15.923929875299711 0 0 0
233 1 10.616230621514244 3.538413127425279 14.154819843892462 0 0 0
235 1 12.385813406411316 3.538135213449037 15.924278981789051 0 0 0
184 1 15.924697042869354 0.0003828537086930727 12.385881937723997 0 0 0
185 1 14.156033609107121 1.7689442907524926 12.386837033868641 0 0 0
194 1 15.924756761743627 3.537766405335752 12.386482359601116 0 0 0
217 1 14.157613977312632 0.00037935698240674365 14.157525361701994 0 0 0
218 1 15.926951727714567 1.7686743820835602 14.157934542809036 0 0 0
219 1 15.931310779893632 0.0007386939057419684 15.931045503896879 0 0 0
220 1 14.155344291793794 1.7686993835326468 15.924792929215045 0 0 0
237 1 14.155568984748392 3.537872134076585 14.155475282998479 0 0 0
239 1 15.92540406727173 3.537119099807649 15.925220988448801 0 0 0
187 1 0.00037599716381376115 5.306489557972254 12.386837033868641 0 0 0
189 1 3.5379859748258355 5.307153209769984 12.386165088906909 0 0 0
196 1 1.769159144163054 7.076012782279661 12.386487539060314 0 0 0
222 1 1.7689409309339037 5.30490918976674 14.157525361701992 0 0 0
224 1 0.000620904383657896 5.307178875285581 15.924792929215043 0 0 0
228 1 3.53752497143647 5.306525818382954 15.92484598506789 0 0 0
241 1 0.00037055136853783837 7.076635041344323 14.155200332320932 0 0 0
242 1 1.7692926571204723 7.077317082341626 15.924209904458463 0 0 0
243 1 3.5380515841554545 7.0763751354407285 14.155254962995718 0 0 0
426 1 0.00015980110336928798 8.846307908146777 12.385646911941953 0 0 0
427 1 3.538302463485432 8.846307025744125 12.385686292547593 0 0 0
451 1 1.7693050895355893 8.846546242372124 14.154765624382714 0 0 0
191 1 7.076848484989934 5.307508143907768 12.385698897614004 0 0 0
197 1 5.30750814390777 7.076848484989936 12.385698897614004 0 0 0
226 1 5.307271148279242 5.3072711482792405 14.155211472641245 0 0 0
232 1 7.076397307622316 5.307208676677291 15.924395081890994 0 0 0
244 1 5.307208676677292 7.076397307622319 15.924395081890994 0 0 0
245 1 7.076863514292053 7.0768635142920555 14.154988869960901 0 0 0
198 1 8.846464366076958 7.077003930001448 12.385544596590591 0 0 0
230 1 8.846284380476575 5.307564396709152 14.154932871632269 0 0 0
246 1 8.846309752235863 7.076862740970629 15.924166452085485 0 0 0
428 1 7.077003930001447 8.846464366076956 12.385544596590591 0 0 0
453 1 5.307564396709154 8.846284380476572 14.154932871632269 0 0 0
456 1 7.076862740970627 8.846309752235863 15.924166452085485 0 0 0
455 1 8.846474164623842 8.84647416462384 14.154891636723253 0 0 0
193 1 10.616057341209496 5.307603158399894 12.385587563650203 0 0 0
199 1 12.385557754227548 7.076965412851833 12.385580849188495 0 0 0
234 1 12.385844995687542 5.3074580305852646 14.155031795417864 0 0 0
236 1 10.6162031857679 5.307648915970575 15.92404448476156 0 0 0
247 1 10.616046578981493 7.076972425371034 14.15489613540276 0 0 0
248 1 12.385797462554466 7.076725704524914 15.924181021751252 0 0 0
429 1 10.6160172635038 8.846505903575578 12.38551242026616 0 0 0
457 1 12.385550741708345 8.846476588097882 14.154896135402762 0 0 0
458 1 10.616071657580862 8.846451509498513 15.924149635328439 0 0 0
195 1 14.155127472123521 5.3073956949558525 12.385830632954171 0 0 0
200 1 15.924310846445536 7.076686637726956 12.385811310097822 0 0 0
238 1 15.924651033002794 5.306954182330986 14.155475282998479 0 0 0
240 1 14.155641174298205 5.306881992781172 15.924615908818586 0 0 0
249 1 14.155065136494109 7.076678171391834 14.155031795417862 0 0 0
250 1 15.924387953630342 7.076709760668064 15.92427898178905 0 0 0
430 1 14.15492000867948 8.846465825869878 12.3855875636502 0 0 0
459 1 15.924110039654101 8.846292545565133 14.154819843892462 0 0 0
460 1 14.154874251108797 8.846319981311478 15.924044484761557 0 0 0
251 1 1.7693433383883825 8.846818396811285 1.1814851106027743e-16 0 0 0
252 1 3.135838671134346e-05 8.846605203569455 1.7693022730843149 0 0 0
254 1 3.5385624168269727 8.846604057102287 1.7692730038633588 0 0 0
262 1 1.7690318492924624 12.385003605428956 9.28744955910857e-19 0 0 0
263 1 1.7692889295295968 10.615917963509922 1.769302273084317 0 0 0
264 1 2.7630795835556172e-05 12.385206084737751 1.7689929747046114 0 0 0
265 1 3.53851578019221 10.615978346631902 1.9079121919903363e-19 0 0 0
268 1 3.5381352134490345 12.385813406411314 1.76892389737402 0 0 0
311 1 1.5198380717489407e-05 10.615976924707256 3.538437254780356 0 0 0
312 1 1.7689497365477644 12.385888125735056 3.5380025468421374 0 0 0
313 1 1.7691604868129367 10.616215258932598 5.307555967221122 0 0 0
314 1 0.00016114375325115027 12.386510384799715 5.306715340102756 0 0 0
315 1 3.5384131274252777 10.616230621514243 3.538383035270609 0 0 0
318 1 3.538212320633844 12.385836529352423 5.307391569065252 0 0 0
266 1 5.306886849741263 12.386227968403814 7.96872881401459e-19 0 0 0
267 1 5.307648915970578 10.6162031857679 1.7691583944015115 0 0 0
269 1 7.076808971868478 10.616261103128478 2.3357944859238667e-16 0 0 0
272 1 7.076725704524913 12.385797462554464 1.7690218574118182 0 0 0
316 1 5.307458030585267 12.385844995687542 3.5381710837452083 0 0 0
317 1 5.307603158399894 10.6160573412095 5.307615315512869 0 0 0
319 1 7.076972425371034 10.616046578981496 3.538306743760309 0 0 0
322 1 7.0769654128518305 12.385557754227548 5.307622029974576 0 0 0
270 1 8.846262063950903 12.385714195210896 3.5071456578323846e-18 0 0 0
271 1 8.846451509498513 10.616071657580866 1.7690532438346338 0 0 0
320 1 8.846476588097882 12.385550741708341 3.538306743760309 0 0 0
321 1 8.846505903575578 10.6160172635038 5.307690458896911 0 0 0
273 1 10.616266433720808 10.616266433720812 2.21724092241169e-18 0 0 0
274 1 12.386532137968835 12.386532137968835 1.0941277767297378e-15 0 0 0
275 1 12.385660426108748 10.616213414843514 1.7690364270775876 0 0 0
276 1 10.616213414843514 12.385660426108748 1.769036427077586 0 0 0
323 1 10.616049002455537 10.616049002455537 3.538311242439817 0 0 0
324 1 12.385659652787322 12.38565965278732 3.5382140092021706 0 0 0
325 1 12.385519237077931 10.616058801002422 5.30765828257248 0 0 0
326 1 10.616058801002422 12.38551923707793 5.307658282572481 0 0 0
261 1 17.69317982869099 10.61570477026809 0 -1 0 0
278 1 15.924305256660285 12.385280238411607 2.0398127029030284e-18 0 0 0
279 1 15.923960750252405 10.61591910997709 1.7692730038633575 0 0 0
280 1 14.155314490402088 12.38612585945706 1.7688077972720748 0 0 0
327 1 14.154958770370223 10.616238786602803 3.5382700075308025 0 0 0
328 1 15.924471582923923 12.38614803163865 3.5379479161673553 0 0 0
329 1 15.924220703593942 10.616216141335252 5.307516586615477 0 0 0
330 1 14.155015023171611 12.38567468208944 5.307503981549066 0 0 0
281 1 0.00025066577023218913 14.155326990429478 2.7556437954034915e-18 0 0 0
282 1 1.762954390650647 15.93083642032039 8.773826466789146e-16 0 0 0
283 1 1.7686993835326505 14.155344291793796 1.7684099499480272 0 0 0
284 1 0.0007386939057380652 15.93131077989363 1.762157375266191 0 0 0
285 1 3.536001868432906 14.156880473380005 2.7619194106948373e-16 0 0 0
288 1 3.537119099807646 15.925404067271728 1.7679818907142697 0 0 0
331 1 0.00037935698240227836 14.157613977312634 3.535677517461077 0 0 0
332 1 1.7686743820835629 15.926951727714563 3.535268336354034 0 0 0
333 1 1.768944290752493 14.156033609107125 5.30636584529443 0 0 0
334 1 0.00038285370869103625 15.924697042869353 5.307320941439071 0 0 0
335 1 3.5378721340765824 14.155568984748394 3.537727596164591 0 0 0
338 1 3.5377664053357503 15.924756761743623 5.306720519561954 0 0 0
341 1 8.846465825869878 14.15492000867948 5.307615315512869 0 0 0
340 1 8.846292545565134 15.924110039654098 3.538383035270608 0 0 0
286 1 5.305642693699372 15.926521298646467 1.263104680422642e-15 0 0 0
287 1 5.306881992781173 14.155641174298207 1.7685869703444854 0 0 0
289 1 7.07629519867556 14.155636317338116 1.0550806868164257e-15 0 0 0
292 1 7.07670976066806 15.92438795363034 1.7689238973740213 0 0 0
336 1 5.306954182330987 15.924651033002794 3.53772759616459 0 0 0
337 1 5.307395694955854 14.155127472123523 5.3073722462089 0 0 0
339 1 7.076678171391833 14.15506513649411 3.5381710837452074 0 0 0
342 1 7.076686637726954 15.924310846445533 5.307391569065253 0 0 0
290 1 8.846544820447479 15.924007386887169 2.2270300655569957e-18 0 0 0
291 1 8.846319981311478 14.1548742511088 1.7691583944015137 0 0 0
346 1 10.616216141335252 15.924220703593946 5.307516586615476 0 0 0
345 1 12.385674682089443 14.155015023171611 5.307503981549066 0 0 0
344 1 12.386148031638648 15.924471582923923 3.537947916167355 0 0 0
343 1 10.616238786602803 14.154958770370225 3.5382700075308007 0 0 0
296 1 10.615919109977089 15.923960750252403 1.7692730038633588 0 0 0
13 1 10.615704770268087 17.69317982869099 1.4923735880112095e-17 0 -1 0
295 1 12.38612585945706 14.155314490402088 1.7688077972720737 0 0 0
294 1 12.385280238411609 15.924305256660283 3.434452744658896e-18 0 0 0
293 1 10.615981783070259 14.154841074104501 4.734291028270246e-17 0 0 0
350 1 14.155369957309391 15.92453719225354 5.307037790256161 0 0 0
349 1 15.92453719225354 14.155369957309391 5.307037790256162 0 0 0
348 1 15.924954040123666 15.924954040123666 3.537309920030799 0 0 0
347 1 14.155252018800136 14.155252018800136 3.537991406521826 0 0 0
300 1 14.155997348696424 15.924998195642905 1.7683568940951815 0 0 0
299 1 15.924998195642907 14.155997348696422 1.7683568940951817 0 0 0
298 1 15.932581418648333 15.93258141864833 5.093892635513835e-16 0 0 0
297 1 14.157901354073296 14.157901354073298 0 0 0 0
361 1 0.00014730098834421528 10.616282918110963 7.076779847448601 0 0 0
362 1 1.7691582036639528 12.385887582774018 7.0766286694924325 0 0 0
363 1 1.7691724632281116 10.616084908895429 8.846601439581535 0 0 0
364 1 0.00014816870655748337 12.38556093369041 8.846601439581535 0 0 0
365 1 3.5383037751012765 10.616056715422827 7.077005652835403 0 0 0
368 1 3.538310257300149 12.3855991380431 8.846601439581535 0 0 0
406 1 0.0001473009883397226 10.616282918110963 10.616423031714467 0 0 0
407 1 1.769158203663954 12.38588758277402 10.616574209670638 0 0 0
408 1 3.5383037751012756 10.616056715422827 10.616197226327667 0 0 0
366 1 5.307587055218302 12.385559781963225 7.077023040892255 0 0 0
367 1 5.307625635515931 10.616021777545013 8.846601439581535 0 0 0
369 1 7.077034746609417 10.616014462317503 7.077110061915936 0 0 0
372 1 7.077027086987845 12.385496080091533 8.846601439581537 0 0 0
409 1 5.307587055218303 12.385559781963225 10.616179838270815 0 0 0
410 1 7.077034746609418 10.616014462317505 10.616092817247136 0 0 0
370 1 8.846508704761872 12.385488420469962 7.077110061915935 0 0 0
371 1 8.846516652008033 10.616006515071346 8.846601439581537 0 0 0
411 1 8.846508704761872 12.38548842046996 10.616092817247134 0 0 0
373 1 10.616015260653022 10.616015260653022 7.077125873145032 0 0 0
374 1 12.385521940451417 12.385521940451417 7.077068420477545 0 0 0
375 1 12.385482699861612 10.616022133583023 8.846601439581535 0 0 0
376 1 10.616022133583021 12.385482699861612 8.846601439581535 0 0 0
412 1 10.61601526065302 10.61601526065302 10.616077006018036 0 0 0
413 1 12.385521940451419 12.385521940451419 10.616134458685528 0 0 0
377 1 14.154906618821855 10.616055320843747 7.077069978644412 0 0 0
378 1 15.924236914031182 12.385665701045664 7.076855256981966 0 0 0
379 1 15.92421157891484 10.616086050143752 8.846601439581537 0 0 0
380 1 14.15490341156334 12.385540687692782 8.846601439581535 0 0 0
414 1 14.154906618821856 10.616055320843747 10.616132900518656 0 0 0
415 1 15.924236914031182 12.385665701045662 10.616347622181104 0 0 0
381 1 0.0001632083574808086 14.155017778731297 7.076906027975927 0 0 0
382 1 1.7692807714007976 15.924084569778879 7.077201133653095 0 0 0
383 1 1.7692986347698298 14.154776683713433 8.846601439581535 0 0 0
384 1 2.2076136431788125e-05 15.923936536458768 8.846601439581535 0 0 0
385 1 3.538254995748867 14.155070631589306 7.076658038923801 0 0 0
388 1 3.5385573323053836 15.923965834773993 8.846601439581535 0 0 0
416 1 0.0001632083574812902 14.1550177787313 10.616296851187144 0 0 0
417 1 1.7692807714007988 15.924084569778877 10.616001745509974 0 0 0
418 1 3.5382549957488663 14.155070631589306 10.61654484023927 0 0 0
103 1 1.7693326119055763 17.693190555173803 8.846601439581535 0 -1 0
421 1 8.846466451656553 15.9242193919781 10.61619722632767 0 0 0
391 1 8.846501389534364 14.154897531563446 8.846601439581535 0 0 0
390 1 8.846466451656552 15.9242193919781 7.0770056528354015 0 0 0
386 1 5.307452535490073 15.92426817133051 7.076658038923804 0 0 0
387 1 5.307584747320552 14.154938419758828 8.846601439581535 0 0 0
389 1 7.0769633851161515 14.154936111861076 7.077023040892255 0 0 0
392 1 7.076924029036274 15.924212909779227 8.846601439581535 0 0 0
419 1 5.307452535490074 15.924268171330509 10.616544840239268 0 0 0
420 1 7.07696338511615 14.154936111861076 10.616179838270813 0 0 0
423 1 12.385665701045662 15.924236914031182 10.616347622181104 0 0 0
422 1 10.616055320843746 14.154906618821856 10.616132900518656 0 0 0
396 1 10.61608605014375 15.92421157891484 8.846601439581537 0 0 0
395 1 12.385540687692782 14.15490341156334 8.846601439581537 0 0 0
394 1 12.385665701045664 15.924236914031182 7.076855256981966 0 0 0
393 1 10.616055320843746 14.154906618821855 7.077069978644413 0 0 0
425 1 15.92415286685623 15.92415286685623 10.616262259624751 0 0 0
424 1 14.15497754672334 14.15497754672334 10.616381971233771 0 0 0
400 1 14.154825737072171 15.924089729004889 8.846601439581535 0 0 0
399 1 15.924089729004887 14.154825737072173 8.846601439581535 0 0 0
398 1 15.92415286685623 15.92415286685623 7.076940619538322 0 0 0
397 1 14.15497754672334 14.154977546723341 7.0768209079293 0 0 0
431 1 1.769160486812937 10.6162152589326 12.38564691194195 0 0 0
432 1 0.00016114375325186758 12.386510384799715 12.386487539060315 0 0 0
434 1 3.5382123206338414 12.385836529352423 12.38581131009782 0 0 0
452 1 3.135838670827257e-05 8.846605203569455 15.923900606078755 0 0 0
454 1 3.538562416826972 8.846604057102287 15.923929875299713 0 0 0
461 1 1.5198380716769988e-05 10.615976924707253 14.154765624382712 0 0 0
462 1 1.768949736547768 12.385888125735052 14.155200332320932 0 0 0
463 1 1.7692889295295975 10.615917963509922 15.923900606078755 0 0 0
464 1 2.7630795833450906e-05 12.385206084737751 15.924209904458463 0 0 0
465 1 3.5384131274252755 10.616230621514246 14.154819843892462 0 0 0
468 1 3.538135213449034 12.385813406411314 15.92427898178905 0 0 0
433 1 5.307603158399897 10.6160573412095 12.385587563650201 0 0 0
436 1 7.0769654128518305 12.385557754227547 12.385580849188495 0 0 0
466 1 5.307458030585265 12.385844995687542 14.155031795417864 0 0 0
467 1 5.307648915970578 10.6162031857679 15.92404448476156 0 0 0
469 1 7.076972425371032 10.616046578981495 14.154896135402758 0 0 0
472 1 7.076725704524912 12.385797462554466 15.924181021751254 0 0 0
435 1 8.846505903575576 10.616017263503801 12.38551242026616 0 0 0
470 1 8.846476588097884 12.385550741708343 14.15489613540276 0 0 0
471 1 8.846451509498515 10.616071657580866 15.924149635328439 0 0 0
437 1 12.38551923707793 10.616058801002424 12.385544596590593 0 0 0
438 1 10.616058801002422 12.38551923707793 12.385544596590593 0 0 0
473 1 10.616049002455537 10.616049002455537 14.154891636723251 0 0 0
474 1 12.385659652787322 12.385659652787322 14.1549888699609 0 0 0
475 1 12.38566042610875 10.616213414843513 15.924166452085485 0 0 0
476 1 10.61621341484351 12.385660426108748 15.924166452085485 0 0 0
439 1 15.924220703593948 10.616216141335252 12.385686292547593 0 0 0
440 1 14.155015023171607 12.385674682089443 12.385698897614004 0 0 0
477 1 14.154958770370223 10.616238786602803 14.15493287163227 0 0 0
478 1 15.924471582923923 12.38614803163865 14.155254962995718 0 0 0
479 1 15.923960750252403 10.61591910997709 15.923929875299713 0 0 0
480 1 14.15531449040209 12.386125859457056 15.924395081890996 0 0 0
277 1 14.154841074104501 10.615981783070259 17.693202879163067 0 0 -1
441 1 1.7689442907524928 14.156033609107125 12.38683703386864 0 0 0
442 1 0.00038285370869044113 15.92469704286935 12.385881937724001 0 0 0
444 1 3.5377664053357503 15.924756761743625 12.386482359601118 0 0 0
481 1 0.0003793569824012626 14.157613977312636 14.157525361701992 0 0 0
482 1 1.7686743820835626 15.926951727714565 14.157934542809038 0 0 0
483 1 1.7686993835326505 14.155344291793796 15.924792929215045 0 0 0
484 1 0.0007386939057386053 15.93131077989363 15.931045503896879 0 0 0
485 1 3.537872134076582 14.155568984748392 14.15547528299848 0 0 0
488 1 3.5371190998076467 15.925404067271728 15.925220988448801 0 0 0
491 1 8.84631998131148 14.1548742511088 15.92404448476156 0 0 0
490 1 8.846292545565133 15.924110039654098 14.154819843892462 0 0 0
443 1 5.307395694955855 14.155127472123523 12.385830632954168 0 0 0
446 1 7.076686637726953 15.924310846445534 12.385811310097818 0 0 0
486 1 5.306954182330988 15.924651033002794 14.15547528299848 0 0 0
487 1 5.306881992781173 14.155641174298205 15.924615908818586 0 0 0
489 1 7.076678171391833 14.15506513649411 14.155031795417864 0 0 0
492 1 7.076709760668059 15.92438795363034 15.92427898178905 0 0 0
445 1 8.84646582586988 14.15492000867948 12.385587563650203 0 0 0
496 1 10.615919109977089 15.923960750252405 15.923929875299713 0 0 0
495 1 12.38612585945706 14.15531449040209 15.924395081890996 0 0 0
494 1 12.38614803163865 15.924471582923921 14.15525496299572 0 0 0
493 1 10.616238786602802 14.154958770370223 14.154932871632269 0 0 0
448 1 10.61621614133525 15.924220703593946 12.385686292547591 0 0 0
447 1 12.385674682089444 14.155015023171607 12.385698897614004 0 0 0
500 1 14.15599734869642 15.924998195642905 15.92484598506789 0 0 0
499 1 15.924998195642909 14.155997348696424 15.92484598506789 0 0 0
498 1 15.924954040123668 15.924954040123662 14.155892959132272 0 0 0
497 1 14.155252018800136 14.155252018800137 14.155211472641245 0 0 0
450 1 14.155369957309393 15.92453719225354 12.386165088906907 0 0 0
449 1 15.924537192253542 14.155369957309395 12.38616508890691 0 0 0

Velocities

1 -6.31178509558533e-09 -6.311785306550723e-09 -4.743870456758298e-16
2 6.311777773375666e-09 6.3117925352514025e-09 -2.437358048196105e-15
3 3.608164511407681e-09 -3.6081696164458315e-09 4.608233345374382e-09
4 -3.608167056584899e-09 3.6081718183912175e-09 4.608225736456961e-09
5 3.164418493239357e-09 -1.2188976033772503e-09 -1.1508369473086868e-15
8 4.041610144847435e-09 3.432958383966228e-09 2.4914096495994205e-09
21 -1.2188809522437215e-09 3.1644046944478837e-09 -1.9137774849072203e-15
23 3.4329508457016375e-09 4.041605374463666e-09 2.4914029625335085e-09
25 3.5354259061980635e-09 3.5354249097330175e-09 -1.316638707450294e-15
51 -3.3926170062929036e-09 -3.3926370826018517e-09 -2.619993950211801e-10
52 3.392624191523972e-09 3.3926246155162345e-09 -2.61996563588003e-10
53 1.071833262620656e-09 -1.0718309291336588e-09 3.1606499474538555e-10
54 -1.0718189606825208e-09 1.0718334418843398e-09 3.160714818881837e-10
55 1.1858260751380623e-09 -4.657802327453935e-10 3.9824361663098514e-10
58 3.7248264119835615e-09 9.567747098183781e-10 -1.4778371843161883e-09
71 -4.657745916118453e-10 1.185825913428396e-09 3.9824280001291464e-10
73 9.567700686712596e-10 3.7248236162098956e-09 -1.4778347882061067e-09
75 2.157858959401422e-09 2.157851984960019e-09 1.5261613866952935e-09
6 6.415833368733244e-09 7.498492552529685e-09 -3.4583207268024497e-16
7 2.1016937015262776e-09 2.0551372589824225e-09 3.5981549400079584e-09
9 -7.124554596868945e-09 -1.2136814757822363e-09 6.142687323679186e-16
12 4.118519421331693e-10 2.528733111660502e-09 3.084278097363611e-09
27 5.631035022406183e-09 6.218841647464794e-09 -2.4621544387520183e-09
29 4.912395104865194e-09 5.461013577069747e-09 -2.8376981480517276e-15
56 3.5844846659028445e-09 4.767380942091489e-10 3.5138902142334252e-09
57 6.053353577759414e-09 2.6394911334514527e-09 9.330740613006498e-10
59 4.668032598582333e-10 4.407818989223078e-09 6.711771807561375e-09
62 5.804613533182563e-09 5.5588156330340636e-09 4.6189687609363996e-09
77 3.565030410120049e-09 2.2722874563403946e-09 -8.101824183910485e-10
79 -5.344136705412816e-09 -2.897457798723036e-10 6.335249818284761e-09
60 4.760805980584317e-09 5.714982484609141e-09 6.920193974032546e-09
61 3.1844169420578654e-09 -2.9086516121724334e-09 4.564141764105638e-09
81 6.220165258585327e-09 2.8019881046892343e-09 2.003046170157436e-09
10 -5.016198896116505e-09 -1.5318044341373805e-09 1.4991154994865462e-15
11 3.9496092369673474e-10 -2.3257481412029556e-10 -1.899899171941542e-09
14 7.124544788082033e-09 1.2136715351605722e-09 -1.8514933782753123e-16
15 -4.1184863622536525e-10 -2.528740785967609e-09 3.084273226148617e-09
16 -3.9496295373821893e-10 2.325689724491236e-10 -1.8999070522017743e-09
31 3.2961881089232226e-09 1.3473822676998741e-09 5.588329540783881e-09
33 -2.3661018294981222e-09 -2.312089060992588e-09 6.316592080505218e-16
35 1.6126299277083339e-09 -1.6827104876110247e-10 -3.38152677742528e-09
63 -4.760811151971635e-09 -5.714980159687644e-09 6.920193532297462e-09
64 -4.667963254739578e-10 -4.407825283642121e-09 6.711776045036713e-09
65 -5.804607209987597e-09 -5.55880942464162e-09 4.61896793242198e-09
66 -3.184417222922148e-09 2.9086505353666874e-09 4.5641452692307055e-09
83 6.1010727756423065e-09 5.608424006451169e-09 6.115529424379989e-09
85 1.4717534838876858e-09 2.4541195060992436e-09 1.7022973120620877e-09
17 -6.415832779028186e-09 -7.498504707586364e-09 1.7204419077874373e-15
18 -3.164411945755669e-09 1.2188980551004393e-09 1.8990937701892623e-15
19 -4.041608088809514e-09 -3.4329582340574267e-09 2.4914017945663672e-09
20 -2.10169191776085e-09 -2.0551331683442305e-09 3.59816019371872e-09
37 -8.534991843008859e-10 1.216935213206445e-10 6.626026266478643e-16
39 -8.52174037782449e-10 8.521555635566379e-10 1.169952402391521e-09
67 -3.5844924995977287e-09 -4.767357212596684e-10 3.513893180649709e-09
68 -1.1858353816711927e-09 4.657873545131317e-10 3.9823579557508346e-10
69 -3.7248297720513805e-09 -9.567829634200678e-10 -1.4778312910347182e-09
70 -6.05336056223657e-09 -2.6394947334088445e-09 9.330731730888647e-10
87 1.1544347230836014e-09 -7.536591291055642e-09 4.820514272364242e-09
89 1.429461756931866e-09 -1.4294633389874105e-09 -1.7303893426010453e-09
22 7.498486448998934e-09 6.415834972408072e-09 2.6354208811502085e-15
24 2.0551515756042724e-09 2.1017033594337225e-09 3.5981545790333048e-09
28 6.2188475148719e-09 5.631040309008995e-09 -2.4621578783728693e-09
41 -1.2136750345260466e-09 -7.124565236443901e-09 9.3761636688629e-16
42 2.5287252950297004e-09 4.1184221600763295e-10 3.0842816070773392e-09
43 5.461021397915783e-09 4.9123868694989065e-09 -6.802896587280522e-16
72 4.767288826254492e-10 3.5844916957025866e-09 3.5138907829979374e-09
74 2.6394959154478794e-09 6.053357992586494e-09 9.330723867453504e-10
78 2.2722881059961864e-09 3.565033357337032e-09 -8.101821319440444e-10
91 4.4078331051674935e-09 4.667967652588614e-10 6.711769430023233e-09
92 5.558815535142632e-09 5.804608089625518e-09 4.618965649824344e-09
93 -2.897433091562653e-10 -5.3441412436157515e-09 6.33525193114108e-09
301 5.714974467300905e-09 4.760806563956066e-09 6.920191165466196e-09
302 -2.9086506822038346e-09 3.1844286216910417e-09 4.564141568934597e-09
304 2.8019903880463066e-09 6.2201616068132235e-09 2.003054108313233e-09
26 6.251730018389642e-09 6.2517363177032564e-09 -3.7168152879831726e-16
32 3.0633854310824695e-09 5.9069834346500045e-09 -7.181376887215049e-10
44 5.906979571384737e-09 3.063381712737628e-09 -7.181371337994528e-10
45 1.0044130378861524e-10 1.004374615499307e-10 2.0645914714895828e-15
76 2.8804917338312933e-09 2.8804920364962662e-09 5.0086496740339754e-09
82 -2.015213720050654e-09 6.501383558467292e-09 -9.368009809173623e-10
94 6.5013812668007775e-09 -2.0152122325460796e-09 -9.368024473558308e-10
95 4.019169749334246e-09 4.019173785653143e-09 2.6600412926465842e-09
30 7.737906781178466e-09 3.8844062392064435e-09 -8.94699597441177e-16
46 5.326047067883746e-09 1.7955173048673574e-09 2.4621013020676356e-09
80 -9.063289460078899e-10 3.905491374562934e-09 4.066046779769973e-09
96 1.9792702657138538e-10 5.557984960608754e-10 -6.506749282633884e-09
253 3.884401730571122e-09 7.737909734203613e-09 2.3983400705998415e-16
256 1.7955228730543427e-09 5.326049113152504e-09 2.462105036625745e-09
303 3.905497370803858e-09 -9.063336795580581e-10 4.0660482574062976e-09
306 5.55798225635796e-10 1.9792819890119023e-10 -6.506754614657791e-09
255 -1.5230250863345018e-09 -1.523020177127013e-09 2.103442133347514e-15
305 6.317785567601286e-09 6.317790900501761e-09 -1.9164435046765842e-09
34 -1.8933183390284667e-09 1.5320259496021638e-09 4.715736470026403e-16
36 -7.706290812986509e-10 3.176463879285102e-09 7.784031440644906e-09
47 5.2498741225014785e-09 -4.255926987323733e-09 -7.731893531174871e-17
48 -2.317079295131164e-10 2.3169686013359412e-10 4.997979499520753e-09
84 8.569606762502826e-09 2.0263525024270154e-09 5.6922010263527e-09
86 3.5569815826130125e-09 7.878839048608736e-10 -3.3471774039051524e-09
97 -1.9880422043777963e-09 8.432972886859931e-10 -1.1304230415003876e-09
98 8.154859127509174e-09 -8.154854108326108e-09 -3.7410372035593214e-09
257 4.255922190047155e-09 -5.249867191749365e-09 1.315497927825561e-15
258 -1.3172482229322836e-09 1.3172502398016822e-09 3.4823604150815337e-12
307 -8.433033710878057e-10 1.988044479250665e-09 -1.13041722858094e-09
308 -3.5652712426533044e-09 3.5652788712021867e-09 -8.488852954836313e-09
100 -2.4541327792501377e-09 -1.4717593647616978e-09 1.702292869434399e-09
38 -1.2169820175471085e-10 8.535139126785695e-10 -3.2622319531730496e-15
40 -1.983741917275466e-09 1.983735505080795e-09 -7.509980381212137e-09
49 -1.5320170878237208e-09 1.893316599069664e-09 -6.457010591860478e-16
50 1.682712723818412e-10 -1.6126252726648575e-09 -3.3815350501689702e-09
88 7.536583961103408e-09 -1.1544281887839995e-09 4.820527603745751e-09
90 -1.5135375393954444e-09 1.5135465833400677e-09 -4.961110602582337e-10
99 -2.026346617485235e-09 -8.569613888702312e-09 5.692213871791585e-09
259 2.3120786343314953e-09 2.36610227350543e-09 9.666778855989156e-16
260 -3.1764557702368094e-09 7.70639227744989e-10 7.784024415660625e-09
309 -5.608417841626544e-09 -6.101069625172271e-09 6.11552532794824e-09
310 -7.878836046243984e-10 -3.5569907068585833e-09 -3.347176845744319e-09
101 -9.246181566242337e-10 -9.246111035465975e-10 -1.1057026077599594e-08
102 9.246089646188202e-10 9.246196690468496e-10 -1.1057031358306978e-08
105 -2.3527516716752293e-09 1.1338637954635821e-09 4.942111401875485e-09
108 2.4775875356352174e-09 5.3979171627466115e-09 -2.098548308627213e-16
121 1.133881379354307e-09 -2.3527546006222296e-09 4.942118870124386e-09
123 5.397908893031744e-09 2.4775806196055853e-09 -9.64842421259171e-16
125 2.120104999965943e-09 2.120101205662931e-09 -6.568433145732068e-09
151 -9.246052545335682e-10 -9.246240325574066e-10 1.1057023009926862e-08
152 9.246067204577541e-10 9.246213099519693e-10 1.105703028815479e-08
153 -2.3527475041052707e-09 1.1338599836524091e-09 -4.942114117189478e-09
161 1.1338762865525855e-09 -2.3527632150681973e-09 -4.942111868439751e-09
163 2.120102258935509e-09 2.1200981046678865e-09 6.568433981711016e-09
106 4.300934705307675e-09 6.009583590568445e-09 7.675581498003275e-09
107 9.388019439357382e-10 -1.7581659959182263e-09 8.522672750881579e-16
109 -4.107313318682569e-09 -1.7637486365508272e-09 -8.942866238473656e-10
112 -1.716444630515523e-09 4.026290678804616e-09 -3.273244739211518e-16
127 4.159022153289564e-09 4.066855559211007e-09 -4.5792583391645116e-15
129 4.7546902995849554e-09 3.200452487384768e-09 6.627193416635971e-09
154 4.300933967867007e-09 6.009582157161628e-09 -7.675577080380875e-09
155 -4.107313309161098e-09 -1.763748592499683e-09 8.942860609716347e-10
165 4.75469205098961e-09 3.2004510358114995e-09 -6.6271950038708625e-09
110 -2.0807720950463142e-09 2.6945345309160487e-09 -1.108093380394633e-09
111 1.2840725561386683e-09 -2.5512323461122396e-09 4.0319033329726926e-16
131 4.770068557228275e-09 1.6139206845453778e-09 6.362941493820888e-16
156 -2.080771290687377e-09 2.694534325344043e-09 1.1080956768664328e-09
113 2.0807754647795976e-09 -2.6945339925131757e-09 -1.1080902065708789e-09
114 4.107312383423866e-09 1.7637485386593958e-09 -8.942914534893871e-10
115 1.7164396533898788e-09 -4.0262955771644664e-09 1.45774116751801e-15
116 -1.2840753793286866e-09 2.5512215437927787e-09 1.0070581010733007e-15
133 -3.3460520350346966e-09 -1.586351098767433e-09 7.063060049062248e-09
135 2.319357321258532e-09 -2.129810835013344e-09 -2.2874733491835347e-15
157 2.0807764763307624e-09 -2.6945257843166487e-09 1.1080870746568937e-09
158 4.107310946007333e-09 1.7637451809832968e-09 8.942879172379036e-10
167 -3.3460546615327617e-09 -1.5863509580350568e-09 -7.063058266255872e-09
104 -9.701843322007063e-10 9.701872628254353e-10 -7.831314516244381e-16
117 -4.30093533714357e-09 -6.009586249544452e-09 7.675572994679377e-09
118 2.3527497653973373e-09 -1.1338734146627152e-09 4.94212358359681e-09
119 -2.477579192837972e-09 -5.397907028199975e-09 -2.5451772177794236e-16
120 -9.387961317807687e-10 1.7581770821002462e-09 7.96591523449233e-16
137 -4.367557724686159e-09 2.8946902704794598e-09 -4.192336555601895e-09
139 -2.0428541370616304e-09 2.042835797713769e-09 9.82585243210037e-16
159 -4.3009371358986225e-09 -6.00958612197968e-09 -7.675576872097795e-09
160 2.3527472263383337e-09 -1.1338600145493921e-09 -4.942125691933515e-09
169 -4.367547659611541e-09 2.8946906842136677e-09 4.1923364552631775e-09
122 6.00957732062226e-09 4.300935959959878e-09 7.675579715996833e-09
124 -1.758159398013154e-09 9.388081559076584e-10 -9.22938612050099e-15
128 4.066858043117653e-09 4.159024846065121e-09 2.7417791910023524e-16
141 -1.7637474226970771e-09 -4.1073232503801115e-09 -8.942797384088057e-10
142 4.0262868463550745e-09 -1.7164466684664723e-09 -9.232385628916226e-16
143 3.2004553370498064e-09 4.754690827376525e-09 6.627191854256775e-09
162 6.009581495691812e-09 4.300941108455276e-09 -7.675578500154663e-09
171 -1.7637412016966084e-09 -4.107315832656893e-09 8.942926239802922e-10
172 3.2004561644346495e-09 4.754686917417284e-09 -6.627195095818264e-09
351 2.6945348294849146e-09 -2.080768599225235e-09 -1.1080901251986264e-09
352 -2.5512233890462614e-09 1.2840797095932605e-09 -2.0422599886893547e-15
354 1.6139199208034083e-09 4.770070180830842e-09 -6.900827975334398e-16
401 2.6945277225669912e-09 -2.0807676497548275e-09 1.10809573498947e-09
126 5.0221509131867185e-09 5.022150183016061e-09 -9.214184699539017e-09
132 4.0481347442159164e-09 1.8394476392206541e-09 4.456459581007186e-16
144 1.8394448988772123e-09 4.048132955906193e-09 1.3050151455585361e-15
145 -2.1994857909886867e-09 -2.1994914101933056e-09 -5.397962942561978e-09
164 5.022148117006391e-09 5.0221541666966876e-09 9.214184117567766e-09
173 -2.199482279860448e-09 -2.1994871390677868e-09 5.3979630820572676e-09
130 6.490431627159721e-09 -1.609392181767185e-09 7.21824074947478e-09
146 7.565599129255354e-09 7.074110916479072e-09 -3.7712673967289345e-15
166 6.49043127479297e-09 -1.6093925899135087e-09 -7.218243243181772e-09
353 -1.6093983468457398e-09 6.490432391324708e-09 7.218237423613397e-09
356 7.074111277746492e-09 7.565597095752395e-09 2.46686407261698e-15
402 -1.609395789210278e-09 6.490434525128481e-09 -7.218243179629566e-09
355 2.184330339534474e-09 2.1843267625203867e-09 8.195240173005388e-09
403 2.184323843102532e-09 2.184325979618368e-09 -8.19523393120299e-09
134 2.9220163059765994e-09 -2.2782196539619217e-09 -1.9196624816874608e-10
136 -2.4639453663202744e-09 -9.652539635967602e-10 8.35359116654337e-16
147 2.011060554921219e-09 -5.514751391618482e-09 1.0711065876048364e-09
148 3.700456984470265e-09 -3.7004582716468692e-09 1.3355239894436844e-15
168 2.922011472534145e-09 -2.278209659801831e-09 1.919705482008906e-10
174 2.011070239716636e-09 -5.5147532429901795e-09 -1.0711043342664485e-09
357 5.514752220330632e-09 -2.011060220709464e-09 1.0711071492569244e-09
358 -1.0778711407829659e-08 1.0778707857913467e-08 -8.173934526330072e-16
404 5.514745705922644e-09 -2.0110586741778026e-09 -1.0711047331740317e-09
175 2.2782188814511957e-09 -2.9220290593463317e-09 1.919745032223601e-10
138 -2.8946922867053704e-09 4.3675665049357385e-09 -4.19233838066527e-09
140 -2.856368449611376e-10 2.8563969237814997e-10 -7.788487014983669e-16
149 2.2782220347789315e-09 -2.922017349695666e-09 -1.9196620202897288e-10
150 2.1298064873822434e-09 -2.319358347150681e-09 -9.578676567681407e-15
170 -2.8947060747134905e-09 4.367561549182022e-09 4.192352065275565e-09
359 1.5863502307953466e-09 3.3460556333859212e-09 7.063065115331703e-09
360 9.652513877987454e-10 2.4639496822640283e-09 -1.163531436036543e-14
405 1.586357654024958e-09 3.346055338182073e-09 -7.063053079580206e-09
176 1.0718267087893203e-09 -1.071836798030885e-09 -3.160707036513036e-10
177 -1.0718195627148242e-09 1.0718451974216144e-09 -3.1607178535162116e-10
179 3.7248346042171654e-09 9.567844302493641e-10 1.4778420951896434e-09
186 9.56770328083553e-10 3.724816152294158e-09 1.4778355306514323e-09
201 -3.3926342645522686e-09 -3.3926416553553436e-09 2.619974543235515e-10
202 3.39262863579496e-09 3.392636721627198e-09 2.6200062661775204e-10
203 3.6081695821838306e-09 -3.608171075334071e-09 -4.608229323872013e-09
204 -3.6081605076481345e-09 3.608178214984442e-09 -4.608220010114132e-09
205 1.1858315425418039e-09 -4.657809778961169e-10 -3.9823787212776877e-10
208 4.041607312140426e-09 3.4329573437260746e-09 -2.4914086611979896e-09
221 -4.657746014009884e-10 1.1858204780066645e-09 -3.982449903336934e-10
223 3.432951061062787e-09 4.0415968138579855e-09 -2.491400337819503e-09
225 2.1578592647947258e-09 2.1578445359535458e-09 -1.526168071525596e-09
178 6.0533509535807514e-09 2.63949482885299e-09 -9.330789681086513e-10
181 5.804614827796744e-09 5.558818878135016e-09 -4.6189678459574264e-09
188 3.5650263757237323e-09 2.2722794315445154e-09 8.101858082803457e-10
206 3.584480513091883e-09 4.767379131100007e-10 -3.513895224439251e-09
207 2.1016905831775214e-09 2.055139040606475e-09 -3.598155801452555e-09
209 4.668102061156688e-10 4.4078207072177005e-09 -6.711766646235651e-09
212 4.1185395460868615e-10 2.5287314426115957e-09 -3.0842806234978866e-09
227 5.631035165936119e-09 6.2188413924819325e-09 2.4621590757471726e-09
229 -5.344131323510823e-09 -2.8974447117009736e-10 -6.3352517405921955e-09
180 3.1844150652191e-09 -2.908648729269777e-09 -4.564144254830747e-09
190 6.220159278521219e-09 2.8019838317641e-09 -2.0030469172444674e-09
210 4.760798804151767e-09 5.714977746663859e-09 -6.920192476293645e-09
182 -5.8046125110967465e-09 -5.558819246636186e-09 -4.61896767916565e-09
183 -3.184416096335108e-09 2.908651925425014e-09 -4.564148090721784e-09
192 1.4717437297975562e-09 2.454122223604358e-09 -1.702290502356765e-09
211 3.9495456719693487e-10 -2.3257225915393464e-10 1.899890924588442e-09
213 -4.760804612561122e-09 -5.714983463523456e-09 -6.920192632308114e-09
214 -4.66802032467411e-10 -4.407817464203207e-09 -6.711768361291596e-09
215 -4.1185634429520264e-10 -2.5287323622265804e-09 -3.0842734733251665e-09
216 -3.949576459911958e-10 2.3256719816692851e-10 1.899905225685323e-09
231 3.296181628823387e-09 1.3473866312530015e-09 -5.5883264303355345e-09
233 6.101083733062047e-09 5.608420789200042e-09 -6.115528269369187e-09
235 1.6126268595708344e-09 -1.6827637007096431e-10 3.381522354578872e-09
184 -3.7248353738885454e-09 -9.567859148467262e-10 1.4778502727950983e-09
185 -6.0533525718484774e-09 -2.639494103844576e-09 -9.330724601238928e-10
194 1.4294643253301051e-09 -1.4294673236194707e-09 1.7303783775037327e-09
217 -3.5844784167681487e-09 -4.767452473195916e-10 -3.513897654899948e-09
218 -1.1858351286830244e-09 4.657814758267622e-10 -3.9824172565445444e-10
219 -4.041608597844957e-09 -3.4329708938667993e-09 -2.49140854173328e-09
220 -2.1016936895957594e-09 -2.055127284457379e-09 -3.5981619912501303e-09
237 1.1544263062094085e-09 -7.536599173531039e-09 -4.82051095837852e-09
239 -8.521740790803967e-10 8.52161928356656e-10 -1.1699500915419173e-09
187 2.6394958077673047e-09 6.053360385420172e-09 -9.330748529976017e-10
189 2.2722891587476103e-09 3.5650369792829987e-09 8.101820006340696e-10
196 5.558811957210812e-09 5.804606774209408e-09 -4.618967161176272e-09
222 4.767321962504039e-10 3.5844999907371304e-09 -3.5138917462343276e-09
224 2.0551387126701794e-09 2.1017040312041114e-09 -3.598156032721062e-09
228 6.218848042331295e-09 5.631043931401514e-09 2.462158673002673e-09
241 4.407833007276062e-09 4.667925572656683e-10 -6.711766808980156e-09
242 2.5287265480400228e-09 4.118467159543726e-10 -3.0842844265035205e-09
243 -2.8974194409717807e-10 -5.344142557541331e-09 -6.335251049794383e-09
426 -2.9086467775593627e-09 3.184424542065636e-09 -4.564156291805887e-09
427 2.8019900453554948e-09 6.2201689725849065e-09 -2.0030461400097138e-09
451 5.714978980095895e-09 4.760806077863927e-09 -6.920190693751861e-09
191 -2.015209181201331e-09 6.501387604047321e-09 9.368090758293829e-10
197 6.50137954698981e-09 -2.0152197383715863e-09 9.368074557261923e-10
226 2.8804892349038736e-09 2.8804980385209234e-09 -5.008654763808051e-09
232 3.063391969554563e-09 5.906976636053336e-09 7.181385220710099e-10
244 5.90697170262999e-09 3.063381820724113e-09 7.181404676145153e-10
245 4.0191779728494854e-09 4.019167069168418e-09 -2.660049870340247e-09
198 1.9791411477148993e-10 5.558030890044749e-10 6.506749350546065e-09
230 -9.06343791212697e-10 3.9054915994963905e-09 -4.066043813246404e-09
246 5.3260507252613875e-09 1.7955181559109895e-09 -2.462103732834243e-09
428 5.558079579403853e-10 1.9792139544640553e-10 6.506748872698691e-09
453 3.9054833688961225e-09 -9.063277324531048e-10 -4.0660457571504564e-09
456 1.7955273026311599e-09 5.326055967005782e-09 -2.462104045475002e-09
455 6.317782518638574e-09 6.317790624138123e-09 1.9164444121455837e-09
193 3.556998050016063e-09 7.878834623759121e-10 3.347169166773343e-09
199 8.154848166508084e-09 -8.154863080267666e-09 3.741029154486241e-09
234 8.569602290707566e-09 2.0263481298636933e-09 -5.692205622324706e-09
236 -7.706292963277356e-10 3.176465609387097e-09 -7.784028765320059e-09
247 -1.988035188692076e-09 8.433050012860501e-10 1.1304283466002673e-09
248 -2.317096348536323e-10 2.317001498975124e-10 -4.997978934197736e-09
429 -3.56527265869174e-09 3.5652791432855583e-09 8.488852563972144e-09
457 -8.433135480866131e-10 1.9880438479027825e-09 1.1304210968922961e-09
458 -1.3172420753019924e-09 1.3172487998799076e-09 -3.4913890641687383e-12
195 -1.5135324551592233e-09 1.5135490388854437e-09 4.960941489016287e-10
200 -2.4541322509423188e-09 -1.471759143588245e-09 -1.7022989613405427e-09
238 7.536590908947755e-09 -1.154422435215116e-09 -4.820514666169442e-09
240 -1.9837346315527246e-09 1.98373712074828e-09 7.50998322465231e-09
249 -2.0263380975656803e-09 -8.569605943589007e-09 -5.69220298576551e-09
250 1.6826841165771234e-10 -1.612631972262653e-09 3.381527494174105e-09
430 -7.878773215615275e-10 -3.5569793196004582e-09 3.347178779144304e-09
459 -5.608431883040472e-09 -6.101075983958988e-09 -6.115526450315938e-09
460 -3.176449796412205e-09 7.70629141585112e-10 -7.784025465546227e-09
251 -1.5318124073944724e-09 -5.016186020945983e-09 -1.1857099634751257e-15
252 -2.3257130960704955e-10 3.9496987097356953e-10 -1.8998964872690346e-09
254 1.3473847627077332e-09 3.296194885457565e-09 5.58832589463397e-09
262 1.2136641428806546e-09 7.124559403338229e-09 9.28744955910857e-16
263 2.3256633427504595e-10 -3.9497047790044453e-10 -1.899905221632006e-09
264 -2.5287310608350128e-09 -4.118455804137677e-10 3.0842692415540826e-09
265 -2.312084220261303e-09 -2.3661090707508844e-09 1.9079121919903362e-16
268 -1.6826493177027954e-10 1.6126305214810477e-09 -3.381519950721579e-09
311 -5.714982724443148e-09 -4.760818402089236e-09 6.920195179320796e-09
312 -4.407818220775341e-09 -4.667972230160198e-10 6.71177681746129e-09
313 2.9086488761069243e-09 -3.1844168061952654e-09 4.564144374747751e-09
314 -5.558809906385323e-09 -5.804606255384821e-09 4.61896976309993e-09
315 5.608424834245586e-09 6.101085550098445e-09 6.115525425515015e-09
318 2.4541182296987813e-09 1.4717564033004434e-09 1.7022900211838433e-09
266 1.5320163983236547e-09 -1.89331195401166e-09 7.96872881401459e-16
267 3.1764553783810062e-09 -7.706303024945466e-10 7.784030638547007e-09
269 -4.255919592237908e-09 5.249869409029055e-09 -8.541027394279027e-16
272 2.3170548069777647e-10 -2.3170002202683005e-10 4.997976193849476e-09
316 2.0263374080429102e-09 8.56960627886716e-09 5.692201783230457e-09
317 7.878855379801695e-10 3.5569834105819223e-09 -3.347176243100194e-09
319 8.433034894752557e-10 -1.988048908226117e-09 -1.1304202944182088e-09
322 -8.154855046859983e-09 8.154850728816302e-09 -3.741028822879017e-09
270 -5.2498801003214446e-09 4.255932915261728e-09 3.5071456578323848e-15
271 1.3172475618974494e-09 -1.3172526366121992e-09 3.486578923955714e-12
320 1.9880449345169214e-09 -8.433007234304956e-10 -1.1304213171542344e-09
321 3.56527516621943e-09 -3.5652731604608046e-09 -8.48885277128988e-09
273 1.5230319449007166e-09 1.5230180908158802e-09 2.21724092241169e-15
274 -1.0044599576946707e-10 -1.0044595592051104e-10 -3.2257912344838555e-15
275 -1.795517840211123e-09 -5.326052353435363e-09 2.4620955240258937e-09
276 -5.326050617086247e-09 -1.7955166428765522e-09 2.4621027288352486e-09
323 -6.317789403355973e-09 -6.317788923274501e-09 -1.9164382621164026e-09
324 -4.019168782880291e-09 -4.0191626750667895e-09 2.6600489268350983e-09
325 -5.558076008107817e-10 -1.9792735809051821e-10 -6.5067519218432305e-09
326 -1.979253477408045e-10 -5.558009213210897e-10 -6.506754587125827e-09
261 1.531822285863549e-09 5.016194892356958e-09 -6.216105897268977e-16
278 -5.461012774971831e-09 -4.912381488731101e-09 2.0398127029030285e-15
279 -1.3473916414162572e-09 -3.296193493563774e-09 5.5883342025573934e-09
280 -5.906976055246884e-09 -3.0633898673379394e-09 -7.181334848963455e-10
327 -3.905488004384017e-09 9.063350131283192e-10 4.066040669203686e-09
328 2.8973922584200636e-10 5.344136371075987e-09 6.33524610994128e-09
329 -2.8019783404037253e-09 -6.22016825707356e-09 2.003045550035715e-09
330 -6.501391796553783e-09 2.0152186768613764e-09 -9.368075837498301e-10
281 -7.498487334916387e-09 -6.415843569111218e-09 2.7556437954034914e-15
282 1.2188932449602263e-09 -3.164411704392108e-09 -3.7963520760387796e-16
283 -2.055144204379484e-09 -2.1017004718659277e-09 3.598155155063197e-09
284 -3.432954736886038e-09 -4.04160217861434e-09 2.4914103080617964e-09
285 1.2170414498824293e-10 -8.535024410264461e-10 3.623768719847124e-16
288 8.521730750957423e-10 -8.521634320148476e-10 1.1699456137711658e-09
331 -4.767326857075611e-10 -3.584485538369787e-09 3.513896944881159e-09
332 4.657687230205296e-10 -1.185819072346891e-09 3.9824273577166273e-10
333 -2.6395001737251475e-09 -6.053367717488388e-09 9.330749478299259e-10
334 -9.567797403446872e-10 -3.7248293339872248e-09 -1.4778436473806532e-09
335 -7.536586476851058e-09 1.1544164459706197e-09 4.820514374442863e-09
338 -1.4294603319205506e-09 1.4294775742302865e-09 -1.7303766915366041e-09
341 -3.5569827230558504e-09 -7.878813787716708e-10 -3.3471788175644425e-09
340 -6.1010851905717145e-09 -5.608416583314765e-09 6.115529474587961e-09
286 8.534994353006343e-10 -1.2169216674796178e-10 -9.94821672141669e-16
287 1.9837284490183356e-09 -1.9837437770392446e-09 -7.50998331526714e-09
289 1.8933253564522916e-09 -1.5320226761582434e-09 -1.2243457745827573e-16
292 -1.6126192421009836e-09 1.682783293598391e-10 -3.3815274262619244e-09
336 -1.1544289821192594e-09 7.536593987257982e-09 4.820519351530194e-09
337 1.5135400153581304e-09 -1.5135391385882629e-09 -4.961011161449805e-10
339 -8.569601868897705e-09 -2.0263443102678727e-09 5.69220628558208e-09
342 -1.4717529557026118e-09 -2.45412038374763e-09 1.7022889513298552e-09
290 2.366092572427529e-09 2.3120811684959273e-09 2.2270300655569956e-15
291 7.706296018427999e-10 -3.176463341015916e-09 7.784022974525844e-09
346 -6.2201669239146285e-09 -2.8019896162729857e-09 2.0030493592360417e-09
345 2.015211224333046e-09 -6.5013923757467815e-09 -9.368085559610514e-10
344 5.344141280197729e-09 2.897424587936131e-10 6.335243910892934e-09
343 9.063384449452539e-10 -3.905496138231094e-09 4.066048132687519e-09
296 -3.2961858197711737e-09 -1.3473837076981263e-09 5.588329005746026e-09
13 5.016210159366948e-09 1.531820887239722e-09 1.5515791885309178e-15
295 -3.0633893046913427e-09 -5.906977575549222e-09 -7.181285634400426e-10
294 -4.912388900041846e-09 -5.461004215455121e-09 3.434452744658896e-15
293 -7.737912451403256e-09 -3.884406286919255e-09 7.285697796386695e-16
350 -3.56502545781812e-09 -2.272280005923266e-09 -8.101776393634348e-10
349 -2.2722822543670825e-09 -3.5650258695739536e-09 -8.101794231288624e-10
348 -2.1578483092922627e-09 -2.1578518054694416e-09 1.5261656215433553e-09
347 -2.880498452372163e-09 -2.8804980939977508e-09 5.008651882484147e-09
300 -5.631043398964087e-09 -6.218837845219754e-09 -2.462161452069513e-09
299 -6.218844662134312e-09 -5.631041592867176e-09 -2.4621618577071324e-09
298 -3.5354330181969728e-09 -3.535418881450628e-09 -1.8550426260353876e-15
297 -6.251722776871001e-09 -6.2517319128947515e-09 -1.5038571156975537e-15
361 -2.694538559148453e-09 2.0807653837976223e-09 -1.1080930062658185e-09
362 1.7637488372282615e-09 4.107321140819763e-09 -8.942917450987841e-10
363 2.5512235750399815e-09 -1.2840791638485301e-09 4.08084904869922e-16
364 -4.026293799093993e-09 1.716452171188563e-09 7.36633021684237e-16
365 -1.5863514429298425e-09 -3.3460587510501128e-09 7.0630600072498305e-09
368 -2.1298067178925456e-09 2.319365044757368e-09 3.185885232910236e-16
406 -2.6945252263354892e-09 2.080764644717315e-09 1.108099969405702e-09
407 1.7637425134417897e-09 4.107316296417549e-09 8.942880340957999e-10
408 -1.5863479203108043e-09 -3.346057378016939e-09 -7.063058728716345e-09
366 -2.27821459210487e-09 2.922019714997378e-09 -1.919659547766308e-10
367 -9.652547384293378e-10 -2.4639453270130608e-09 1.5974657970245372e-15
369 -5.5147473862266154e-09 2.0110705696692332e-09 1.0711038796831138e-09
372 -3.7004562467437765e-09 3.70045393438583e-09 -5.503370694479747e-15
409 -2.2782197786491085e-09 2.9220179480570404e-09 1.9196777930466218e-10
410 -5.5147510645975285e-09 2.0110642654610475e-09 -1.0711061660598597e-09
370 -2.0110653257476144e-09 5.514745610517633e-09 1.071107520020721e-09
371 1.0778706802035868e-08 -1.0778710671068478e-08 -6.275452577587391e-15
411 -2.0110620222224935e-09 5.5147543032767465e-09 -1.0710994500958406e-09
373 -2.184331194710291e-09 -2.1843302196174705e-09 8.19523298410339e-09
374 2.199491597410668e-09 2.199493245045824e-09 -5.397966996949749e-09
375 -7.074104507913357e-09 -7.565605650871194e-09 9.664018489696963e-16
376 -7.565601301822817e-09 -7.074104779298141e-09 8.398008156321766e-16
412 -2.1843234104928816e-09 -2.1843250215824604e-09 -8.195227839296846e-09
413 2.1994831263454147e-09 2.1994849438524366e-09 5.397962891168976e-09
377 1.6093913350063031e-09 -6.4904376159739506e-09 7.218249521770681e-09
378 -3.200452530981826e-09 -4.754687741951554e-09 6.627201092138584e-09
379 -1.6139171446621006e-09 -4.7700716936569826e-09 -9.299685988040201e-15
380 -1.8394412440006302e-09 -4.0481281170103725e-09 -1.595783288046438e-15
414 1.6093861112747922e-09 -6.490435002731597e-09 -7.218235329960407e-09
415 -3.200451368674033e-09 -4.754677811477655e-09 -6.6271950069624765e-09
381 -6.009579856010335e-09 -4.300938706367799e-09 7.67557647319021e-09
382 -1.1338680269630567e-09 2.3527551665570673e-09 4.942122756414214e-09
383 1.7581687858014305e-09 -9.388053409171827e-10 -1.300772314690668e-15
384 -5.397900454790353e-09 -2.47757272955621e-09 7.721186655859694e-16
385 2.894694353951454e-09 -4.367561584006512e-09 -4.192336563186068e-09
388 2.0428466884814604e-09 -2.0428452793295547e-09 4.442309903063371e-16
416 -6.009585749074508e-09 -4.3009477179623625e-09 -7.675576811527471e-09
417 -1.133872901956343e-09 2.3527636886944746e-09 -4.9421198979844155e-09
418 2.8946986092520676e-09 -4.367561692641503e-09 4.19233646094088e-09
103 9.701771610415308e-10 -9.701909450728117e-10 1.8495362330161532e-15
421 3.346042778575192e-09 1.5863507936710774e-09 -7.063065493437357e-09
391 2.463944818070862e-09 9.652547853542205e-10 -4.564187431359414e-16
390 3.3460522598024645e-09 1.5863529570717126e-09 7.063066720751179e-09
386 4.367552847666214e-09 -2.8946937156143588e-09 -4.192346454261079e-09
387 2.856294679544796e-10 -2.8564435065460075e-10 -1.2273139151992179e-15
389 -2.9220182985191855e-09 2.278215519997518e-09 -1.9196732086418972e-10
392 -2.319343794977574e-09 2.129815664703942e-09 2.32492149701005e-16
419 4.3675480465945815e-09 -2.8946881309846723e-09 4.192343560345636e-09
420 -2.9220094296681596e-09 2.27821573724193e-09 1.9197420792205615e-10
423 -4.754683518509123e-09 -3.2004509709900926e-09 -6.62719574053639e-09
422 -6.490432691425866e-09 1.6093840005356126e-09 -7.218235443383398e-09
396 -4.770068799963804e-09 -1.6139142177083e-09 -6.756956056047104e-15
395 -4.048130007961062e-09 -1.8394411913719429e-09 -4.081031766127084e-15
394 -4.754690351064113e-09 -3.2004508316477585e-09 6.627201340538091e-09
393 -6.490431309431868e-09 1.6093936220166785e-09 7.21824146344791e-09
425 -2.1201043926628036e-09 -2.120102725143451e-09 6.5684407515153224e-09
424 -5.0221460914983755e-09 -5.02214832219937e-09 9.214178444888368e-09
400 -4.159035622076259e-09 -4.066861009839847e-09 2.020540327335708e-15
399 -4.0668599348695656e-09 -4.159041253892675e-09 1.5320009022403069e-15
398 -2.1201056615804842e-09 -2.1201012234277105e-09 -6.5684481979941485e-09
397 -5.022149924865649e-09 -5.0221531219386184e-09 -9.214180615019041e-09
431 2.9086451415488144e-09 -3.1844245787749225e-09 -4.564151802871934e-09
432 -5.558810662596632e-09 -5.80460340429688e-09 -4.6189723266317905e-09
434 2.454128250032761e-09 1.4717574399941873e-09 -1.7022928825546718e-09
452 -2.3256266089908066e-10 3.949706504340925e-10 1.899901863955907e-09
454 1.3473887322760803e-09 3.296194241240408e-09 -5.588331285675663e-09
461 -5.714979082881898e-09 -4.760806368785025e-09 -6.920185617775229e-09
462 -4.407833477154934e-09 -4.667869563462355e-10 -6.711769316224444e-09
463 2.3256109463617742e-10 -3.949709233064577e-10 1.899905088560841e-09
464 -2.5287247033983617e-09 -4.118468872643776e-10 -3.084281216123435e-09
465 5.608434492315845e-09 6.101070591899112e-09 -6.115527547206766e-09
468 -1.6826416485254437e-10 1.6126306466165888e-09 3.381527594433469e-09
433 7.878732040469747e-10 3.5569846782759596e-09 3.347174884856583e-09
436 -8.15485324171994e-09 8.154858432871958e-09 3.741029138808316e-09
466 2.026341520094853e-09 8.569606880899464e-09 -5.692205899871061e-09
467 3.176455173710899e-09 -7.706315472932288e-10 -7.784032498433756e-09
469 8.433106753181457e-10 -1.9880418894104816e-09 1.1304330949465141e-09
472 2.3170998553908765e-10 -2.3170588572357409e-10 -4.9979836265623205e-09
435 3.565279533620789e-09 -3.5652781773966662e-09 8.488851473004769e-09
470 1.988035587183247e-09 -8.433074338881217e-10 1.1304278265520377e-09
471 1.3172388263108351e-09 -1.3172520835256116e-09 -3.494007048138661e-12
437 -5.558002321288761e-10 -1.9793209222392214e-10 6.50674328709529e-09
438 -1.9792696745757364e-10 -5.558005248607923e-10 6.506740869094784e-09
473 -6.317787270068425e-09 -6.317790425907974e-09 1.9164494645670896e-09
474 -4.01916862723738e-09 -4.019166773885673e-09 -2.660036353217248e-09
475 -1.7955297764555978e-09 -5.326045784920313e-09 -2.462102794911965e-09
476 -5.326038152950846e-09 -1.7955184734463203e-09 -2.462104925809586e-09
439 -2.8019951630462204e-09 -6.220167143558528e-09 -2.0030466941418203e-09
440 -6.501376658867552e-09 2.0152117418652795e-09 9.368101527959543e-10
477 -3.905485600843464e-09 9.063356408571234e-10 -4.066052343408328e-09
478 2.89739189744541e-10 5.344138119661682e-09 -6.335251335219971e-09
479 -1.3473840682903913e-09 -3.2961956967328034e-09 -5.588334117514213e-09
480 -5.906981924450021e-09 -3.0633757787903832e-09 7.181310792144175e-10
277 -3.8844059484681754e-09 -7.737916010268012e-09 1.037159716245115e-14
441 -2.639498700459104e-09 -6.053365294675459e-09 -9.330662768669518e-10
442 -9.567740369451622e-10 -3.72481996822452e-09 1.4778379207319134e-09
444 -1.4294587509047742e-09 1.4294718827356998e-09 1.7303766410548372e-09
481 -4.767245705078936e-10 -3.5844948319375607e-09 -3.5138897792283766e-09
482 4.657719289649098e-10 -1.185825795346857e-09 -3.9824310500590575e-10
483 -2.055145741274958e-09 -2.101702494318197e-09 -3.5981609754735735e-09
484 -3.4329562970307266e-09 -4.04159956491312e-09 -2.4914085784425666e-09
485 -7.536587297311086e-09 1.1544226919827304e-09 -4.8205188272912265e-09
488 8.521717472110816e-10 -8.521623363921566e-10 -1.1699481242992143e-09
491 7.706246715554852e-10 -3.1764608101613843e-09 -7.784027214620736e-09
490 -6.101082665015726e-09 -5.6084161066126505e-09 -6.1155260208172825e-09
443 1.5135363354112513e-09 -1.5135413810357508e-09 4.961069101782312e-10
446 -1.4717473328802291e-09 -2.4541251621579794e-09 -1.7022883439769756e-09
486 -1.1544323660498944e-09 7.536591755708638e-09 -4.820519301328721e-09
487 1.983728462583704e-09 -1.983739424206137e-09 7.509984627566207e-09
489 -8.569602210461008e-09 -2.0263459671366628e-09 -5.692207275054518e-09
492 -1.6126166508531331e-09 1.682778759236695e-10 3.381529937177141e-09
445 -3.55699162425645e-09 -7.878816404403545e-10 3.3471676332894348e-09
496 -3.2961862410311515e-09 -1.3473883582294195e-09 -5.588332789249852e-09
495 -3.0633915840038364e-09 -5.906987399248534e-09 7.181320074533983e-10
494 5.344133774881734e-09 2.8974605412835777e-10 -6.335258170023621e-09
493 9.063441966193872e-10 -3.905487372318988e-09 -4.0660446387935605e-09
448 -6.22015697195705e-09 -2.8019904109571416e-09 -2.0030386225818187e-09
447 2.0152050408221753e-09 -6.5013791607389475e-09 9.368089779731922e-10
500 -5.631029859355474e-09 -6.2188366882653985e-09 2.462161105166753e-09
499 -6.218849718226746e-09 -5.63104476210227e-09 2.4621606303933105e-09
498 -2.1578547172041836e-09 -2.1578323722613114e-09 -1.5261617407599196e-09
497 -2.880495175609451e-09 -2.8805035722469837e-09 -5.008651318078863e-09
450 -3.5650324295235038e-09 -2.272277545177408e-09 8.101850733808803e-10
449 -2.272285548413751e-09 -3.5650393541186362e-09 8.101735251701173e-10
