LAMMPS data file via write_data, version 29 Aug 2024, timestep = 66, units = metal

500 atoms
3 atom types

0.012774277313685745 17.587225722686323 xlo xhi
0.006271754929414856 17.593728245070587 ylo yhi
-0.017626870028294803 17.617626870028275 zlo zhi
1.0769211147897366e-15 1.0798478522455835e-15 1.0798478522455835e-15 xy xz yz

Masses

1 58.71
2 55.845
3 51.9961

Atoms # atomic

87 1 3.519052412398389 3.5201744235323447 -0.013920972963770994 0 0 0
115 1 0.03141431124073486 3.4917925583260696 3.5135260893455786 0 0 0
313 2 1.7739775975323822 1.746143836473437 -0.015275165199954328 0 0 0
378 3 3.581986523180039 3.5204616218603593 3.5119034479109796 0 0 0
469 3 1.7524531664096785 1.7354790681513454 3.4994853538524713 0 0 0
474 3 1.7622823502888045 3.5585849739392783 1.750135694405975 0 0 0
479 3 3.5474497235613827 1.7544520696766253 1.7030767582785336 0 0 0
137 1 5.308927741969361 1.7379678392309608 3.4901673420843182 0 0 0
139 1 5.296862605854949 0.018853560731859547 1.7714232649956763 0 0 0
206 1 7.047591190967581 1.7838177872415582 1.7392727835640274 0 0 0
234 1 7.041159227229022 3.51048085599159 -0.008435272099277812 0 0 0
308 2 5.2933686838232 3.5078818460649503 1.7215783524640116 0 0 0
338 2 7.053646560903005 0.008224173831759217 3.489962967454461 0 0 0
343 3 7.026903649658258 0.007976642188539348 0.01821144588713908 0 0 0
368 3 7.023961594387913 3.513640022068342 3.4893417147303336 0 0 0
249 2 8.799498831250457 3.526323960535669 1.7372038668342424 0 0 0
359 3 8.797362368315822 1.7654675080340885 -0.014899429903782698 0 0 0
167 1 10.571268099220894 0.012533734722477869 0.0067587462683137735 0 0 0
177 1 10.574550756806882 3.5230272726741494 0.0018911973486254105 0 0 0
185 1 12.301068145148252 3.5207332992627514 1.697577714485838 0 0 0
193 1 12.307135471089332 1.730417246077864 3.4661783193472466 0 0 0
195 1 12.342900781215985 1.761452350858588 -0.0041354212113469055 0 0 0
196 1 12.310827853976043 0.011978957702667834 1.72374129084345 0 0 0
203 1 8.806635988434897 1.7467227231862728 3.493385605363288 0 0 0
205 1 8.806102517706968 0.026030587039214202 1.7780301756645889 0 0 0
248 2 10.571663102823111 1.7536614452507873 1.7292258977536672 0 0 0
418 3 10.54613741551476 3.5177395836845853 3.4749994518711755 0 0 0
135 1 17.56770367456134 1.7376950712521981 1.7497820352379643 -1 0 0
68 1 14.082568523865767 0.01717849253162686 -0.008647262719884023 0 0 0
69 1 14.058392920327892 1.7653516779679062 1.7242430997269718 0 0 0
71 1 15.805068581621375 1.7251735956639767 0.006313383920510583 0 0 0
303 2 15.83804797634849 1.750943955673918 3.497571026279924 0 0 0
346 3 14.022442771145805 3.51891585928653 3.4754283994049517 0 0 0
347 3 15.829908864240938 3.511613991247156 1.7364918728055798 0 0 0
86 1 3.531713043278362 5.300647894016751 1.7358583364532794 0 0 0
125 1 1.7885095797752473 5.29225840339993 3.510282637585027 0 0 0
127 1 1.7811474846103992 5.281585316442628 0.0025027592045283875 0 0 0
128 1 0.022564757865752072 5.282934893524356 1.7426342683802547 0 0 0
255 2 1.7812172111679687 7.0291392758054165 1.731884513029251 0 0 0
298 2 3.5453541737394607 7.023103207332956 3.512797962565918 0 0 0
488 3 0.04226304814337768 7.058669134235805 3.4920465736459607 0 0 0
494 3 0.024377827467158768 7.012266000399582 -0.013094404372436176 0 0 0
460 3 1.7948348366270186 8.79772588642523 3.524837644082775 0 0 0
220 1 7.014783739964123 7.074983011077389 3.502018245559189 0 0 0
233 1 7.025113111473696 5.291088297818716 1.7331675241748254 0 0 0
297 2 5.308280526676681 7.063309084335688 1.752082121648853 0 0 0
304 2 5.278449669432945 5.305935570048783 3.4960478034247124 0 0 0
377 3 5.284656589159835 5.281123303411308 -0.0018952301102457166 0 0 0
222 1 8.768702415807912 7.047291024593025 1.7302143785230526 0 0 0
367 3 8.785482908899652 5.279016908451147 -0.004744694014927522 0 0 0
425 3 8.789701508520427 5.315682343646695 3.51575643631653 0 0 0
75 1 5.285050426282674 8.78601448202721 3.5120836202013987 0 0 0
176 1 8.763384349483918 8.76283579027747 3.505899341836727 0 0 0
223 1 7.029174934160436 8.787509789132766 1.7261072283835488 0 0 0
16 1 12.289270510689558 7.013191209605494 1.7309060049513891 0 0 0
182 1 12.328211078713899 5.276769984327221 3.4936340828658112 0 0 0
14 1 10.547600016638404 8.76550342595521 1.7413162371132607 0 0 0
186 1 10.581885422140227 5.279279476342105 1.7246363915927283 0 0 0
286 2 10.547680763826703 7.030927786634182 -0.01579867727066447 0 0 0
416 3 10.572552898634646 7.044782700707441 3.487409520421469 0 0 0
26 1 14.047799291444704 5.271673830099952 1.7009769869585134 0 0 0
27 1 15.831621203093382 5.281953355619227 -0.0041750925458707636 0 0 0
39 1 15.84740602850082 7.043105230651615 1.739469340963151 0 0 0
344 3 15.812943998232289 5.287140015386663 3.471306404192779 0 0 0
383 3 14.040239932957407 7.011012318377257 3.480083385897917 0 0 0
390 3 14.076143836877314 7.0157808414526395 -0.017114354494926005 0 0 0
83 1 3.5392895891554876 3.511746916336435 7.035878620008638 0 0 0
105 1 3.54408863238166 0.015406733616495104 7.022763058693679 0 0 0
133 1 1.7959594393138838 1.7739927200646184 7.022287339640496 0 0 0
269 2 1.7975220013681343 3.514408565814101 5.269043153767756 0 0 0
337 2 0.014176902808351459 0.011838849742615865 7.021615365755487 0 0 0
455 3 0.048720576440141675 3.4931437964770455 7.0593641522696196 0 0 0
482 3 3.5743088240614944 1.7401861538651389 5.283192883681742 0 0 0
476 3 1.8236365833706163 0.008020349529146582 8.772544779879228 0 0 0
84 1 5.272449854560378 3.5380137254338937 5.280585383900244 0 0 0
93 1 5.295450662997208 1.79135536817254 7.039232799231517 0 0 0
202 1 7.072963455232254 0.045015979424498045 7.007579178245641 0 0 0
278 2 7.043124280969284 3.5173743788571543 7.055924279968786 0 0 0
360 3 7.056082767200131 1.7862410847909143 5.278710393684983 0 0 0
204 1 8.789873685875062 0.015330912431245628 5.253146737271265 0 0 0
231 1 8.793691447959262 3.521173916297452 8.795785126495463 0 0 0
372 3 5.268554596533954 0.03995676931005196 8.779946110788467 0 0 0
181 1 10.511813691069264 3.520920005951939 7.058058486569623 0 0 0
200 1 8.814788199999658 1.7760920698180205 7.054961194289218 0 0 0
232 1 8.8095887241541 3.5274391233122446 5.290095106620088 0 0 0
322 2 10.54445204264322 0.03706675357352746 7.035904086449056 0 0 0
325 2 12.297403213534876 1.7961975830248453 7.059160820126392 0 0 0
408 3 10.571352619644724 1.7497891141292443 5.263150925804426 0 0 0
419 3 12.287659304801295 3.560344043396078 5.284417641876793 0 0 0
134 1 17.579472836209483 1.7504484896113515 5.255918852019759 -1 0 0
30 1 14.07480076418335 3.542364775481304 7.094571084909575 0 0 0
345 3 15.811845820056327 3.5337912105364766 5.27262323842196 0 0 0
353 3 15.79856666070669 1.7420802408668463 7.033953478308864 0 0 0
358 3 14.016834851668792 1.7823751445877984 5.266859036814587 0 0 0
270 2 1.7909276921523039 8.793504550191164 7.05444148068062 0 0 0
74 1 3.51721714142636 5.282667302643279 5.275696079436442 0 0 0
85 1 3.5281079330805687 7.04011139495276 7.023919511605187 0 0 0
123 1 1.8031475204255005 5.278825896447902 7.041250916762839 0 0 0
280 2 1.7969295898655853 7.031264214381872 5.283406558709825 0 0 0
462 3 0.034419528254570314 5.254321699430747 5.260233825397313 0 0 0
470 3 0.059821821452939794 7.045773632694649 7.057926387042352 0 0 0
284 2 8.772423171730717 8.7828434270852 7.056239104060109 0 0 0
219 1 7.028410709691791 8.777798565258278 5.284458853901717 0 0 0
230 1 8.797197751629994 5.275951203185096 7.031557676732686 0 0 0
113 1 5.289307662041877 8.781426721090828 7.0411161812002225 0 0 0
187 1 8.779326728386984 7.058227463429994 5.277177332963746 0 0 0
369 3 7.037134441406627 5.296444977419754 5.297438429774818 0 0 0
288 2 5.262936077330888 5.269408030746733 7.027628435099201 0 0 0
76 1 5.261963198695726 7.023529276053589 5.257680887483381 0 0 0
175 1 7.039338301886373 7.058552961250672 7.017503170272499 0 0 0
282 2 7.034283062695778 8.783336524991734 8.780003306929714 0 0 0
392 3 5.264536965891909 7.034148549506621 8.7848891497438 0 0 0
415 3 10.560171037039497 8.792859724183218 5.260573740966783 0 0 0
410 3 12.295960046335784 8.767989361772903 7.0266643814547765 0 0 0
420 3 12.284020005150525 5.273483746002158 7.051325634738257 0 0 0
413 3 10.513226965951613 7.020570376308422 7.057195255267943 0 0 0
183 1 10.545267289778696 5.293792775067097 5.268038140017461 0 0 0
12 1 12.312829827842494 7.021489497984628 5.237826213066195 0 0 0
376 3 15.85393168963391 7.018326998041792 8.794503744838062 0 0 0
381 3 15.839424431641392 7.049798411647538 5.278674728427761 0 0 0
379 3 14.056906487014873 7.013610611782276 7.082696516656883 0 0 0
339 2 15.84053520910497 5.258200870538343 7.070021443398583 0 0 0
28 1 14.061098877318056 5.289614740121305 5.303718151035267 0 0 0
306 2 14.072995827961607 8.773505572993573 8.796319959162378 0 0 0
81 1 3.505252068845457 3.4923139775001997 10.580412031291088 0 0 0
91 1 3.54737041009558 1.8069916361394762 12.340093435948003 0 0 0
92 1 3.5369464237647685 0.020149575918712262 10.56404444426024 0 0 0
94 1 3.5343635114631624 1.784256891819408 8.802757180243686 0 0 0
122 1 0.013770548009338284 3.4749183041359037 10.589896538315319 0 0 0
131 1 1.7974468231359344 1.7693569815359964 10.575713526731807 0 0 0
132 1 0.025291358525624953 1.7906706079779782 12.336868041514407 0 0 0
267 2 1.779030179667079 3.5085471699428408 12.322786464110733 0 0 0
268 2 1.7803842662594933 3.5019360133220006 8.818351988750592 0 0 0
330 2 0.034513914868495796 0.027937480333621527 10.564228365442517 0 0 0
497 3 1.7745687748939387 0.05899292593209339 12.308984077939648 0 0 0
80 1 5.264413497650196 3.5236904716423956 12.334167534938775 0 0 0
90 1 5.2726281203051295 1.7804427982141902 10.58627537313346 0 0 0
199 1 7.025451358320193 1.8066412872184692 12.337943269656604 0 0 0
201 1 7.056206901698557 1.7886545224039294 8.800632283258999 0 0 0
227 1 8.78748585891792 3.5463818470537345 12.3176386541153 0 0 0
229 1 7.0486476898313235 3.511902488749536 10.568548794302506 0 0 0
315 2 5.290216027339649 0.04049868301950898 12.34780437631112 0 0 0
362 3 7.047116910705303 0.03661264710769693 10.563767122224332 0 0 0
363 3 8.790078502047455 0.04743613237853607 12.356172929462486 0 0 0
82 1 5.277342469915651 3.477131040991051 8.80050381397856 0 0 0
198 1 8.8069360048719 1.790083685501018 10.567120185148239 0 0 0
247 2 8.808443999368007 0.06018088936387155 8.806113412980405 0 0 0
179 1 12.314520625787976 3.528052517339311 8.807429909372244 0 0 0
190 1 10.529047174046028 1.7809294876749528 12.337721658808878 0 0 0
191 1 10.541012798129186 0.018470757733811804 10.561648546895231 0 0 0
192 1 10.549271842445442 1.7767807965994595 8.808674741388813 0 0 0
332 2 12.304307879260973 1.7849088728150568 10.57435670150985 0 0 0
397 3 12.289449032091824 0.028693271308313673 8.807002480590123 0 0 0
412 3 12.289175102477046 0.04852534631772742 12.339769296297321 0 0 0
421 3 10.552435510326555 3.5371919411403394 10.555268862077478 0 0 0
423 3 12.322197647120948 3.5433629930679342 12.354721835368123 0 0 0
471 3 17.58217638068904 1.7347668141987966 8.830920047942888 -1 0 0
17 1 15.841057070693587 3.527561296008947 8.819012755694178 0 0 0
18 1 14.063964373063577 1.800132450298617 8.839387468111445 0 0 0
20 1 14.072084090247243 1.7818394399982347 12.323948369788765 0 0 0
21 1 15.807970913339421 1.75248041796341 10.5685987752735 0 0 0
33 1 14.090090458172849 3.5091032403326503 10.580860867180185 0 0 0
35 1 15.830894219457962 3.508140115955189 12.329781397807956 0 0 0
323 2 14.051394452557581 0.03827201504411487 10.566015096577901 0 0 0
352 3 15.853670524575126 0.011070797773346502 12.341224441267796 0 0 0
111 1 3.5343954936727577 8.784956159560286 12.329492960901863 0 0 0
112 1 3.50706796264745 7.027546129699698 10.597096591375767 0 0 0
114 1 3.5253580375916203 8.795743219391149 8.80225401525181 0 0 0
116 1 0.045652615661184275 7.04726362528172 10.5806414545113 0 0 0
121 1 1.7558326045159371 5.270143942234282 10.551028838631241 0 0 0
124 1 0.04834964568802886 5.264777221192612 8.82560465165603 0 0 0
126 1 1.796490765786141 7.031416457902024 12.3008871049316 0 0 0
241 2 0.040052619125624425 8.778722890268861 12.325779896307788 0 0 0
244 2 1.7924057262020505 8.774472719896487 10.561879755180305 0 0 0
271 2 1.7886570872381902 7.040556792867409 8.82885658893634 0 0 0
290 2 3.521150086571544 5.26677114919513 12.31799515855092 0 0 0
380 3 3.519608059239285 5.254097194180719 8.824833884712664 0 0 0
481 3 0.015847709263811533 5.279145845097914 12.32343115416234 0 0 0
2 1 8.794266184133605 7.0553321380767935 8.827041746608128 0 0 0
173 1 8.776942139715882 8.76810520961564 10.52616699381139 0 0 0
174 1 7.032297262358722 7.0450102748017285 10.57677452892428 0 0 0
218 1 7.021467075087134 5.290978771186617 12.33771504762993 0 0 0
226 1 8.797923744000233 5.291474848370211 10.578154087735326 0 0 0
285 2 7.014396815816137 8.78210512442929 12.337244009467685 0 0 0
342 2 5.273362988051263 7.030569562633112 12.33723242505291 0 0 0
370 3 5.299819656837835 5.239764949285624 10.59039969296106 0 0 0
394 3 5.23977174644146 8.794720320951953 10.564951902501775 0 0 0
426 3 7.068019661132633 5.287682259507354 8.801568887861682 0 0 0
434 3 8.766694866942977 7.041103482267975 12.327190627213762 0 0 0
5 1 12.340654146096387 8.756068855442647 10.55586742038564 0 0 0
6 1 10.568232986743727 7.027679927029732 10.549875387034803 0 0 0
9 1 12.293733842327894 7.0323705652431 8.856385418190401 0 0 0
10 1 10.545833170075545 8.795382594538664 8.823764000930035 0 0 0
178 1 10.547353578979106 5.306306526654241 12.34163506507325 0 0 0
180 1 10.536942668154788 5.287498702319243 8.818802287385694 0 0 0
228 1 12.323616678346033 5.281522165972393 10.567872740246063 0 0 0
246 2 12.313903455758945 7.0122599488404935 12.317425823886122 0 0 0
409 3 10.517228515801342 8.781612969207657 12.289797603844843 0 0 0
31 1 14.052573681395584 5.263623027517534 8.826483325107866 0 0 0
34 1 14.083338294086456 5.29816461667299 12.334718796957713 0 0 0
43 1 15.833324680837958 7.046180964142618 12.339033396082026 0 0 0
311 2 14.066842280664934 7.018714318276543 10.581605827237672 0 0 0
312 2 14.082551878204294 8.779869669020623 12.330868138225519 0 0 0
374 3 15.860104961286195 8.797529978564443 10.575693325346602 0 0 0
393 3 15.828269656874783 5.260275858533481 10.552119844854545 0 0 0
79 1 3.5211750665981674 3.5363210211449685 14.083303017810632 0 0 0
89 1 3.528809937001314 1.7821712528331977 15.86630079792554 0 0 0
129 1 1.7782797571781068 1.7928591117511101 14.105926642913238 0 0 0
130 1 1.7650911028027712 0.007314731733697751 15.898249994117858 0 0 0
240 2 0.04089568533221656 0.023934394985508218 14.12727580281147 0 0 0
260 2 0.02135352133173776 3.521165529807617 14.095673931926852 0 0 0
375 3 3.5110072586966226 0.057764391003473546 14.128107521915807 0 0 0
487 3 1.8042477521403564 3.546841502442188 15.872530798012136 0 0 0
307 2 3.5471859058717157 0.0125567884720037 17.582842536167238 0 0 -1
88 1 5.278573549740005 0.018209549908736487 15.850819491751961 0 0 0
208 1 7.015502354013228 0.04934455055031802 14.106697665478185 0 0 0
235 1 8.794217503258883 1.8073690051888545 14.087127815336496 0 0 0
237 1 7.03591515254297 1.7682969899705367 15.850638194473271 0 0 0
310 2 5.281096762562017 1.7844495184026279 14.09486271191423 0 0 0
385 3 5.283130071898243 3.513600555784049 15.867965487724415 0 0 0
429 3 7.060202990866162 3.555269211815061 14.096713190078365 0 0 0
225 1 8.785197890156741 3.5279074006266717 15.871510755680992 0 0 0
236 1 8.797296983738962 0.0631966838600413 15.836288161380574 0 0 0
138 1 5.281100576664902 1.7535827975571556 17.606373464123834 0 0 -1
1 1 10.534732236866981 3.53977663686159 14.08520694421953 0 0 0
188 1 12.309559171335419 1.7907506101585264 14.099200677172831 0 0 0
189 1 10.57014913118597 0.05099265805637811 14.102347635723326 0 0 0
287 2 12.321593781392716 3.5255828512246046 15.866503051084202 0 0 0
333 2 12.32530996607466 0.05872327949077939 15.866975525239194 0 0 0
414 3 10.556225636689348 1.788069744474406 15.852569883460829 0 0 0
491 3 17.5834163242909 1.7611997556555523 15.856504950027658 -1 0 0
22 1 14.061271282943514 0.05839592585806856 14.103876870578718 0 0 0
23 1 14.069553823457168 1.7813945547789607 15.870107373426501 0 0 0
36 1 15.800832922115003 3.527279803320253 15.877701673231586 0 0 0
302 2 14.060052898468529 3.5223337141676243 14.09882041688035 0 0 0
348 3 15.816156799200572 1.777385889039481 14.107760260326192 0 0 0
468 3 17.570695904481052 3.503768450036885 17.5938771087473 -1 0 -1
25 1 14.074572885015076 3.5223355193324037 17.589782448247956 0 0 -1
110 1 3.5401208900822168 8.799876764098894 15.827246788230084 0 0 0
155 1 0.018847683571857548 7.05451470436285 14.059940861525892 0 0 0
242 2 1.8028389940508918 8.787717397674617 14.078261245543446 0 0 0
293 2 3.541261378526804 5.286296492916967 15.861968020640525 0 0 0
341 2 3.5331276882281983 7.045662629133475 14.065352758020579 0 0 0
465 3 1.7845255167883405 7.039699710333033 15.860695965725752 0 0 0
489 3 1.7673984164673042 5.294738516715348 14.09803337945292 0 0 0
386 3 3.5357155378971163 7.076729284550532 17.601801157169415 0 0 -1
172 1 7.0250669435935995 8.775409426093823 15.861373488831708 0 0 0
171 1 8.766432912707 7.041107849753198 15.836054241976292 0 0 0
78 1 5.264099392132518 5.297153575960404 14.091153934889622 0 0 0
109 1 5.259847183738075 8.785809240600381 14.083472017099233 0 0 0
170 1 8.782783844917532 8.783912822494953 14.106442891527063 0 0 0
254 2 7.023627033492853 7.038588844516427 14.101367902135447 0 0 0
274 2 7.03890333517724 5.298440030777726 15.860726837520327 0 0 0
276 2 8.795011693820069 5.288325098486769 14.085053767403334 0 0 0
340 2 5.294974640827712 7.060004577290753 15.83762643268713 0 0 0
224 1 7.038158391760823 7.062456034500935 17.609177447532023 0 0 -1
221 1 8.777246146270993 8.76990809433041 17.602995452140632 0 0 -1
403 3 10.54205791601997 8.783287066841805 15.854853081232807 0 0 0
422 3 10.551211511355538 5.266315987637615 15.857278629565458 0 0 0
411 3 12.307676024193972 8.754954363897774 14.100597644933366 0 0 0
294 2 12.315411897121914 5.295918282223998 14.089816043031215 0 0 0
7 1 10.547251276231293 7.018608536374814 14.097944836075973 0 0 0
13 1 12.318606521606196 7.001679495865319 15.847836307956673 0 0 0
184 1 12.318867490331275 5.271572288599342 17.61557081250811 0 0 -1
45 1 14.07220778142555 7.016341455071015 14.05680758923747 0 0 0
391 3 15.838398614507003 5.26074833436639 14.123189622502638 0 0 0
371 3 15.832319004301516 7.035385142676948 15.848660653449711 0 0 0
301 2 14.062157238280683 5.262605113042985 15.856522665129036 0 0 0
120 1 17.583430845910307 5.270852762458093 15.865248764225727 -1 0 0
95 1 3.5495605742859793 10.576636993924254 3.4794017486163082 0 0 0
107 1 3.531335432528741 12.298597467628122 1.7738928898179829 0 0 0
151 1 1.8010246668610606 12.340805398953876 3.4923521569610183 0 0 0
153 1 1.7797745446092827 10.573338629120917 1.737583209343578 0 0 0
387 3 3.5265143392649896 8.820496559980036 1.7298169565159887 0 0 0
480 3 1.7770984875286038 12.300425327472803 -0.0003688095341091713 0 0 0
483 3 0.02181475237930699 10.606909368913685 3.5154175876543383 0 0 0
106 1 5.26437026132865 10.5431367011429 1.7231772658953428 0 0 0
168 1 8.781134465242985 12.32231388911971 0.015994246560875305 0 0 0
257 2 7.027383299949246 12.317073996777046 1.720235163318377 0 0 0
335 2 5.281497992177579 12.33234808326953 3.4748281987013048 0 0 0
438 3 8.79512021568475 10.512800133047557 1.710725714239189 0 0 0
439 3 7.0025008927792785 10.540046369090053 3.4837136241049786 0 0 0
441 3 8.790205127105159 12.331710914511552 3.4960716693993685 0 0 0
3 1 12.343230628656395 10.564426052364043 1.7737430827844325 0 0 0
8 1 10.557504978605795 12.340590107840839 1.7395539621602485 0 0 0
11 1 12.334007387737357 8.80869611780977 3.4783730532867314 0 0 0
262 2 12.315571411060192 12.336868342832984 3.490750105789934 0 0 0
417 3 12.341660727027296 8.809571015339552 0.008594843989462364 0 0 0
446 3 10.577708101525385 10.547707524716346 3.473657602230355 0 0 0
447 3 12.34483168054429 12.302943980087095 0.004101128415437753 0 0 0
449 3 10.561581614324265 10.54589357362341 -0.011786469758711187 0 0 0
250 2 17.58301077871776 12.329295979357397 1.7355885917809786 -1 0 0
496 3 17.58336090846591 8.828812711921424 1.7159105788497448 -1 0 0
38 1 15.813345994113522 12.331890206186875 3.4936232247083767 0 0 0
40 1 14.073124283953895 10.587510827897288 3.515882865228481 0 0 0
42 1 15.831302477293521 10.59676086003947 1.7365131312651394 0 0 0
44 1 14.087532935835338 12.316180509423118 1.7649083051000465 0 0 0
295 2 15.838269725269587 8.834898727575322 3.5221063394323067 0 0 0
305 2 15.845521043851903 12.31621731468698 -0.0124716083764592 0 0 0
388 3 14.118851469055663 8.81780300972521 1.7600317507680172 0 0 0
145 1 1.7871940762702732 15.839173317062368 3.490887893385221 0 0 0
316 2 3.5568886447570316 17.573077574561392 3.507177478527642 0 -1 0
314 2 1.7538765438481043 17.587757157120304 1.7210736833249007 0 -1 0
215 1 3.5432212001491816 14.097954590492305 3.4845464990204 0 0 0
336 2 1.7796658083181787 14.06831950844851 1.743923585304554 0 0 0
350 3 3.522555360469351 15.848890329966386 1.721273498102385 0 0 0
463 3 0.042918510736441276 14.053515234016066 3.5414742623435407 0 0 0
161 1 8.787420471419539 14.076826501357209 1.7431893626075807 0 0 0
162 1 7.041602662862451 15.81512528474024 1.7557690305598546 0 0 0
214 1 5.315012587904646 15.838581616547899 3.4905432582464146 0 0 0
216 1 5.2925856573877095 14.076981626791778 1.7665809883788899 0 0 0
265 2 7.0232164185592225 14.075126052030651 0.0034356579384040888 0 0 0
281 2 7.039104693625577 14.083256973715892 3.5059315039516483 0 0 0
326 2 5.2858263343293475 15.842902860717702 -0.002553320386316567 0 0 0
279 2 8.783321214247271 15.83495317395589 3.481794037284707 0 0 0
238 2 10.565102456857408 17.5875315691181 3.4723397012532313 0 -1 0
54 1 10.53499276993658 14.083068124558705 0.03897558982621707 0 0 0
55 1 10.551900779372648 15.842016957837156 1.7499251397741789 0 0 0
56 1 12.301318639169162 14.085234245632822 1.765641155013194 0 0 0
57 1 10.54023545792568 14.089918520177854 3.4874191139244446 0 0 0
59 1 12.327098515499346 15.840020964967994 3.471527162746577 0 0 0
277 2 12.301790446474183 15.858749734278058 0.03514006992845832 0 0 0
448 3 8.811114156216922 15.8566426961585 -0.013051826355434174 0 0 0
361 3 14.08402144123758 17.588990638864832 3.5172409713052284 0 -1 0
70 1 15.827847971900026 17.579713975810865 1.741400266463174 0 -1 0
309 2 17.558456104545442 17.589383979062916 3.5018825140459646 -1 -1 0
473 3 17.58334349860906 15.813829833092543 1.7581791701052247 -1 0 0
49 1 14.065093654134937 14.082981932831895 3.5078750728383876 0 0 0
51 1 15.837149438953931 14.06065078608338 1.7448762286678672 0 0 0
58 1 14.076029482914018 15.826000573233928 1.7423702751649928 0 0 0
283 2 17.567392453097767 17.58632799471644 -0.01308679171970059 -1 -1 0
275 2 15.802936194782722 15.799548717544232 3.5150373419799257 0 0 0
477 3 14.095753026629383 14.07903878887757 -0.012761481946066798 0 0 0
104 1 3.568579990159483 10.549765295191936 7.0787093831529635 0 0 0
389 3 3.5468534730015104 8.81527774964424 5.3012806804616766 0 0 0
396 3 3.5578756867241252 12.352562658508443 5.26001356210507 0 0 0
451 3 1.8183605947546746 12.343560528261532 7.05000534145857 0 0 0
486 3 1.7969813470136704 10.587425198044222 5.278614782044238 0 0 0
101 1 5.2882503373330065 12.315070322833781 7.054012331109821 0 0 0
252 2 7.014637088632418 10.542573033917604 7.053472687071915 0 0 0
259 2 7.0485387939356094 12.317122857240308 5.28364256717481 0 0 0
357 3 5.287643279312664 10.573063976424041 5.277183312150864 0 0 0
440 3 8.791574814772016 10.53062284614751 5.292371904512611 0 0 0
102 1 5.277446662012689 10.568601173961682 8.790103850722813 0 0 0
156 1 7.021284470352939 12.279168373830995 8.790100532115616 0 0 0
263 2 8.790756655715752 10.538023276170096 8.762556114915347 0 0 0
166 1 8.80279180856308 12.27484167705866 7.02392704465326 0 0 0
47 1 10.546173787786286 12.332895148531712 5.262042674972787 0 0 0
258 2 10.558055633979912 10.564138680332741 7.045987725280922 0 0 0
264 2 12.31634473457987 10.565593983847391 5.244424959689339 0 0 0
436 3 12.2967567699799 12.334908816809047 6.984055137377675 0 0 0
50 1 10.551569948902204 12.312681565875694 8.775343553789842 0 0 0
424 3 12.341492288673981 10.541304850876676 8.79450836104896 0 0 0
118 1 17.584389955792485 8.821726326858915 5.295283457335803 -1 0 0
152 1 17.570935135202443 12.334548222323297 5.272870472519874 -1 0 0
493 3 17.58561838302325 10.55429344923745 7.025885545866458 -1 0 0
29 1 15.806630354945144 12.335952116982257 7.001030021549178 0 0 0
37 1 14.070736105777115 10.577022086934116 7.02802451708886 0 0 0
41 1 15.851181050471341 8.810574411775347 7.0285249261261225 0 0 0
289 2 14.076353009059012 12.323872530796914 5.240669553016857 0 0 0
291 2 15.82187457522885 10.591705443522981 5.269427822029377 0 0 0
382 3 14.07059818392674 8.822136052642852 5.284344837857493 0 0 0
299 2 14.055711482974994 12.352549748152372 8.774561138944643 0 0 0
466 3 15.789261404557799 10.561817583630551 8.75865485131595 0 0 0
467 3 1.7750063321206908 17.564854868625748 5.284620374674345 0 -1 0
136 1 1.8022280990321002 14.083192127965734 5.269127105503024 0 0 0
144 1 1.8106872753512495 15.813785091571338 7.047991747240497 0 0 0
213 1 3.5705073219672436 14.084248591554397 7.062577766430417 0 0 0
351 3 3.557341705772428 15.805148493748794 5.27793151035368 0 0 0
458 3 0.02049506364049315 14.092191954131952 7.041258067986062 0 0 0
212 1 3.549928391792962 15.822610815233784 8.798211708140263 0 0 0
456 3 0.018819952090891157 15.865336692417836 8.783192918518404 0 0 0
317 2 5.332605379395518 17.592196965834713 5.2594627026788565 0 -1 0
398 3 7.0609358842012035 14.041994952160485 7.022751319634205 0 0 0
354 3 5.3253359177183235 15.847809652943821 7.037293081581283 0 0 0
324 2 5.317906169374223 14.070826574301273 5.249941069547396 0 0 0
160 1 7.066883651942531 15.828293172613755 5.23164668856489 0 0 0
194 1 12.294755569341083 17.574037409243193 5.254098424020495 0 -1 0
428 3 10.535640819397702 15.828084788156536 5.215448261328658 0 0 0
401 3 8.805108103939967 15.887087147129378 7.029538849349561 0 0 0
384 3 12.25087394870324 15.804202085423007 6.987545389752173 0 0 0
273 2 12.295213775649565 14.081414149519238 5.215887949643469 0 0 0
46 1 10.525443699642302 14.042359471944383 7.024108938855696 0 0 0
159 1 8.80348610921794 14.065956586389623 5.27236471117015 0 0 0
61 1 12.28644149558013 14.064365842902843 8.799011743203518 0 0 0
356 3 14.040577079992255 17.57604900120851 7.0370528829744865 0 -1 0
73 1 15.835525345832833 17.575155216148662 5.264271425652592 0 -1 0
256 2 14.058494029478585 14.073159514886791 7.006547016288893 0 0 0
60 1 15.792574767538516 14.055336143262181 5.283776942254483 0 0 0
48 1 14.067268118037212 15.801096506535675 5.263716754492896 0 0 0
15 1 15.80703030679954 15.84966822479879 7.010105396927671 0 0 0
461 3 17.567063987462344 15.82648509165875 5.269041207247922 -1 0 0
239 2 15.805674930743546 14.081641879995146 8.765334365521566 0 0 0
99 1 3.562449745539416 12.310799528572588 12.318803748468605 0 0 0
100 1 3.5540546998453624 10.572068483059079 10.560816353161625 0 0 0
103 1 3.5747839341619296 12.322553223986821 8.81709085996789 0 0 0
328 2 0.029275007909202348 12.303468216085742 12.316249090791365 0 0 0
331 2 1.8199439471568302 12.336550804904643 10.568180223487465 0 0 0
464 3 1.7986634601641684 10.547110239757767 12.28645930665123 0 0 0
498 3 1.7947511488251044 10.553444958397359 8.827310186592662 0 0 0
499 3 0.020914348246108466 12.318605561140483 8.826063412566747 0 0 0
117 1 0.023514645702863587 8.806283029399033 8.830076255027526 0 0 0
97 1 5.281972318645663 12.328910422875463 10.576891636708027 0 0 0
98 1 5.276322756724501 10.560980101708177 12.339536861282118 0 0 0
165 1 7.034586078055159 12.281256031234522 12.318227720955552 0 0 0
266 2 8.773910182752074 10.52120876232585 12.3422263266574 0 0 0
442 3 7.033183204565597 10.528885714023279 10.546647854793784 0 0 0
443 3 8.794298663417582 12.295396697049162 10.562308163265717 0 0 0
253 2 10.529170717782067 12.293177303797853 12.333628918738823 0 0 0
432 3 12.290597703391292 12.345814007405137 10.568553096052614 0 0 0
433 3 12.287663134366802 10.521853757706984 12.34816837365323 0 0 0
435 3 10.543618926529467 10.545650873969723 10.532438320417329 0 0 0
150 1 17.579969021220954 10.555441405358032 10.591799119714489 -1 0 0
32 1 15.84495013961135 10.56274933492347 12.353168385471944 0 0 0
334 2 14.073665762691714 10.529266401784755 10.577831683650205 0 0 0
453 3 14.058976135285702 12.287244312968067 12.320329223066368 0 0 0
484 3 15.821835498631588 12.322298195470648 10.555492141826198 0 0 0
142 1 1.8205084094818629 15.835729775348678 10.539357357038028 0 0 0
143 1 1.824252178519195 14.060323048271222 12.297774191186292 0 0 0
210 1 3.549873951387113 14.078699263027902 10.549937129524952 0 0 0
296 2 1.8312053272150997 14.094195872991941 8.808243140401 0 0 0
355 3 3.5446984940410267 15.831035733652486 12.331544872687562 0 0 0
452 3 0.05086583321886017 14.103811997458529 10.573228422123696 0 0 0
492 3 0.09015338937387544 15.85787619539325 12.338048256810286 0 0 0
158 1 7.014387153551793 15.841052448139372 12.331195564225933 0 0 0
211 1 5.291797373325801 14.060036742651425 8.819235593668305 0 0 0
272 2 7.016074106585531 14.064164039004591 10.579740642053437 0 0 0
320 2 5.278960268317914 15.835912537664182 10.56965399805855 0 0 0
321 2 5.28282430061491 14.053884536123325 12.330120864490313 0 0 0
399 3 7.078231601433167 15.83268650419715 8.841990235170528 0 0 0
402 3 8.785322031310557 14.06790180606363 12.30296070988052 0 0 0
400 3 8.805128596004991 14.030731001339783 8.818062594919517 0 0 0
64 1 10.579726014091108 14.091393708885091 10.570433346419676 0 0 0
65 1 12.284419309821184 15.836941151028684 10.587298543302781 0 0 0
157 1 8.802613187078993 15.852240734494497 10.601921832859512 0 0 0
245 2 10.551970481482105 15.87193447174971 12.314210362576311 0 0 0
251 2 12.28537482017058 14.093600842053352 12.3256412928817 0 0 0
427 3 10.523646495728078 15.820277601645838 8.838497502832436 0 0 0
19 1 15.809233024288396 17.584214806960553 8.80242303166966 0 -1 0
243 2 14.03258419739829 14.07986325894805 10.565449376196996 0 0 0
450 3 14.027828546198128 15.838618556187267 12.339126065692678 0 0 0
457 3 15.825864470605774 14.071201094719644 12.342240678427734 0 0 0
459 3 14.035703631987529 15.792198794513334 8.81670122184865 0 0 0
485 3 15.822798798992286 15.851025833707347 10.558913307144648 0 0 0
96 1 3.539543529865988 10.529899098079488 14.09774746066314 0 0 0
146 1 3.531071705294766 12.310037026617858 15.829797135549319 0 0 0
149 1 1.8020817540758367 10.536003178647908 15.861028848538583 0 0 0
319 2 0.020444313825726517 10.553812827475967 14.068424759160695 0 0 0
475 3 1.8180457002601638 12.303098352033075 14.069087524995256 0 0 0
478 3 0.040837477010687136 12.316355119035792 15.844013146530346 0 0 0
108 1 3.5079000804305154 10.5366937609234 17.589521177822217 0 0 -1
119 1 1.745321413142173 8.835727024972181 17.594271325086275 0 0 -1
163 1 8.799213115013545 12.253940734768193 14.07093033805743 0 0 0
217 1 5.252929814252966 10.525064452363171 15.851578479854396 0 0 0
329 2 5.262369714685552 12.295471177726695 14.086768454450365 0 0 0
444 3 7.018086886037398 10.524104752369146 14.101875289944235 0 0 0
445 3 7.037111140524875 12.297697876805605 15.874688835331193 0 0 0
164 1 8.774268167695439 10.526808819314134 15.85671832336024 0 0 0
77 1 5.30465990858487 8.829234979388024 17.596760396179196 0 0 -1
169 1 7.046912361554476 10.53527761734992 17.606966890173076 0 0 -1
395 3 5.264996497232528 12.28951474156664 17.612270933549226 0 0 -1
52 1 10.518300524699956 10.531828612506889 14.100317381338904 0 0 0
53 1 12.34827007420498 10.560064607289886 15.830350931878971 0 0 0
430 3 12.2925834339314 12.290090189554448 14.124077266995089 0 0 0
431 3 10.509006064715487 12.27946444440399 15.8705188809086 0 0 0
318 2 15.82941049372235 8.805308397013118 14.046759249051956 0 0 0
454 3 17.578909106438545 8.835324923485786 15.80481468977762 -1 0 0
62 1 15.841138071912662 12.273351295074654 14.108338442480363 0 0 0
63 1 15.824092427177813 10.589770583082387 15.844958488811333 0 0 0
66 1 14.104086979830532 12.291582375668899 15.83818837784695 0 0 0
72 1 14.10488898608546 10.547028191902374 14.074963441520529 0 0 0
373 3 14.100114307615007 8.809479902655484 15.826220107547009 0 0 0
154 1 17.574381566372807 10.564668526173506 17.599703257280012 -1 0 -1
4 1 14.112930557942791 10.57793100324326 17.602514410186327 0 0 -1
292 2 15.843550028891414 8.82450095941112 17.61111327644173 0 0 -1
140 1 1.790273810504715 14.098076767495757 15.86784056516742 0 0 0
141 1 0.026082707148931683 15.837103512656856 15.871292271421881 0 0 0
209 1 3.557434583836923 14.061590648838223 14.10504999709992 0 0 0
327 2 3.5471297562799644 15.84466338459571 15.865255264358133 0 0 0
490 3 1.802525064640128 15.820132710875633 14.135731768020479 0 0 0
500 3 0.0190409667751172 14.06729175928315 14.067847554457758 0 0 0
147 1 1.7559595567610047 15.857770134137256 17.59830027584158 0 0 -1
148 1 0.018654162566750378 14.107575107857857 17.60034789074001 0 0 -1
349 3 3.53109029826805 14.08070317261686 17.609912887324835 0 0 -1
407 3 8.778431486363514 15.893577142740446 14.105934761110806 0 0 0
197 1 5.253687720587562 14.091914437603416 15.830148909730065 0 0 0
207 1 5.292125558546469 15.846405438370274 14.090117036742084 0 0 0
404 3 7.035571333982022 14.03870493399927 14.079004734002647 0 0 0
405 3 7.0132188340074695 15.844124002745646 15.858531110310013 0 0 0
406 3 8.81417751467705 14.054149410508044 15.873228318890733 0 0 0
366 3 10.545112948015037 14.102804848347619 14.054453998927439 0 0 0
365 3 10.582997148536997 15.90115108976857 15.866180068172717 0 0 0
364 3 12.278615473069927 14.089554023859577 15.893297810960243 0 0 0
67 1 12.293641344468185 15.884694393501084 14.092323160625922 0 0 0
24 1 15.82030497243955 17.59271177611376 15.888711231712392 0 -1 0
300 2 15.847645399595171 14.069110700507274 15.866389382144236 0 0 0
495 3 14.057834322160776 14.058066748395369 14.10140394464792 0 0 0
472 3 14.023397103371929 15.881048916252611 15.859314901207066 0 0 0
437 3 15.833298917079539 15.869575738810628 14.150317391090002 0 0 0
261 2 15.839511407821503 15.850062861350978 17.61689085177929 0 0 -1

Velocities

87 0 0 0
115 0 0 0
313 0 0 0
378 0 0 0
469 0 0 0
474 0 0 0
479 0 0 0
137 0 0 0
139 0 0 0
206 0 0 0
234 0 0 0
308 0 0 0
338 0 0 0
343 0 0 0
368 0 0 0
249 0 0 0
359 0 0 0
167 0 0 0
177 0 0 0
185 0 0 0
193 0 0 0
195 0 0 0
196 0 0 0
203 0 0 0
205 0 0 0
248 0 0 0
418 0 0 0
135 0 0 0
68 0 0 0
69 0 0 0
71 0 0 0
303 0 0 0
346 0 0 0
347 0 0 0
86 0 0 0
125 0 0 0
127 0 0 0
128 0 0 0
255 0 0 0
298 0 0 0
488 0 0 0
494 0 0 0
460 0 0 0
220 0 0 0
233 0 0 0
297 0 0 0
304 0 0 0
377 0 0 0
222 0 0 0
367 0 0 0
425 0 0 0
75 0 0 0
176 0 0 0
223 0 0 0
16 0 0 0
182 0 0 0
14 0 0 0
186 0 0 0
286 0 0 0
416 0 0 0
26 0 0 0
27 0 0 0
39 0 0 0
344 0 0 0
383 0 0 0
390 0 0 0
83 0 0 0
105 0 0 0
133 0 0 0
269 0 0 0
337 0 0 0
455 0 0 0
482 0 0 0
476 0 0 0
84 0 0 0
93 0 0 0
202 0 0 0
278 0 0 0
360 0 0 0
204 0 0 0
231 0 0 0
372 0 0 0
181 0 0 0
200 0 0 0
232 0 0 0
322 0 0 0
325 0 0 0
408 0 0 0
419 0 0 0
134 0 0 0
30 0 0 0
345 0 0 0
353 0 0 0
358 0 0 0
270 0 0 0
74 0 0 0
85 0 0 0
123 0 0 0
280 0 0 0
462 0 0 0
470 0 0 0
284 0 0 0
219 0 0 0
230 0 0 0
113 0 0 0
187 0 0 0
369 0 0 0
288 0 0 0
76 0 0 0
175 0 0 0
282 0 0 0
392 0 0 0
415 0 0 0
410 0 0 0
420 0 0 0
413 0 0 0
183 0 0 0
12 0 0 0
376 0 0 0
381 0 0 0
379 0 0 0
339 0 0 0
28 0 0 0
306 0 0 0
81 0 0 0
91 0 0 0
92 0 0 0
94 0 0 0
122 0 0 0
131 0 0 0
132 0 0 0
267 0 0 0
268 0 0 0
330 0 0 0
497 0 0 0
80 0 0 0
90 0 0 0
199 0 0 0
201 0 0 0
227 0 0 0
229 0 0 0
315 0 0 0
362 0 0 0
363 0 0 0
82 0 0 0
198 0 0 0
247 0 0 0
179 0 0 0
190 0 0 0
191 0 0 0
192 0 0 0
332 0 0 0
397 0 0 0
412 0 0 0
421 0 0 0
423 0 0 0
471 0 0 0
17 0 0 0
18 0 0 0
20 0 0 0
21 0 0 0
33 0 0 0
35 0 0 0
323 0 0 0
352 0 0 0
111 0 0 0
112 0 0 0
114 0 0 0
116 0 0 0
121 0 0 0
124 0 0 0
126 0 0 0
241 0 0 0
244 0 0 0
271 0 0 0
290 0 0 0
380 0 0 0
481 0 0 0
2 0 0 0
173 0 0 0
174 0 0 0
218 0 0 0
226 0 0 0
285 0 0 0
342 0 0 0
370 0 0 0
394 0 0 0
426 0 0 0
434 0 0 0
5 0 0 0
6 0 0 0
9 0 0 0
10 0 0 0
178 0 0 0
180 0 0 0
228 0 0 0
246 0 0 0
409 0 0 0
31 0 0 0
34 0 0 0
43 0 0 0
311 0 0 0
312 0 0 0
374 0 0 0
393 0 0 0
79 0 0 0
89 0 0 0
129 0 0 0
130 0 0 0
240 0 0 0
260 0 0 0
375 0 0 0
487 0 0 0
307 0 0 0
88 0 0 0
208 0 0 0
235 0 0 0
237 0 0 0
310 0 0 0
385 0 0 0
429 0 0 0
225 0 0 0
236 0 0 0
138 0 0 0
1 0 0 0
188 0 0 0
189 0 0 0
287 0 0 0
333 0 0 0
414 0 0 0
491 0 0 0
22 0 0 0
23 0 0 0
36 0 0 0
302 0 0 0
348 0 0 0
468 0 0 0
25 0 0 0
110 0 0 0
155 0 0 0
242 0 0 0
293 0 0 0
341 0 0 0
465 0 0 0
489 0 0 0
386 0 0 0
172 0 0 0
171 0 0 0
78 0 0 0
109 0 0 0
170 0 0 0
254 0 0 0
274 0 0 0
276 0 0 0
340 0 0 0
224 0 0 0
221 0 0 0
403 0 0 0
422 0 0 0
411 0 0 0
294 0 0 0
7 0 0 0
13 0 0 0
184 0 0 0
45 0 0 0
391 0 0 0
371 0 0 0
301 0 0 0
120 0 0 0
95 0 0 0
107 0 0 0
151 0 0 0
153 0 0 0
387 0 0 0
480 0 0 0
483 0 0 0
106 0 0 0
168 0 0 0
257 0 0 0
335 0 0 0
438 0 0 0
439 0 0 0
441 0 0 0
3 0 0 0
8 0 0 0
11 0 0 0
262 0 0 0
417 0 0 0
446 0 0 0
447 0 0 0
449 0 0 0
250 0 0 0
496 0 0 0
38 0 0 0
40 0 0 0
42 0 0 0
44 0 0 0
295 0 0 0
305 0 0 0
388 0 0 0
145 0 0 0
316 0 0 0
314 0 0 0
215 0 0 0
336 0 0 0
350 0 0 0
463 0 0 0
161 0 0 0
162 0 0 0
214 0 0 0
216 0 0 0
265 0 0 0
281 0 0 0
326 0 0 0
279 0 0 0
238 0 0 0
54 0 0 0
55 0 0 0
56 0 0 0
57 0 0 0
59 0 0 0
277 0 0 0
448 0 0 0
361 0 0 0
70 0 0 0
309 0 0 0
473 0 0 0
49 0 0 0
51 0 0 0
58 0 0 0
283 0 0 0
275 0 0 0
477 0 0 0
104 0 0 0
389 0 0 0
396 0 0 0
451 0 0 0
486 0 0 0
101 0 0 0
252 0 0 0
259 0 0 0
357 0 0 0
440 0 0 0
102 0 0 0
156 0 0 0
263 0 0 0
166 0 0 0
47 0 0 0
258 0 0 0
264 0 0 0
436 0 0 0
50 0 0 0
424 0 0 0
118 0 0 0
152 0 0 0
493 0 0 0
29 0 0 0
37 0 0 0
41 0 0 0
289 0 0 0
291 0 0 0
382 0 0 0
299 0 0 0
466 0 0 0
467 0 0 0
136 0 0 0
144 0 0 0
213 0 0 0
351 0 0 0
458 0 0 0
212 0 0 0
456 0 0 0
317 0 0 0
398 0 0 0
354 0 0 0
324 0 0 0
160 0 0 0
194 0 0 0
428 0 0 0
401 0 0 0
384 0 0 0
273 0 0 0
46 0 0 0
159 0 0 0
61 0 0 0
356 0 0 0
73 0 0 0
256 0 0 0
60 0 0 0
48 0 0 0
15 0 0 0
461 0 0 0
239 0 0 0
99 0 0 0
100 0 0 0
103 0 0 0
328 0 0 0
331 0 0 0
464 0 0 0
498 0 0 0
499 0 0 0
117 0 0 0
97 0 0 0
98 0 0 0
165 0 0 0
266 0 0 0
442 0 0 0
443 0 0 0
253 0 0 0
432 0 0 0
433 0 0 0
435 0 0 0
150 0 0 0
32 0 0 0
334 0 0 0
453 0 0 0
484 0 0 0
142 0 0 0
143 0 0 0
210 0 0 0
296 0 0 0
355 0 0 0
452 0 0 0
492 0 0 0
158 0 0 0
211 0 0 0
272 0 0 0
320 0 0 0
321 0 0 0
399 0 0 0
402 0 0 0
400 0 0 0
64 0 0 0
65 0 0 0
157 0 0 0
245 0 0 0
251 0 0 0
427 0 0 0
19 0 0 0
243 0 0 0
450 0 0 0
457 0 0 0
459 0 0 0
485 0 0 0
96 0 0 0
146 0 0 0
149 0 0 0
319 0 0 0
475 0 0 0
478 0 0 0
108 0 0 0
119 0 0 0
163 0 0 0
217 0 0 0
329 0 0 0
444 0 0 0
445 0 0 0
164 0 0 0
77 0 0 0
169 0 0 0
395 0 0 0
52 0 0 0
53 0 0 0
430 0 0 0
431 0 0 0
318 0 0 0
454 0 0 0
62 0 0 0
63 0 0 0
66 0 0 0
72 0 0 0
373 0 0 0
154 0 0 0
4 0 0 0
292 0 0 0
140 0 0 0
141 0 0 0
209 0 0 0
327 0 0 0
490 0 0 0
500 0 0 0
147 0 0 0
148 0 0 0
349 0 0 0
407 0 0 0
197 0 0 0
207 0 0 0
404 0 0 0
405 0 0 0
406 0 0 0
366 0 0 0
365 0 0 0
364 0 0 0
67 0 0 0
24 0 0 0
300 0 0 0
495 0 0 0
472 0 0 0
437 0 0 0
261 0 0 0
