#Generated by cif2cell 2.1.0.  :  Failed to get author information, No journal information.

500 atoms
3 atom types

0.0 17.245000 xlo xhi
0.0 17.245000 ylo yhi
0.0 17.245000 zlo zhi
1.0559517025648053e-15 1.0559517025648053e-15 1.0559517025648053e-15 xy xz yz

Atoms

1 1  13.796000000000001   3.449000000000001  10.347000000000000 
2 1  13.796000000000001   5.173500000000001  12.071500000000000 
3 1   1.724500000000001  12.071500000000000  10.347000000000000 
4 1   8.622500000000000  12.071500000000000   6.898000000000001 
5 1   1.724500000000001   8.622500000000000  10.347000000000000 
6 1   6.898000000000001   1.724500000000001   8.622500000000000 
7 1   8.622500000000000   1.724500000000001   6.898000000000001 
8 1  13.796000000000001   6.898000000000001   0.000000000000000 
9 1  13.796000000000001   8.622500000000000   1.724500000000000 
10 1   8.622500000000000  10.347000000000000   5.173500000000000 
11 1  15.520500000000002   8.622500000000000   0.000000000000000 
12 1  13.796000000000001   6.898000000000001   3.449000000000000 
13 1   6.898000000000001  12.071500000000000   5.173500000000000 
14 1  15.520500000000002   6.898000000000001   5.173500000000000 
15 1   0.000000000000001   6.898000000000001  13.796000000000001 
16 1  15.520500000000002   0.000000000000001   8.622500000000000 
17 1   8.622500000000000  10.347000000000000  12.071500000000000 
18 1   0.000000000000000   1.724500000000000   1.724500000000000 
19 1  15.520500000000002   1.724500000000001   6.898000000000001 
20 1   6.898000000000001   1.724500000000000   1.724500000000000 
21 1  13.796000000000001   1.724500000000001  12.071500000000000 
22 1   6.898000000000002  12.071500000000002  15.520500000000002 
23 1   8.622500000000000   0.000000000000000   1.724500000000000 
24 1  13.796000000000001   0.000000000000001  13.796000000000001 
25 1   1.724500000000001  15.520500000000002   6.898000000000001 
26 1   8.622500000000000   1.724500000000000   0.000000000000000 
27 1  15.520500000000002   1.724500000000001  13.796000000000001 
28 1   0.000000000000001  10.347000000000000  13.796000000000001 
29 1   1.724500000000001  15.520500000000002   3.449000000000000 
30 1   1.724500000000001  13.796000000000001   5.173500000000000 
31 1   6.898000000000001   0.000000000000000   3.449000000000000 
32 1   6.898000000000002  10.347000000000000  10.347000000000000 
33 1  13.796000000000001   5.173500000000000   5.173500000000000 
34 1  15.520500000000002   3.449000000000001   5.173500000000000 
35 1   0.000000000000001  15.520500000000002   1.724500000000000 
36 1   0.000000000000001  13.796000000000001   0.000000000000000 
37 1   1.724500000000002  10.347000000000001  15.520500000000002 
38 1  15.520500000000002   3.449000000000001   8.622500000000000 
39 1   8.622500000000000   8.622500000000000   0.000000000000000 
40 1   0.000000000000001   3.449000000000001   6.898000000000001 
41 1  15.520500000000002  12.071500000000000  10.347000000000000 
42 1   8.622500000000000   5.173500000000000   0.000000000000000 
43 1  13.796000000000003  12.071500000000002  15.520500000000002 
44 1   0.000000000000000   0.000000000000000   0.000000000000000 
45 1   6.898000000000002   8.622500000000000   8.622500000000000 
46 1   6.898000000000001   3.449000000000000   3.449000000000000 
47 1   8.622500000000000   3.449000000000001   5.173500000000000 
48 1   0.000000000000000   3.449000000000000   0.000000000000000 
49 1   8.622500000000000   5.173500000000000   6.898000000000001 
50 1  15.520500000000002  13.796000000000001   5.173500000000000 
51 1   1.724500000000001   3.449000000000001   8.622500000000000 
52 1   8.622500000000000   6.898000000000001   1.724500000000000 
53 1  13.796000000000003  15.520500000000002   8.622500000000000 
54 1  15.520500000000002  13.796000000000001   8.622500000000000 
55 1   0.000000000000001   0.000000000000001  10.347000000000000 
56 1  13.796000000000001  13.796000000000001  10.347000000000000 
57 1   1.724500000000000   0.000000000000000   5.173500000000000 
58 1   0.000000000000000   1.724500000000000   5.173500000000000 
59 1   8.622500000000000   5.173500000000001  13.796000000000001 
60 1  13.796000000000005  15.520500000000004  15.520500000000002 
61 1   1.724500000000000   1.724500000000000   0.000000000000000 
62 1   8.622500000000002   6.898000000000001  15.520500000000002 
63 1   6.898000000000001   0.000000000000001  10.347000000000000 
64 1   0.000000000000001   6.898000000000001  10.347000000000000 
65 1   6.898000000000001   0.000000000000001  13.796000000000001 
66 1   0.000000000000001   8.622500000000000   8.622500000000000 
67 1   6.898000000000001  10.347000000000000   0.000000000000000 
68 1   1.724500000000001   6.898000000000001   5.173500000000000 
69 1   0.000000000000001   8.622500000000000   5.173500000000000 
70 1   8.622500000000000   8.622500000000000  13.796000000000001 
71 1   1.724500000000001   8.622500000000000   0.000000000000000 
72 1  13.796000000000001  10.347000000000000   0.000000000000000 
73 1   6.898000000000001  10.347000000000000   3.449000000000000 
74 1   6.898000000000002   8.622500000000002  15.520500000000002 
75 1   0.000000000000000   6.898000000000001   0.000000000000000 
76 1   1.724500000000001   5.173500000000001  13.796000000000001 
77 1   6.898000000000001   6.898000000000001  13.796000000000001 
78 1  15.520500000000002  10.347000000000000   5.173500000000000 
79 1  15.520500000000002  12.071500000000000   3.449000000000000 
80 1   6.898000000000001   3.449000000000000   0.000000000000000 
81 1   0.000000000000001   5.173500000000001  12.071500000000000 
82 1   6.898000000000002   8.622500000000000  12.071500000000000 
83 1   6.898000000000001   6.898000000000001  10.347000000000000 
84 1  10.347000000000000   6.898000000000001   6.898000000000001 
85 1   3.449000000000001   8.622500000000000   8.622500000000000 
86 1   6.898000000000002  13.796000000000001  13.796000000000001 
87 1  10.347000000000001   5.173500000000001  15.520500000000002 
88 1  12.071500000000002   3.449000000000001  15.520500000000002 
89 1  10.347000000000000   8.622500000000000   1.724500000000000 
90 1   3.449000000000002  13.796000000000001   6.898000000000001 
91 1  12.071500000000000   8.622500000000000   0.000000000000000 
92 1   3.449000000000001   6.898000000000001   3.449000000000000 
93 1   5.173500000000001   8.622500000000000   0.000000000000000 
94 1  12.071500000000000   6.898000000000001   5.173500000000000 
95 1  12.071500000000000   8.622500000000000   3.449000000000000 
96 1  12.071500000000000   3.449000000000001  12.071500000000000 
97 1   5.173500000000000   6.898000000000001   1.724500000000000 
98 1  12.071500000000000   6.898000000000001   8.622500000000000 
99 1   6.898000000000002  13.796000000000001  10.347000000000000 
100 1   3.449000000000001   6.898000000000001   0.000000000000000 
101 1   8.622500000000002  15.520500000000002   6.898000000000001 
102 1   5.173500000000001   3.449000000000001  15.520500000000002 
103 1   3.449000000000002   5.173500000000001  15.520500000000002 
104 1  10.347000000000000   6.898000000000001  13.796000000000001 
105 1  10.347000000000001   8.622500000000002  15.520500000000002 
106 1  12.071500000000002   6.898000000000001  15.520500000000002 
107 1  10.347000000000000   5.173500000000000   1.724500000000000 
108 1  10.347000000000000   1.724500000000001   8.622500000000000 
109 1  12.071500000000000   0.000000000000001   8.622500000000000 
110 1  12.071500000000000   1.724500000000001   6.898000000000001 
111 1  10.347000000000000   1.724500000000000   5.173500000000000 
112 1   3.449000000000001  10.347000000000000   6.898000000000001 
113 1  12.071500000000000   1.724500000000001  10.347000000000000 
114 1   5.173500000000001  12.071500000000000   3.449000000000000 
115 1  10.347000000000000   0.000000000000000   3.449000000000000 
116 1   5.173500000000001  12.071500000000000   0.000000000000000 
117 1  12.071500000000000   1.724500000000000   0.000000000000000 
118 1   3.449000000000002  12.071500000000002  15.520500000000002 
119 1   3.449000000000001   3.449000000000001  13.796000000000001 
120 1  12.071500000000000   5.173500000000000   0.000000000000000 
121 1  10.347000000000000   3.449000000000000   3.449000000000000 
122 1  10.347000000000000   5.173500000000000   5.173500000000000 
123 1  10.347000000000000   0.000000000000000   0.000000000000000 
124 1   8.622500000000002  15.520500000000002  13.796000000000001 
125 1  10.347000000000000   5.173500000000001   8.622500000000000 
126 1   6.898000000000002  15.520500000000004  15.520500000000002 
127 1   3.449000000000001   6.898000000000001  10.347000000000000 
128 1  10.347000000000000   3.449000000000001  10.347000000000000 
129 1  10.347000000000000   5.173500000000001  12.071500000000000 
130 1   5.173500000000000   0.000000000000000   5.173500000000000 
131 1  10.347000000000000  13.796000000000001   3.449000000000000 
132 1  10.347000000000001  15.520500000000002   5.173500000000000 
133 1  12.071500000000000  13.796000000000001   5.173500000000000 
134 1   3.449000000000001   0.000000000000001  10.347000000000000 
135 1  10.347000000000000  13.796000000000001   6.898000000000001 
136 1  12.071500000000000  13.796000000000001   8.622500000000000 
137 1  12.071500000000002  15.520500000000002   6.898000000000001 
138 1  10.347000000000000  13.796000000000001  10.347000000000000 
139 1  10.347000000000001  15.520500000000002  12.071500000000000 
140 1   8.622500000000000  13.796000000000001   1.724500000000000 
141 1   5.173500000000000   1.724500000000000   3.449000000000000 
142 1   6.898000000000001  13.796000000000001   3.449000000000000 
143 1  10.347000000000003  15.520500000000004  15.520500000000002 
144 1   3.449000000000001   1.724500000000000   5.173500000000000 
145 1   5.173500000000002  13.796000000000003  15.520500000000002 
146 1  13.796000000000001   0.000000000000000   0.000000000000000 
147 1   5.173500000000000   0.000000000000000   1.724500000000000 
148 1   3.449000000000000   1.724500000000000   1.724500000000000 
149 1  13.796000000000001   1.724500000000000   5.173500000000000 
150 1  15.520500000000002   0.000000000000000   5.173500000000000 
151 1   1.724500000000002  13.796000000000003  15.520500000000002 
152 1   0.000000000000002  15.520500000000004  15.520500000000002 
153 1   3.449000000000001   5.173500000000000   5.173500000000000 
154 1   8.622500000000000  13.796000000000001   8.622500000000000 
155 1  10.347000000000000  12.071500000000000   1.724500000000000 
156 1  12.071500000000000  10.347000000000000   1.724500000000000 
157 1  12.071500000000000  12.071500000000000   0.000000000000000 
158 1   5.173500000000001   3.449000000000001  12.071500000000000 
159 1  10.347000000000000  12.071500000000000   5.173500000000000 
160 1   3.449000000000002  15.520500000000002   8.622500000000000 
161 1   5.173500000000001  15.520500000000002   6.898000000000001 
162 1  12.071500000000000  10.347000000000000   8.622500000000000 
163 1   5.173500000000000   5.173500000000000   3.449000000000000 
164 1   1.724500000000002  15.520500000000002  10.347000000000000 
165 1   5.173500000000000   5.173500000000000   0.000000000000000 
166 1   3.449000000000000   3.449000000000000   0.000000000000000 
167 1  12.071500000000000  12.071500000000000  10.347000000000000 
168 1  10.347000000000000  10.347000000000000  13.796000000000001 
169 1   5.173500000000001   1.724500000000001  13.796000000000001 
170 1   6.898000000000001  15.520500000000002   5.173500000000000 
171 1   3.449000000000001   1.724500000000001  15.520500000000002 
172 1  10.347000000000000  13.796000000000001   0.000000000000000 
173 1   3.449000000000001   0.000000000000001  13.796000000000001 
174 1  12.071500000000000  13.796000000000001   1.724500000000000 
175 2  15.520500000000002  13.796000000000001  12.071500000000000 
176 2   8.622500000000000   6.898000000000001   8.622500000000000 
177 2  13.796000000000001  12.071500000000000  12.071500000000000 
178 2   6.898000000000001   8.622500000000000   1.724500000000000 
179 2  13.796000000000001  10.347000000000000   3.449000000000000 
180 2  13.796000000000001  10.347000000000000  10.347000000000000 
181 2  15.520500000000002  12.071500000000000   6.898000000000001 
182 2  13.796000000000001  13.796000000000001  13.796000000000001 
183 2   8.622500000000000  13.796000000000001   5.173500000000000 
184 2  15.520500000000004  13.796000000000003  15.520500000000002 
185 2   8.622500000000002  15.520500000000002  10.347000000000000 
186 2  13.796000000000001  10.347000000000000   6.898000000000001 
187 2   6.898000000000002  15.520500000000002  12.071500000000000 
188 2   8.622500000000000  13.796000000000001  12.071500000000000 
189 2   6.898000000000002  12.071500000000000   8.622500000000000 
190 2  13.796000000000003  15.520500000000002   5.173500000000000 
191 2  13.796000000000001  13.796000000000001   6.898000000000001 
192 2   8.622500000000000  10.347000000000000   1.724500000000000 
193 2  15.520500000000004  15.520500000000002   0.000000000000000 
194 2  10.347000000000001   1.724500000000001  15.520500000000002 
195 2   8.622500000000000  12.071500000000000   0.000000000000000 
196 2   6.898000000000001   6.898000000000001   6.898000000000001 
197 2   8.622500000000000  12.071500000000000   3.449000000000000 
198 2  13.796000000000003  15.520500000000002   1.724500000000000 
199 2   6.898000000000001  15.520500000000002   1.724500000000000 
200 2   8.622500000000000  10.347000000000000   8.622500000000000 
201 2  15.520500000000002  12.071500000000000  13.796000000000001 
202 2   6.898000000000002  12.071500000000000  12.071500000000000 
203 2   8.622500000000000   8.622500000000000   3.449000000000000 
204 2  15.520500000000004  10.347000000000001  15.520500000000002 
205 2   6.898000000000002  10.347000000000000  13.796000000000001 
206 2   8.622500000000000  12.071500000000000  13.796000000000001 
207 2   6.898000000000001   6.898000000000001   3.449000000000000 
208 2  13.796000000000001   3.449000000000001   6.898000000000001 
209 2  12.071500000000000   8.622500000000000   6.898000000000001 
210 2  10.347000000000000   8.622500000000000  12.071500000000000 
211 2  12.071500000000000   6.898000000000001  12.071500000000000 
212 2  15.520500000000002   5.173500000000001  13.796000000000001 
213 2  10.347000000000000  10.347000000000000   0.000000000000000 
214 2  12.071500000000000  10.347000000000000   5.173500000000000 
215 2  13.796000000000003   5.173500000000001  15.520500000000002 
216 2  12.071500000000000  12.071500000000000   6.898000000000001 
217 2  13.796000000000001   3.449000000000001  13.796000000000001 
218 2  10.347000000000000  12.071500000000000  12.071500000000000 
219 2  15.520500000000002   3.449000000000001  12.071500000000000 
220 2  10.347000000000001  12.071500000000002  15.520500000000002 
221 2  12.071500000000000  12.071500000000000  13.796000000000001 
222 2  12.071500000000002  15.520500000000002   0.000000000000000 
223 2  10.347000000000000   8.622500000000000   8.622500000000000 
224 2  15.520500000000002   5.173500000000000   3.449000000000000 
225 2  12.071500000000000  13.796000000000001  12.071500000000000 
226 2  15.520500000000002   5.173500000000000   0.000000000000000 
227 2  12.071500000000002  13.796000000000003  15.520500000000002 
228 2  12.071500000000002  15.520500000000002  13.796000000000001 
229 2  13.796000000000001   1.724500000000000   1.724500000000000 
230 2  15.520500000000002   0.000000000000000   1.724500000000000 
231 2  15.520500000000002   3.449000000000000   1.724500000000000 
232 2  13.796000000000001   5.173500000000000   1.724500000000000 
233 2  15.520500000000004   0.000000000000001  15.520500000000002 
234 2  13.796000000000001   0.000000000000000   6.898000000000001 
235 2  13.796000000000001   1.724500000000001   8.622500000000000 
236 2  15.520500000000002   0.000000000000001  12.071500000000000 
237 2  13.796000000000001   6.898000000000001  10.347000000000000 
238 2   8.622500000000002  13.796000000000003  15.520500000000002 
239 2  10.347000000000000   1.724500000000000   1.724500000000000 
240 2  13.796000000000001  12.071500000000000   1.724500000000000 
241 2  15.520500000000002   8.622500000000000  13.796000000000001 
242 2  15.520500000000004   6.898000000000001  15.520500000000002 
243 2  13.796000000000003   8.622500000000002  15.520500000000002 
244 2  13.796000000000001   6.898000000000001  13.796000000000001 
245 2  10.347000000000000   0.000000000000000   6.898000000000001 
246 2  10.347000000000000   0.000000000000001  10.347000000000000 
247 2  15.520500000000002   8.622500000000000  10.347000000000000 
248 2  15.520500000000002   6.898000000000001  12.071500000000000 
249 2  10.347000000000000   1.724500000000001  12.071500000000000 
250 2  12.071500000000000   0.000000000000001  12.071500000000000 
251 2  10.347000000000000   0.000000000000001  13.796000000000001 
252 2  15.520500000000002  10.347000000000000   1.724500000000000 
253 2  15.520500000000002   8.622500000000000   6.898000000000001 
254 2  15.520500000000002   6.898000000000001   8.622500000000000 
255 2  10.347000000000000   3.449000000000000   0.000000000000000 
256 2  12.071500000000000   3.449000000000001   5.173500000000000 
257 2  12.071500000000000   5.173500000000000   3.449000000000000 
258 2  10.347000000000000   3.449000000000001   6.898000000000001 
259 2  12.071500000000000   5.173500000000000   6.898000000000001 
260 2  10.347000000000000   3.449000000000001  13.796000000000001 
261 2  12.071500000000000   5.173500000000001  13.796000000000001 
262 2  10.347000000000000   6.898000000000001   0.000000000000000 
263 2  12.071500000000000   6.898000000000001   1.724500000000000 
264 2  10.347000000000000   6.898000000000001   3.449000000000000 
265 2  10.347000000000000   8.622500000000000   5.173500000000000 
266 2   3.449000000000001   0.000000000000000   6.898000000000001 
267 2   5.173500000000001   5.173500000000001  10.347000000000000 
268 2   3.449000000000002   5.173500000000001  12.071500000000000 
269 2   3.449000000000001   3.449000000000001  10.347000000000000 
270 2   5.173500000000001   3.449000000000001   8.622500000000000 
271 2   3.449000000000001   5.173500000000001   8.622500000000000 
272 2   5.173500000000001   0.000000000000001  15.520500000000002 
273 2   5.173500000000001   0.000000000000001  12.071500000000000 
274 2   5.173500000000001   0.000000000000001   8.622500000000000 
275 2   5.173500000000001   5.173500000000001  13.796000000000001 
276 2   3.449000000000000   0.000000000000000   3.449000000000000 
277 2   5.173500000000000   1.724500000000000   0.000000000000000 
278 2   3.449000000000000   0.000000000000000   0.000000000000000 
279 2   1.724500000000002  13.796000000000001  12.071500000000000 
280 2   0.000000000000002  15.520500000000002  12.071500000000000 
281 2   0.000000000000001  13.796000000000001  10.347000000000000 
282 2   0.000000000000001  15.520500000000002   8.622500000000000 
283 2   0.000000000000001  13.796000000000001   6.898000000000001 
284 2   3.449000000000002   6.898000000000001  13.796000000000001 
285 2   3.449000000000002  12.071500000000000  12.071500000000000 
286 2   3.449000000000001  10.347000000000000  10.347000000000000 
287 2   3.449000000000002  12.071500000000000   8.622500000000000 
288 2   3.449000000000002  12.071500000000000   5.173500000000000 
289 2   5.173500000000001  10.347000000000000   1.724500000000000 
290 2   5.173500000000002   8.622500000000000  13.796000000000001 
291 2   5.173500000000001   6.898000000000001  15.520500000000002 
292 2   3.449000000000002   8.622500000000002  15.520500000000002 
293 2   0.000000000000001  15.520500000000002   5.173500000000000 
294 2   5.173500000000002   8.622500000000000  10.347000000000000 
295 2   3.449000000000002   8.622500000000000  12.071500000000000 
296 2   3.449000000000001   6.898000000000001   6.898000000000001 
297 2   5.173500000000001   8.622500000000000   3.449000000000000 
298 2   5.173500000000000   6.898000000000001   5.173500000000000 
299 2   3.449000000000001   8.622500000000000   5.173500000000000 
300 2   3.449000000000001   8.622500000000000   1.724500000000000 
301 2   1.724500000000000   5.173500000000000   0.000000000000000 
302 2   0.000000000000001   3.449000000000001  13.796000000000001 
303 2   1.724500000000001   3.449000000000001  12.071500000000000 
304 2   0.000000000000001   3.449000000000001  10.347000000000000 
305 2   1.724500000000001   5.173500000000000   6.898000000000001 
306 2   1.724500000000001   5.173500000000000   3.449000000000000 
307 2   1.724500000000001   3.449000000000001   5.173500000000000 
308 2   0.000000000000001   5.173500000000000   5.173500000000000 
309 2   0.000000000000000   3.449000000000000   3.449000000000000 
310 2   1.724500000000001   3.449000000000001  15.520500000000002 
311 2   1.724500000000001   1.724500000000001  13.796000000000001 
312 2   1.724500000000001   0.000000000000001  15.520500000000002 
313 2   0.000000000000001   0.000000000000001  13.796000000000001 
314 2   1.724500000000001   1.724500000000001  10.347000000000000 
315 2   1.724500000000001   0.000000000000001  12.071500000000000 
316 2   1.724500000000000   1.724500000000000   3.449000000000000 
317 2   0.000000000000000   0.000000000000000   3.449000000000000 
318 2   1.724500000000001   6.898000000000001  12.071500000000000 
319 2   1.724500000000001  13.796000000000001   1.724500000000000 
320 2   1.724500000000001  12.071500000000000   6.898000000000001 
321 2   1.724500000000001  10.347000000000000   8.622500000000000 
322 2   0.000000000000001  12.071500000000000   8.622500000000000 
323 2   1.724500000000001  12.071500000000000   3.449000000000000 
324 2   1.724500000000001  10.347000000000000   1.724500000000000 
325 2   0.000000000000001  12.071500000000000   1.724500000000000 
326 2   0.000000000000001   8.622500000000002  15.520500000000002 
327 2   8.622500000000002   3.449000000000001  15.520500000000002 
328 2   0.000000000000001   8.622500000000000  12.071500000000000 
329 2   1.724500000000001   6.898000000000001   8.622500000000000 
330 2   0.000000000000001   6.898000000000001   6.898000000000001 
331 2   1.724500000000001   8.622500000000000   3.449000000000000 
332 2   0.000000000000001   6.898000000000001   3.449000000000000 
333 2   1.724500000000001   6.898000000000001   1.724500000000000 
334 2   0.000000000000001   8.622500000000000   1.724500000000000 
335 2   5.173500000000002  15.520500000000002  13.796000000000001 
336 2   6.898000000000001   0.000000000000000   6.898000000000001 
337 2   8.622500000000000   1.724500000000000   3.449000000000000 
338 2   3.449000000000001  13.796000000000001   0.000000000000000 
339 2   8.622500000000000   5.173500000000000   3.449000000000000 
340 2   6.898000000000001   5.173500000000001   8.622500000000000 
341 2   5.173500000000002  13.796000000000001  12.071500000000000 
342 2   5.173500000000002  12.071500000000000  13.796000000000001 
343 2   6.898000000000001   5.173500000000000   1.724500000000000 
344 2   3.449000000000002  13.796000000000001  10.347000000000000 
345 2   8.622500000000002   0.000000000000001  15.520500000000002 
346 2   8.622500000000000   3.449000000000001  12.071500000000000 
347 2   6.898000000000001   0.000000000000000   0.000000000000000 
348 2   5.173500000000001  13.796000000000001   5.173500000000000 
349 2   5.173500000000002  13.796000000000001   8.622500000000000 
350 2   3.449000000000002  10.347000000000000  13.796000000000001 
351 2   5.173500000000001  15.520500000000002   3.449000000000000 
352 2   5.173500000000002  10.347000000000000  12.071500000000000 
353 3  12.071500000000000   3.449000000000001   8.622500000000000 
354 3  10.347000000000000  12.071500000000000   8.622500000000000 
355 3  10.347000000000000  10.347000000000000   6.898000000000001 
356 3   5.173500000000000   5.173500000000000   6.898000000000001 
357 3  12.071500000000000  12.071500000000000   3.449000000000000 
358 3  10.347000000000000  10.347000000000000   3.449000000000000 
359 3  12.071500000000000   8.622500000000000  13.796000000000001 
360 3  12.071500000000000   8.622500000000000  10.347000000000000 
361 3  10.347000000000000   6.898000000000001  10.347000000000000 
362 3  12.071500000000000   5.173500000000001  10.347000000000000 
363 3   5.173500000000001   6.898000000000001   8.622500000000000 
364 3   5.173500000000001   8.622500000000000   6.898000000000001 
365 3   3.449000000000001   3.449000000000001   6.898000000000001 
366 3   5.173500000000001   6.898000000000001  12.071500000000000 
367 3  12.071500000000000   3.449000000000000   1.724500000000000 
368 3   3.449000000000001  10.347000000000000   0.000000000000000 
369 3   3.449000000000001  12.071500000000000   1.724500000000000 
370 3  12.071500000000000   1.724500000000001  13.796000000000001 
371 3  12.071500000000002   0.000000000000001  15.520500000000002 
372 3   3.449000000000001  10.347000000000000   3.449000000000000 
373 3   5.173500000000001  10.347000000000000   5.173500000000000 
374 3   5.173500000000002  10.347000000000000   8.622500000000000 
375 3   5.173500000000001  12.071500000000000   6.898000000000001 
376 3  12.071500000000002  15.520500000000002   3.449000000000000 
377 3  13.796000000000001   0.000000000000001  10.347000000000000 
378 3   0.000000000000002  13.796000000000001  13.796000000000001 
379 3  15.520500000000002   1.724500000000000   3.449000000000000 
380 3   1.724500000000002  15.520500000000002  13.796000000000001 
381 3  13.796000000000001   0.000000000000000   3.449000000000000 
382 3  15.520500000000002   1.724500000000000   0.000000000000000 
383 3  10.347000000000000  13.796000000000001  13.796000000000001 
384 3  12.071500000000002  15.520500000000002  10.347000000000000 
385 3   3.449000000000001   1.724500000000001   8.622500000000000 
386 3  10.347000000000001  15.520500000000002   8.622500000000000 
387 3   5.173500000000000   1.724500000000001   6.898000000000001 
388 3  12.071500000000000   1.724500000000000   3.449000000000000 
389 3   3.449000000000001   1.724500000000001  12.071500000000000 
390 3   5.173500000000001   1.724500000000001  10.347000000000000 
391 3  10.347000000000001  15.520500000000002   1.724500000000000 
392 3  12.071500000000002  10.347000000000001  15.520500000000002 
393 3  12.071500000000000  10.347000000000000  12.071500000000000 
394 3   3.449000000000001   5.173500000000000   1.724500000000000 
395 3   5.173500000000000   3.449000000000000   1.724500000000000 
396 3   3.449000000000000   3.449000000000000   3.449000000000000 
397 3  10.347000000000000  10.347000000000000  10.347000000000000 
398 3   5.173500000000000   3.449000000000001   5.173500000000000 
399 3   6.898000000000001   5.173500000000000   5.173500000000000 
400 3   8.622500000000000   0.000000000000001   8.622500000000000 
401 3   6.898000000000001   1.724500000000001  12.071500000000000 
402 3   8.622500000000000   0.000000000000001  12.071500000000000 
403 3   8.622500000000000   1.724500000000001  10.347000000000000 
404 3   6.898000000000001   1.724500000000001  15.520500000000002 
405 3   6.898000000000001  12.071500000000000   1.724500000000000 
406 3   8.622500000000000   1.724500000000001  13.796000000000001 
407 3   8.622500000000000   8.622500000000000  10.347000000000000 
408 3   8.622500000000000   6.898000000000001  12.071500000000000 
409 3   8.622500000000000   3.449000000000000   1.724500000000000 
410 3   8.622500000000000   8.622500000000000   6.898000000000001 
411 3   6.898000000000001  10.347000000000000   6.898000000000001 
412 3   8.622500000000000   6.898000000000001   5.173500000000000 
413 3   6.898000000000001   3.449000000000001   6.898000000000001 
414 3   6.898000000000001   8.622500000000000   5.173500000000000 
415 3   8.622500000000000   3.449000000000001   8.622500000000000 
416 3   6.898000000000001   3.449000000000001  10.347000000000000 
417 3   6.898000000000001   5.173500000000001  12.071500000000000 
418 3   8.622500000000000   5.173500000000001  10.347000000000000 
419 3   6.898000000000001   3.449000000000001  13.796000000000001 
420 3   6.898000000000001   5.173500000000001  15.520500000000002 
421 3   6.898000000000001   6.898000000000001   0.000000000000000 
422 3   8.622500000000002  15.520500000000002   3.449000000000000 
423 3   5.173500000000002  12.071500000000000  10.347000000000000 
424 3  12.071500000000000   0.000000000000000   5.173500000000000 
425 3  12.071500000000000   0.000000000000000   1.724500000000000 
426 3   5.173500000000002  10.347000000000001  15.520500000000002 
427 3   3.449000000000001  15.520500000000002   1.724500000000000 
428 3   5.173500000000001  13.796000000000001   1.724500000000000 
429 3   5.173500000000001  15.520500000000002   0.000000000000000 
430 3   3.449000000000001  13.796000000000001   3.449000000000000 
431 3   3.449000000000002  15.520500000000002   5.173500000000000 
432 3   6.898000000000002  15.520500000000002   8.622500000000000 
433 3   6.898000000000001  13.796000000000001   6.898000000000001 
434 3  15.520500000000004  15.520500000000002  13.796000000000001 
435 3   3.449000000000002  15.520500000000002  12.071500000000000 
436 3   8.622500000000002  15.520500000000002   0.000000000000000 
437 3   5.173500000000002  15.520500000000002  10.347000000000000 
438 3   3.449000000000002  13.796000000000001  13.796000000000001 
439 3   3.449000000000002  15.520500000000004  15.520500000000002 
440 3   6.898000000000001  13.796000000000001   0.000000000000000 
441 3   8.622500000000002  10.347000000000001  15.520500000000002 
442 3   8.622500000000000  12.071500000000000  10.347000000000000 
443 3   6.898000000000001   1.724500000000000   5.173500000000000 
444 3   8.622500000000000   0.000000000000000   5.173500000000000 
445 3   0.000000000000001  10.347000000000000   3.449000000000000 
446 3   1.724500000000001   6.898000000000001  15.520500000000002 
447 3   1.724500000000001   8.622500000000000  13.796000000000001 
448 3   0.000000000000001  10.347000000000000   0.000000000000000 
449 3  13.796000000000001  13.796000000000001   0.000000000000000 
450 3   1.724500000000000   3.449000000000000   1.724500000000000 
451 3  15.520500000000002   6.898000000000001   1.724500000000000 
452 3   0.000000000000000   5.173500000000000   1.724500000000000 
453 3  15.520500000000002  13.796000000000001   1.724500000000000 
454 3  13.796000000000001   8.622500000000000   5.173500000000000 
455 3   0.000000000000001  12.071500000000000   5.173500000000000 
456 3   1.724500000000001  10.347000000000000   5.173500000000000 
457 3  15.520500000000004   3.449000000000001  15.520500000000002 
458 3   0.000000000000001  10.347000000000000   6.898000000000001 
459 3  13.796000000000001  13.796000000000001   3.449000000000000 
460 3   0.000000000000001   1.724500000000001  15.520500000000002 
461 3  15.520500000000002   5.173500000000001  10.347000000000000 
462 3   1.724500000000001  12.071500000000000   0.000000000000000 
463 3  15.520500000000002   8.622500000000000   3.449000000000000 
464 3  13.796000000000001  10.347000000000000  13.796000000000001 
465 3  13.796000000000001   6.898000000000001   6.898000000000001 
466 3  15.520500000000002  10.347000000000000  12.071500000000000 
467 3  13.796000000000001   8.622500000000000   8.622500000000000 
468 3   0.000000000000001   5.173500000000001   8.622500000000000 
469 3   1.724500000000001   8.622500000000000   6.898000000000001 
470 3  15.520500000000002   1.724500000000001  10.347000000000000 
471 3  13.796000000000001   8.622500000000000  12.071500000000000 
472 3  15.520500000000002  10.347000000000000   8.622500000000000 
473 3  13.796000000000001  12.071500000000000   8.622500000000000 
474 3   1.724500000000001   5.173500000000001  10.347000000000000 
475 3   0.000000000000001   5.173500000000001  15.520500000000002 
476 3  13.796000000000001  12.071500000000000   5.173500000000000 
477 3  15.520500000000002  12.071500000000000   0.000000000000000 
478 3   0.000000000000001  10.347000000000000  10.347000000000000 
479 3  15.520500000000004  15.520500000000002  10.347000000000000 
480 3  13.796000000000003  15.520500000000002  12.071500000000000 
481 3   0.000000000000000   0.000000000000000   6.898000000000001 
482 3   0.000000000000001   1.724500000000001   8.622500000000000 
483 3   0.000000000000001  13.796000000000001   3.449000000000000 
484 3   1.724500000000001   0.000000000000001   8.622500000000000 
485 3  13.796000000000001   3.449000000000000   0.000000000000000 
486 3   1.724500000000001  15.520500000000002   0.000000000000000 
487 3  13.796000000000001   3.449000000000000   3.449000000000000 
488 3   1.724500000000001   1.724500000000001   6.898000000000001 
489 3   1.724500000000001  13.796000000000001   8.622500000000000 
490 3   1.724500000000002  12.071500000000000  13.796000000000001 
491 3  13.796000000000001   5.173500000000001   8.622500000000000 
492 3  15.520500000000004  15.520500000000002   3.449000000000000 
493 3   0.000000000000002  12.071500000000002  15.520500000000002 
494 3   0.000000000000001  12.071500000000000  12.071500000000000 
495 3   1.724500000000001  10.347000000000000  12.071500000000000 
496 3   1.724500000000000   0.000000000000000   1.724500000000000 
497 3   0.000000000000001   1.724500000000001  12.071500000000000 
498 3  15.520500000000004  15.520500000000002   6.898000000000001 
499 3  13.796000000000003   1.724500000000001  15.520500000000002 
500 3  15.520500000000002   5.173500000000000   6.898000000000001 
