LAMMPS data file via write_data, version 29 Aug 2024, timestep = 31, units = metal

500 atoms
3 atom types

0 17.729040717205137 xlo xhi
0 17.729040717205137 ylo yhi
0 17.729040717205137 zlo zhi

Masses

1 54.3682
2 58.71
3 58.71

Atoms # atomic

1 2 0.00712757955295644 0.007127579552955908 1.249140421243871e-15 0 0 0
2 3 1.765776492167556 1.7657764921675556 0 0 0 0
3 1 1.7658052919244633 0.007098779796049834 1.7583298305861195 0 0 0
4 1 0.007098779796049658 1.7658052919244633 1.7583298305861204 0 0 0
5 1 3.538068780673705 0.007025929075677734 2.221251955595658e-15 0 0 0
8 1 3.5376353924289607 1.7721365256388355 1.7650002834946041 0 0 0
21 1 0.00702592907567688 3.538068780673705 0 0 0 0
23 1 1.7721365256388357 3.5376353924289607 1.765000283494605 0 0 0
25 1 3.535766772662438 3.5357667726624378 1.7583675439854013e-16 0 0 0
51 1 0.0006942957268643604 0.0006942957268620755 3.54393767917748 0 0 0
52 1 1.772209775993649 1.7722097759936484 3.543937679177479 0 0 0
53 1 1.7725793904898468 0.000324681230664096 5.318745029749139 0 0 0
54 1 0.0003246812306645452 1.7725793904898468 5.318745029749139 0 0 0
55 1 3.542186066083125 0.0006168470602759753 3.541879460551512 0 0 0
58 1 3.5449022129871173 1.7724409315280014 5.318004757874266 0 0 0
71 1 0.0006168470602749028 3.5421860660831253 3.5418794605515127 0 0 0
73 1 1.772440931528002 3.5449022129871164 5.318004757874266 0 0 0
75 1 3.544774970781164 3.5447749707811647 3.544520127381537 0 0 0
6 1 5.317844045428236 1.772611350735593 7.585569326214824e-16 0 0 0
7 1 5.318022084346037 0.0005793538461015704 1.771987556549649 0 0 0
9 1 7.091934533564546 0.00032407967302555864 0 0 0 0
12 1 7.091686101683009 1.7728777416209862 1.772537161948008 0 0 0
27 1 5.317240907905914 3.5446707243879225 1.7718999842511631 0 0 0
29 1 7.091616939553597 3.5453254926916746 5.328448747730584e-16 0 0 0
56 1 5.314950733922365 1.7724410759185216 3.5421669429579494 0 0 0
57 1 5.316977501434212 0.0004574821679713517 5.316809798199545 0 0 0
59 1 7.090901594045958 0.0004498841693695248 3.5451062582401796 0 0 0
62 1 7.090072663510834 1.7727099693723827 5.317199807054063 0 0 0
77 1 5.317830931793918 3.5450342263680987 5.31767293003287 0 0 0
79 1 7.090559417053565 3.545102303531973 3.5450361950057334 0 0 0
60 1 8.864480125064702 1.7728968551261943 3.5455818570114404 0 0 0
61 1 8.86418009763755 0.00019372843796539512 5.318251579983797 0 0 0
81 1 8.864178249475192 3.545403717493685 5.318200752232679 0 0 0
10 1 8.864788671725046 1.7729336121599044 0 0 0 0
11 1 8.864526712771568 2.633804353408556e-05 1.7728951499377743 0 0 0
14 1 12.410010255361104 1.7725799920474885 0 0 0 0
15 1 12.410258687242639 2.6330099526219392e-05 1.772537161948009 0 0 0
16 1 10.637418076154082 1.7728777336769779 1.772895149937775 0 0 0
31 1 8.86452385092107 3.5457315558949305 1.772868008363524 0 0 0
33 1 10.637465614344023 3.5456736265880244 0 0 0 0
35 1 12.410973713767845 3.545268768618065 1.7724349924553984 0 0 0
63 1 10.63746466386095 7.216594319502456e-06 3.5455818570114404 0 0 0
64 1 12.411043194879692 1.7724541875511421 3.545106258240181 0 0 0
65 1 12.411872125414813 0.00019410234812940012 5.317199807054065 0 0 0
66 1 10.6377646912881 1.772710343282545 5.318251579983796 0 0 0
83 1 10.637796623402958 3.5455562353669747 3.5455167917248747 0 0 0
85 1 12.410985386112577 3.545314867962462 5.318089171576466 0 0 0
17 1 14.184100743497414 0.0002927209849155205 5.157876832224181e-16 0 0 0
19 1 15.964309396496688 0.000767546081675571 1.7650002834946048 0 0 0
20 1 14.183922704579613 1.7723247178744104 1.7719875565496488 0 0 0
37 1 14.186102073636834 3.542551779452006 3.6725372432079364e-16 0 0 0
39 1 15.957574466388362 3.544370322537289 1.7716238927120862 0 0 0
67 1 14.186994055003286 0.0004629958019908778 3.5421669429579485 0 0 0
68 1 15.959758722842526 1.772287224660236 3.5418794605515123 0 0 0
69 1 15.957042575938534 0.0004631401925135411 5.318004757874265 0 0 0
70 1 14.184967287491437 1.7724465895525403 5.316809798199544 0 0 0
87 1 14.184293861247934 3.544991080827831 3.5448747463402213 0 0 0
89 1 15.957133597813533 3.544811191112119 5.31729788154217 0 0 0
22 1 1.7726113507355947 5.317844045428236 2.2205879619325424e-15 0 0 0
24 1 0.0005793538461016027 5.318022084346036 1.7719875565496501 0 0 0
28 1 3.5446707243879216 5.317240907905913 1.771899984251163 0 0 0
42 1 1.772877741620986 7.091686101683009 1.7725371619480086 0 0 0
43 1 3.545325492691675 7.091616939553595 0 0 0 0
72 1 1.772441075918522 5.314950733922365 3.5421669429579494 0 0 0
74 1 0.0004574821679712149 5.316977501434213 5.316809798199542 0 0 0
78 1 3.545034226368098 5.317830931793917 5.317672930032869 0 0 0
91 1 0.00044988416937106774 7.090901594045957 3.5451062582401804 0 0 0
92 1 1.772709969372382 7.090072663510834 5.317199807054063 0 0 0
93 1 3.545102303531972 7.090559417053566 3.5450361950057325 0 0 0
301 1 1.7728968551261939 8.8644801250647 3.54558185701144 0 0 0
302 1 0.00019372843796433762 8.864180097637549 5.318251579983797 0 0 0
304 1 3.5454037174936843 8.86417824947519 5.318200752232679 0 0 0
26 1 5.314533701501588 5.314533701501589 0 0 0 0
32 1 7.0905980153578865 5.317874623210588 1.772279932512554 0 0 0
44 1 5.317874623210587 7.090598015357887 1.7722799325125536 0 0 0
45 1 7.090020472594135 7.0900204725941345 1.9457922228759143e-15 0 0 0
76 1 5.318025996535769 5.318025996535768 3.5451511863527574 0 0 0
82 1 7.091150908670868 5.318200303738601 5.318216083936097 0 0 0
94 1 5.318200303738602 7.091150908670868 5.318216083936096 0 0 0
95 1 7.091168670069564 7.091168670069565 3.5453188987728126 0 0 0
30 1 8.86447199986701 5.318396191118188 1.2242161239030642e-15 0 0 0
46 1 8.864179887819494 7.09113666961624 1.7725558382310969 0 0 0
80 1 8.864134359001563 5.318250551773028 3.5453754693676847 0 0 0
96 1 8.864369186251514 7.091303611612269 5.318369644511287 0 0 0
253 1 5.318396191118188 8.864471999867012 0 0 0 0
256 1 7.0911366696162395 8.864179887819493 1.7725558382310966 0 0 0
303 1 5.318250551773028 8.864134359001563 3.545375469367683 0 0 0
306 1 7.091303611612268 8.864369186251514 5.318369644511287 0 0 0
255 1 8.864093606870641 8.864093606870641 0 0 0 0
305 1 8.864382034162626 8.864382034162624 3.5454168995742035 0 0 0
34 1 12.411508835167195 5.317411412504076 0 0 0 0
36 1 10.637746837283697 5.318363989600849 1.7727211022806286 0 0 0
47 1 10.637839875086435 7.091049270772414 1.8008675041077688e-15 0 0 0
48 1 12.410962009492202 7.090982779433448 1.772545415601562 0 0 0
84 1 12.411009595056617 5.318162687751093 3.545277705592429 0 0 0
86 1 10.637568471753385 5.318300581536063 5.318318267443222 0 0 0
97 1 10.637556036390585 7.091268533688837 3.545415990806283 0 0 0
98 1 12.410675602832988 7.09126918609266 5.318335008989483 0 0 0
257 1 12.410895518153236 8.864104913839213 0 0 0 0
258 1 10.637596020428038 8.864348768497612 1.7725721086178483 0 0 0
307 1 12.410676255236814 8.864388752535064 3.5454159908062817 0 0 0
308 1 10.637530459529232 8.864414329396416 5.318402514964442 0 0 0
100 1 15.956629920963191 7.090959402813076 5.318089171576466 0 0 0
310 1 14.183644207389587 8.864376317172265 5.318318267443221 0 0 0
309 1 15.956388553558677 8.864148165522693 3.545516791724877 0 0 0
38 1 15.959393009473644 5.315842715288815 2.4549095700800804e-15 0 0 0
40 1 14.184432380369127 5.3175124085565235 1.7720169796594487 0 0 0
49 1 14.184533376421573 7.090435953758455 0 0 0 0
50 1 15.956676020307585 7.090971075157803 1.7724349924553984 0 0 0
88 1 15.956953708097819 5.317650927677717 3.5448747463402195 0 0 0
90 1 14.183845639518031 5.318099149407619 5.318091497810349 0 0 0
99 1 14.183782101174558 7.090935193869033 3.5452777055924276 0 0 0
259 1 15.956271162337625 8.864479174581627 8.045297798122564e-16 0 0 0
260 1 14.1835807993248 8.864197951641952 1.772721102280628 0 0 0
101 1 4.2906191675570177e-05 4.29061916772864e-05 7.09184993419024 0 0 0
102 1 1.7728611655288375 1.7728611655288364 7.091849934190239 0 0 0
105 1 3.54558609150609 3.713650644496583e-05 7.091545410606067 0 0 0
108 1 3.5457511331642126 1.7728876906883717 8.864520358602569 0 0 0
121 1 3.713650644492741e-05 3.5455860915060886 7.091545410606067 0 0 0
123 1 1.7728876906883722 3.5457511331642135 8.864520358602569 0 0 0
125 1 3.5455022276067054 3.5455022276067063 7.091207381552826 0 0 0
151 1 4.290619167812834e-05 4.290619167454473e-05 10.637190783014901 0 0 0
152 1 1.772861165528837 1.772861165528836 10.6371907830149 0 0 0
153 1 3.545586091506089 3.713650644629633e-05 10.63749530659907 0 0 0
161 1 3.7136506447164464e-05 3.5455860915060904 10.63749530659907 0 0 0
163 1 3.545502227606705 3.545502227606705 10.63783333565231 0 0 0
106 1 5.318192395637961 1.7727075851606477 7.091205773616912 0 0 0
107 1 5.31847029459149 1.4842466745876723e-05 8.864520358602569 0 0 0
109 1 7.09084910876408 0.00019665779198272206 7.090836796522779 0 0 0
112 1 7.0912491206179356 1.772720685559605 8.864520358602567 0 0 0
127 1 5.318408308753084 3.5455740848680737 8.864520358602567 0 0 0
129 1 7.091136438790309 3.545383867496602 7.091130033921313 0 0 0
154 1 5.3181923956379595 1.7727075851606477 10.637834943588222 0 0 0
155 1 7.090849108764079 0.00019665779198247725 10.638203920682358 0 0 0
165 1 7.091136438790308 3.5453838674966023 10.637910683283826 0 0 0
110 1 8.864073800617671 1.7727213471595766 7.091008360891825 0 0 0
111 1 8.86433419314082 0.00018393752815404883 8.864520358602567 0 0 0
131 1 8.86432668246956 3.5454062190839295 8.864520358602569 0 0 0
156 1 8.864073800617671 1.7727213471595764 10.638032356313312 0 0 0
113 1 10.637870988307979 0.00018272456093682 7.0910083608918235 0 0 0
114 1 12.41109568016157 1.77270741392853 7.09083679652278 0 0 0
115 1 12.410695668307715 0.00018338616090585622 8.864520358602567 0 0 0
116 1 10.637610595784828 1.7727201341923606 8.864520358602567 0 0 0
133 1 10.637568703347428 3.545400918970181 7.091308837248958 0 0 0
135 1 12.410742339006257 3.545409001618083 8.864520358602567 0 0 0
157 1 10.637870988307977 0.0001827245609374333 10.638032356313314 0 0 0
158 1 12.41109568016157 1.77270741392853 10.63820392068236 0 0 0
167 1 10.637568703347426 3.5454009189701816 10.63773187995618 0 0 0
104 1 17.729023494680746 1.7729212942449042 8.864520358602567 -1 0 0
117 1 14.183752393287689 0.00019648655986563245 7.091205773616914 0 0 0
118 1 15.956358697419562 1.7728669352140658 7.091545410606067 0 0 0
119 1 15.956193655761435 1.6381032141142413e-05 8.864520358602567 0 0 0
120 1 14.18347449433416 1.7728892292537672 8.864520358602569 0 0 0
137 1 14.183814887678356 3.545354055218721 7.090880335190596 0 0 0
139 1 15.956218116498826 3.5457266724268255 8.864520358602567 0 0 0
159 1 14.183752393287689 0.00019648655986480342 10.637834943588222 0 0 0
160 1 15.95635869741956 1.7728669352140662 10.63749530659907 0 0 0
169 1 14.183814887678357 3.54535405521872 10.63816038201454 0 0 0
122 1 1.7727075851606495 5.3181923956379595 7.091205773616912 0 0 0
124 1 1.4842466745193564e-05 5.3184702945914895 8.86452035860257 0 0 0
128 1 3.5455740848680732 5.318408308753085 8.864520358602567 0 0 0
141 1 0.0001966577919813686 7.090849108764081 7.090836796522778 0 0 0
142 1 1.7727206855596056 7.091249120617935 8.864520358602569 0 0 0
143 1 3.5453838674966023 7.091136438790308 7.0911300339213135 0 0 0
162 1 1.772707585160647 5.3181923956379595 10.637834943588222 0 0 0
171 1 0.00019665779198372435 7.090849108764081 10.63820392068236 0 0 0
172 1 3.545383867496602 7.091136438790309 10.637910683283824 0 0 0
351 1 1.7727213471595762 8.864073800617671 7.091008360891824 0 0 0
352 1 0.00018393752815102442 8.864334193140824 8.864520358602569 0 0 0
354 1 3.54540621908393 8.864326682469558 8.864520358602567 0 0 0
401 1 1.772721347159576 8.86407380061767 10.638032356313314 0 0 0
126 1 5.318233369086481 5.318233369086481 7.091073026879781 0 0 0
132 1 7.091267659348779 5.318310660415514 8.864520358602569 0 0 0
144 1 5.318310660415513 7.091267659348779 8.864520358602569 0 0 0
145 1 7.091297799596714 7.091297799596713 7.091383090073374 0 0 0
164 1 5.3182333690864825 5.318233369086481 10.637967690325356 0 0 0
173 1 7.0912977995967115 7.091297799596712 10.637657627131762 0 0 0
130 1 8.864372349264622 5.318307687800244 7.091385983570087 0 0 0
146 1 8.864404978689503 7.091337248781737 8.864520358602567 0 0 0
166 1 8.864372349264622 5.318307687800244 10.637654733635047 0 0 0
353 1 5.318307687800244 8.864372349264622 7.091385983570087 0 0 0
356 1 7.091337248781738 8.864404978689503 8.864520358602569 0 0 0
402 1 5.318307687800244 8.864372349264622 10.637654733635049 0 0 0
355 1 8.86441376094714 8.864413760947139 7.091442122891049 0 0 0
403 1 8.86441376094714 8.86441376094714 10.637598594314086 0 0 0
134 1 12.410678668381317 5.3182814695650915 7.091339380642636 0 0 0
136 1 10.637534201431105 5.318315887941755 8.864520358602567 0 0 0
147 1 10.63752684878111 7.091334218079667 7.091426490949941 0 0 0
148 1 12.410617819261976 7.091326969663674 8.864520358602569 0 0 0
168 1 12.410678668381317 5.318281469565093 10.637701336562502 0 0 0
174 1 10.637526848781112 7.091334218079666 10.637614226255193 0 0 0
357 1 12.410610570845982 8.86441794014454 7.091426490949942 0 0 0
358 1 10.63752094601023 8.86442384291542 8.864520358602569 0 0 0
404 1 12.410610570845984 8.864417940144538 10.637614226255192 0 0 0
175 1 14.183663319360557 7.091266120544334 10.6377013365625 0 0 0
138 1 15.956590733706928 5.318129901247293 7.090880335190596 0 0 0
140 1 14.183673510761492 5.318271278164156 8.864520358602567 0 0 0
149 1 14.183663319360559 7.091266120544333 7.091339380642637 0 0 0
150 1 15.956535787307567 7.091202449919395 8.864520358602567 0 0 0
170 1 15.95659073370693 5.318129901247294 10.63816038201454 0 0 0
359 1 15.95654386995547 8.864376085578222 7.091308837248957 0 0 0
360 1 14.183628900983894 8.864410587494545 8.864520358602567 0 0 0
405 1 15.956543869955471 8.864376085578222 10.637731879956181 0 0 0
176 1 1.7725793904898468 0.00032468123066356475 12.410295687455996 0 0 0
177 1 0.00032468123066631727 1.7725793904898461 12.410295687455996 0 0 0
179 1 3.544902212987116 1.7724409315280014 12.411035959330869 0 0 0
186 1 1.7724409315280012 3.544902212987117 12.411035959330869 0 0 0
201 1 0.0006942957268637815 0.0006942957268644479 14.185103038027657 0 0 0
202 1 1.772209775993648 1.7722097759936477 14.185103038027657 0 0 0
203 1 1.7658052919244627 0.007098779796047637 15.970710886619019 0 0 0
204 1 0.007098779796048507 1.765805291924464 15.970710886619019 0 0 0
205 1 3.542186066083125 0.0006168470602743996 14.187161256653624 0 0 0
208 1 3.53763539242896 1.7721365256388366 15.964040433710531 0 0 0
221 1 0.0006168470602746483 3.5421860660831253 14.187161256653624 0 0 0
223 1 1.7721365256388366 3.5376353924289594 15.964040433710531 0 0 0
225 1 3.544774970781164 3.544774970781165 14.1845205898236 0 0 0
178 1 5.316977501434214 0.00045748216797074945 12.412230919005593 0 0 0
181 1 7.090072663510834 1.7727099693723827 12.411840910151072 0 0 0
188 1 5.317830931793919 3.5450342263680983 12.411367787172265 0 0 0
206 1 5.314950733922366 1.772441075918522 14.18687377424719 0 0 0
207 1 5.318022084346038 0.0005793538461030136 15.957053160655486 0 0 0
209 1 7.090901594045957 0.0004498841693695847 14.183934458964954 0 0 0
212 1 7.091686101683008 1.7728777416209864 15.956503555257125 0 0 0
227 1 5.317240907905914 3.544670724387923 15.95714073295397 0 0 0
229 1 7.090559417053565 3.545102303531972 14.184004522199405 0 0 0
180 1 8.86418009763755 0.0001937284379670528 12.410789137221338 0 0 0
190 1 8.86417824947519 3.545403717493684 12.410839964972455 0 0 0
210 1 8.864480125064702 1.772896855126193 14.183458860193696 0 0 0
182 1 12.411872125414815 0.00019410234813155335 12.411840910151072 0 0 0
183 1 10.6377646912881 1.7727103432825455 12.410789137221338 0 0 0
192 1 12.410985386112575 3.5453148679624626 12.41095154562867 0 0 0
211 1 8.864526712771566 2.633804353428552e-05 15.956145567267358 0 0 0
213 1 10.63746466386095 7.216594318318717e-06 14.1834588601937 0 0 0
214 1 12.411043194879692 1.7724541875511424 14.183934458964957 0 0 0
215 1 12.41025868724264 2.6330099526341206e-05 15.956503555257123 0 0 0
216 1 10.637418076154082 1.7728777336769783 15.95614556726736 0 0 0
231 1 8.86452385092107 3.545731555894929 15.95617270884161 0 0 0
233 1 10.637796623402958 3.5455562353669743 14.183523925480262 0 0 0
235 1 12.410973713767845 3.5452687686180657 15.956605724749737 0 0 0
184 1 15.957042575938534 0.00046314019251191376 12.41103595933087 0 0 0
185 1 14.184967287491439 1.7724465895525399 12.412230919005594 0 0 0
194 1 15.957133597813533 3.544811191112118 12.411742835662965 0 0 0
217 1 14.186994055003286 0.00046299580199076515 14.186873774247188 0 0 0
218 1 15.959758722842526 1.772287224660237 14.187161256653624 0 0 0
219 1 15.964309396496688 0.0007675460816768547 15.96404043371053 0 0 0
220 1 14.183922704579613 1.7723247178744113 15.957053160655487 0 0 0
237 1 14.184293861247934 3.5449910808278298 14.184165970864917 0 0 0
239 1 15.957574466388364 3.5443703225372856 15.95741682449305 0 0 0
18 1 15.963876008251946 1.7658781426448353 17.729040717205134 0 0 -1
187 1 0.00045748216797231135 5.316977501434212 12.412230919005593 0 0 0
189 1 3.5450342263680974 5.317830931793917 12.411367787172265 0 0 0
196 1 1.7727099693723822 7.090072663510834 12.411840910151072 0 0 0
222 1 1.7724410759185232 5.314950733922364 14.186873774247188 0 0 0
224 1 0.000579353846100532 5.318022084346037 15.957053160655486 0 0 0
228 1 3.544670724387923 5.317240907905912 15.957140732953974 0 0 0
241 1 0.0004498841693698057 7.090901594045958 14.183934458964956 0 0 0
242 1 1.7728777416209867 7.091686101683011 15.956503555257127 0 0 0
243 1 3.5451023035319715 7.090559417053565 14.184004522199405 0 0 0
426 1 0.00019372843796549327 8.86418009763755 12.410789137221338 0 0 0
427 1 3.545403717493685 8.864178249475192 12.410839964972457 0 0 0
451 1 1.7728968551261952 8.864480125064702 14.183458860193698 0 0 0
41 1 0.000324079673025241 7.0919345335645465 17.729040717205134 0 0 -1
191 1 7.091150908670867 5.318200303738601 12.410824633269039 0 0 0
197 1 5.318200303738602 7.091150908670869 12.410824633269039 0 0 0
226 1 5.318025996535769 5.318025996535768 14.18388953085238 0 0 0
232 1 7.090598015357885 5.317874623210588 15.95676078469258 0 0 0
244 1 5.317874623210588 7.090598015357885 15.956760784692582 0 0 0
245 1 7.091168670069563 7.091168670069565 14.183721818432325 0 0 0
198 1 8.864369186251514 7.091303611612268 12.41067107269385 0 0 0
230 1 8.864134359001563 5.318250551773027 14.183665247837451 0 0 0
246 1 8.864179887819494 7.091136669616241 15.956484878974036 0 0 0
428 1 7.091303611612268 8.864369186251514 12.410671072693848 0 0 0
453 1 5.318250551773029 8.864134359001563 14.183665247837451 0 0 0
456 1 7.0911366696162395 8.864179887819496 15.956484878974038 0 0 0
455 1 8.864382034162626 8.864382034162624 14.183623817630934 0 0 0
193 1 10.637568471753385 5.3183005815360636 12.410722449761915 0 0 0
199 1 12.41067560283299 7.09126918609266 12.410705708215652 0 0 0
234 1 12.411009595056617 5.318162687751093 14.183763011612708 0 0 0
236 1 10.637746837283698 5.318363989600848 15.956319614924507 0 0 0
247 1 10.637556036390585 7.0912685336888375 14.183624726398856 0 0 0
248 1 12.410962009492202 7.090982779433447 15.956495301603573 0 0 0
429 1 10.63753045952923 8.864414329396416 12.410638202240694 0 0 0
457 1 12.410676255236815 8.864388752535064 14.183624726398856 0 0 0
458 1 10.637596020428036 8.864348768497612 15.956468608587288 0 0 0
195 1 14.18384563951803 5.318099149407619 12.410949219394787 0 0 0
200 1 15.95662992096319 7.090959402813075 12.41095154562867 0 0 0
238 1 15.95695370809782 5.317650927677717 14.184165970864917 0 0 0
240 1 14.184432380369124 5.317512408556524 15.957023737545688 0 0 0
249 1 14.183782101174558 7.090935193869033 14.183763011612708 0 0 0
250 1 15.956676020307587 7.090971075157803 15.956605724749737 0 0 0
430 1 14.183644207389586 8.864376317172265 12.410722449761916 0 0 0
459 1 15.956388553558677 8.864148165522694 14.183523925480262 0 0 0
460 1 14.183580799324798 8.864197951641954 15.956319614924507 0 0 0
251 1 1.7729336121599049 8.864788671725043 1.5454543258328952e-15 0 0 0
252 1 2.633804353512233e-05 8.864526712771566 1.7728951499377748 0 0 0
254 1 3.545731555894931 8.864523850921069 1.772868008363524 0 0 0
262 1 1.7725799920474867 12.410010255361104 0 0 0 0
263 1 1.7728777336769774 10.637418076154084 1.7728951499377765 0 0 0
264 1 2.6330099526551958e-05 12.410258687242642 1.77253716194801 0 0 0
265 1 3.545673626588025 10.637465614344023 0 0 0 0
268 1 3.5452687686180653 12.410973713767847 1.7724349924553984 0 0 0
311 1 7.216594318089421e-06 10.63746466386095 3.5455818570114386 0 0 0
312 1 1.7724541875511421 12.411043194879692 3.5451062582401804 0 0 0
313 1 1.772710343282546 10.637764691288101 5.318251579983797 0 0 0
314 1 0.0001941023481311914 12.411872125414815 5.317199807054063 0 0 0
315 1 3.545556235366974 10.637796623402956 3.545516791724875 0 0 0
318 1 3.5453148679624618 12.410985386112575 5.318089171576466 0 0 0
266 1 5.317411412504076 12.411508835167195 0 0 0 0
267 1 5.318363989600851 10.637746837283697 1.7727211022806288 0 0 0
269 1 7.091049270772415 10.637839875086435 0 0 0 0
272 1 7.090982779433447 12.410962009492199 1.7725454156015628 0 0 0
316 1 5.3181626877510935 12.411009595056617 3.545277705592428 0 0 0
317 1 5.318300581536064 10.637568471753385 5.318318267443222 0 0 0
319 1 7.091268533688836 10.637556036390587 3.545415990806282 0 0 0
322 1 7.091269186092659 12.41067560283299 5.318335008989483 0 0 0
270 1 8.864104913839217 12.410895518153236 2.4559195346625864e-15 0 0 0
271 1 8.864348768497614 10.63759602042804 1.7725721086178472 0 0 0
320 1 8.864388752535065 12.410676255236814 3.5454159908062817 0 0 0
321 1 8.864414329396418 10.637530459529234 5.318402514964442 0 0 0
273 1 10.637851182055009 10.637851182055009 0 0 0 0
274 1 12.411924316331513 12.411924316331515 1.8815970211693776e-15 0 0 0
275 1 12.41080811930941 10.637764901106156 1.7725558382310964 0 0 0
276 1 10.637764901106154 12.41080811930941 1.7725558382310969 0 0 0
323 1 10.637562754763026 10.637562754763024 3.5454168995742035 0 0 0
324 1 12.410776118856086 12.410776118856084 3.545318898772814 0 0 0
325 1 12.41064117731338 10.637575602674138 5.318369644511287 0 0 0
326 1 10.637575602674136 12.41064117731338 5.318369644511288 0 0 0
261 1 17.72901117676574 10.637156117200606 1.3676308838170586e-17 -1 0 0
277 1 14.18354859780746 10.637472789058638 0 0 0 0
278 1 15.956619296233976 12.410327849372052 7.256146606489947e-16 0 0 0
279 1 15.95621323303072 10.637420938004581 1.7728680083635242 0 0 0
280 1 14.184070165715061 12.411346773567763 1.7722799325125544 0 0 0
327 1 14.183694237152622 10.63781042992409 3.5453754693676847 0 0 0
328 1 15.956842485393677 12.411385371872084 3.5450361950057308 0 0 0
329 1 15.956541071431966 10.637766539450459 5.318200752232681 0 0 0
330 1 14.183744485187049 12.41079388025478 5.318216083936098 0 0 0
281 1 0.0002927209849193774 14.184100743497414 1.9712336658772772e-15 0 0 0
282 1 1.7658781426448353 15.963876008251946 4.67324334525655e-19 0 0 0
283 1 1.77232471787441 14.183922704579611 1.7719875565496495 0 0 0
284 1 0.0007675460816763284 15.964309396496688 1.7650002834946052 0 0 0
285 1 3.542551779452007 14.186102073636834 0 0 0 0
288 1 3.544370322537288 15.957574466388362 1.7716238927120862 0 0 0
331 1 0.00046299580199044325 14.186994055003286 3.542166942957949 0 0 0
332 1 1.7722872246602364 15.959758722842526 3.5418794605515123 0 0 0
333 1 1.7724465895525408 14.184967287491439 5.316809798199544 0 0 0
334 1 0.00046314019251282156 15.957042575938532 5.318004757874265 0 0 0
335 1 3.544991080827831 14.184293861247934 3.54487474634022 0 0 0
338 1 3.544811191112118 15.957133597813533 5.317297881542172 0 0 0
341 1 8.864376317172267 14.183644207389586 5.318318267443221 0 0 0
340 1 8.86414816552269 15.956388553558677 3.545516791724876 0 0 0
286 1 5.315842715288816 15.959393009473642 7.637331913668728e-16 0 0 0
287 1 5.317512408556524 14.184432380369126 1.7720169796594483 0 0 0
289 1 7.090435953758454 14.184533376421575 0 0 0 0
292 1 7.090971075157803 15.956676020307585 1.7724349924553995 0 0 0
336 1 5.317650927677718 15.956953708097817 3.5448747463402195 0 0 0
337 1 5.31809914940762 14.183845639518031 5.31809149781035 0 0 0
339 1 7.090935193869032 14.183782101174558 3.545277705592428 0 0 0
342 1 7.090959402813074 15.95662992096319 5.318089171576466 0 0 0
290 1 8.864479174581625 15.956271162337623 0 0 0 0
291 1 8.864197951641954 14.1835807993248 1.7727211022806286 0 0 0
346 1 10.63776653945046 15.956541071431968 5.31820075223268 0 0 0
345 1 12.410793880254781 14.183744485187049 5.318216083936097 0 0 0
344 1 12.411385371872084 15.956842485393677 3.5450361950057325 0 0 0
343 1 10.637810429924087 14.18369423715262 3.545375469367684 0 0 0
296 1 10.63742093800458 15.95621323303072 1.772868008363524 0 0 0
295 1 12.411346773567763 14.184070165715061 1.7722799325125538 0 0 0
294 1 12.410327849372056 15.956619296233976 0 0 0 0
293 1 10.637472789058638 14.18354859780746 0 0 0 0
13 1 10.637156117200604 17.729011176765745 8.403846005007651e-16 0 -1 0
350 1 14.18411385713173 15.95691056255755 5.31767293003287 0 0 0
349 1 15.95691056255755 14.184113857131731 5.317672930032869 0 0 0
348 1 15.957169818144488 15.957169818144486 3.5445201273815363 0 0 0
347 1 14.183918792389882 14.183918792389882 3.545151186352757 0 0 0
300 1 14.184703881019736 15.957274064537728 1.7718999842511622 0 0 0
299 1 15.957274064537728 14.184703881019736 1.771899984251164 0 0 0
298 1 15.966178016263209 15.966178016263212 1.7712500842034449e-15 0 0 0
297 1 14.18741108742406 14.187411087424062 0 0 0 0
361 1 0.00018272456093396642 10.637870988307979 7.091008360891824 0 0 0
362 1 1.772707413928531 12.41109568016157 7.090836796522778 0 0 0
363 1 1.772720134192359 10.637610595784828 8.864520358602567 0 0 0
364 1 0.00018338616090721828 12.410695668307714 8.864520358602569 0 0 0
365 1 3.5454009189701807 10.637568703347426 7.091308837248957 0 0 0
368 1 3.545409001618083 12.410742339006257 8.864520358602567 0 0 0
406 1 0.0001827245609368072 10.637870988307979 10.638032356313312 0 0 0
407 1 1.7727074139285295 12.411095680161568 10.63820392068236 0 0 0
408 1 3.545400918970181 10.637568703347426 10.637731879956183 0 0 0
366 1 5.318281469565093 12.410678668381317 7.091339380642637 0 0 0
367 1 5.318315887941755 10.637534201431105 8.864520358602567 0 0 0
369 1 7.091334218079665 10.63752684878111 7.091426490949942 0 0 0
372 1 7.091326969663672 12.410617819261976 8.864520358602569 0 0 0
409 1 5.318281469565094 12.410678668381316 10.637701336562502 0 0 0
410 1 7.091334218079666 10.63752684878111 10.637614226255193 0 0 0
370 1 8.864417940144541 12.410610570845984 7.091426490949943 0 0 0
371 1 8.86442384291542 10.63752094601023 8.864520358602567 0 0 0
411 1 8.86441794014454 12.410610570845984 10.637614226255195 0 0 0
373 1 10.637531027978511 10.637531027978511 7.091442122891049 0 0 0
374 1 12.410646989328937 12.410646989328935 7.091383090073374 0 0 0
375 1 12.410607540143912 10.637539810236145 8.864520358602567 0 0 0
376 1 10.637539810236147 12.41060754014391 8.864520358602565 0 0 0
412 1 10.63753102797851 10.63753102797851 10.637598594314088 0 0 0
413 1 12.410646989328937 12.410646989328937 10.637657627131762 0 0 0
377 1 14.183637101125406 10.637572439661028 7.091385983570087 0 0 0
378 1 15.956560921429048 12.41080835013534 7.091130033921312 0 0 0
379 1 15.956538569841722 10.63761810645609 8.864520358602569 0 0 0
380 1 14.183634128510135 12.410677129576872 8.864520358602567 0 0 0
414 1 14.183637101125406 10.637572439661028 10.637654733635049 0 0 0
415 1 15.956560921429048 12.41080835013534 10.637910683283824 0 0 0
381 1 0.00019648655986511483 14.18375239328769 7.091205773616913 0 0 0
382 1 1.7728669352140667 15.95635869741956 7.0915454106060665 0 0 0
383 1 1.7728892292537681 14.18347449433416 8.864520358602567 0 0 0
384 1 1.6381032140474155e-05 15.956193655761435 8.864520358602569 0 0 0
385 1 3.5453540552187195 14.183814887678356 7.090880335190596 0 0 0
388 1 3.5457266724268237 15.956218116498826 8.864520358602569 0 0 0
416 1 0.00019648655986437158 14.183752393287689 10.637834943588222 0 0 0
417 1 1.7728669352140662 15.956358697419562 10.63749530659907 0 0 0
418 1 3.54535405521872 14.183814887678357 10.63816038201454 0 0 0
103 1 1.772921294244904 17.729023494680742 8.864520358602569 0 -1 0
421 1 8.864376085578224 15.956543869955468 10.637731879956181 0 0 0
391 1 8.864410587494545 14.183628900983894 8.864520358602567 0 0 0
390 1 8.864376085578222 15.95654386995547 7.091308837248957 0 0 0
386 1 5.318129901247294 15.95659073370693 7.090880335190595 0 0 0
387 1 5.318271278164158 14.183673510761492 8.864520358602569 0 0 0
389 1 7.091266120544332 14.183663319360557 7.091339380642636 0 0 0
392 1 7.091202449919395 15.956535787307567 8.864520358602569 0 0 0
419 1 5.318129901247294 15.956590733706928 10.638160382014542 0 0 0
420 1 7.091266120544333 14.183663319360555 10.6377013365625 0 0 0
423 1 12.410808350135342 15.956560921429048 10.637910683283822 0 0 0
422 1 10.637572439661026 14.183637101125408 10.63765473363505 0 0 0
396 1 10.63761810645609 15.95653856984172 8.864520358602569 0 0 0
395 1 12.410677129576872 14.183634128510137 8.864520358602569 0 0 0
394 1 12.410808350135342 15.956560921429048 7.091130033921313 0 0 0
393 1 10.637572439661026 14.183637101125404 7.091385983570087 0 0 0
425 1 15.956442561318944 15.956442561318942 10.637833335652308 0 0 0
424 1 14.183711419839167 14.183711419839168 10.637967690325354 0 0 0
400 1 14.183536480172563 15.956370704057578 8.864520358602567 0 0 0
399 1 15.956370704057576 14.183536480172563 8.864520358602569 0 0 0
398 1 15.956442561318944 15.956442561318942 7.091207381552828 0 0 0
397 1 14.183711419839168 14.183711419839168 7.09107302687978 0 0 0
431 1 1.7727103432825457 10.637764691288101 12.410789137221338 0 0 0
432 1 0.0001941023481311072 12.411872125414813 12.411840910151072 0 0 0
434 1 3.5453148679624626 12.410985386112573 12.410951545628668 0 0 0
452 1 2.633804353370386e-05 8.864526712771566 15.956145567267361 0 0 0
454 1 3.5457315558949305 8.864523850921069 15.956172708841612 0 0 0
461 1 7.216594318335454e-06 10.63746466386095 14.183458860193696 0 0 0
462 1 1.7724541875511408 12.41104319487969 14.183934458964957 0 0 0
463 1 1.7728777336769783 10.637418076154084 15.956145567267358 0 0 0
464 1 2.633009952558831e-05 12.41025868724264 15.956503555257127 0 0 0
465 1 3.5455562353669734 10.637796623402956 14.183523925480262 0 0 0
468 1 3.5452687686180653 12.410973713767847 15.956605724749739 0 0 0
433 1 5.318300581536063 10.637568471753385 12.410722449761915 0 0 0
436 1 7.091269186092659 12.41067560283299 12.41070570821565 0 0 0
466 1 5.318162687751093 12.411009595056617 14.183763011612708 0 0 0
467 1 5.318363989600851 10.637746837283695 15.956319614924508 0 0 0
469 1 7.0912685336888375 10.637556036390585 14.183624726398856 0 0 0
472 1 7.090982779433448 12.4109620094922 15.95649530160357 0 0 0
435 1 8.86441432939642 10.637530459529232 12.410638202240696 0 0 0
470 1 8.864388752535064 12.410676255236812 14.183624726398858 0 0 0
471 1 8.864348768497612 10.637596020428036 15.956468608587288 0 0 0
437 1 12.41064117731338 10.637575602674136 12.410671072693848 0 0 0
438 1 10.637575602674136 12.410641177313378 12.410671072693848 0 0 0
473 1 10.637562754763024 10.637562754763026 14.183623817630933 0 0 0
474 1 12.410776118856088 12.410776118856088 14.183721818432325 0 0 0
475 1 12.41080811930941 10.637764901106154 15.956484878974038 0 0 0
476 1 10.637764901106156 12.410808119309408 15.956484878974038 0 0 0
439 1 15.956541071431966 10.637766539450459 12.410839964972457 0 0 0
440 1 14.183744485187049 12.41079388025478 12.410824633269039 0 0 0
477 1 14.183694237152622 10.637810429924087 14.183665247837453 0 0 0
478 1 15.956842485393677 12.411385371872084 14.184004522199405 0 0 0
479 1 15.95621323303072 10.63742093800458 15.95617270884161 0 0 0
480 1 14.184070165715061 12.411346773567763 15.95676078469258 0 0 0
441 1 1.7724465895525408 14.184967287491439 12.41223091900559 0 0 0
442 1 0.00046314019251311197 15.957042575938534 12.41103595933087 0 0 0
444 1 3.5448111911121174 15.957133597813533 12.411742835662963 0 0 0
481 1 0.00046299580198991524 14.186994055003286 14.18687377424719 0 0 0
482 1 1.7722872246602375 15.959758722842526 14.187161256653626 0 0 0
483 1 1.7723247178744108 14.183922704579613 15.957053160655487 0 0 0
484 1 0.0007675460816779868 15.964309396496688 15.96404043371053 0 0 0
485 1 3.5449910808278315 14.184293861247934 14.18416597086492 0 0 0
488 1 3.544370322537286 15.95757446638836 15.95741682449305 0 0 0
491 1 8.864197951641954 14.183580799324801 15.956319614924507 0 0 0
490 1 8.864148165522693 15.956388553558677 14.183523925480262 0 0 0
443 1 5.31809914940762 14.183845639518031 12.410949219394785 0 0 0
446 1 7.090959402813074 15.95662992096319 12.41095154562867 0 0 0
486 1 5.317650927677718 15.956953708097819 14.184165970864917 0 0 0
487 1 5.317512408556524 14.184432380369126 15.957023737545686 0 0 0
489 1 7.090935193869033 14.183782101174556 14.18376301161271 0 0 0
492 1 7.090971075157804 15.956676020307585 15.956605724749735 0 0 0
445 1 8.864376317172267 14.183644207389587 12.410722449761913 0 0 0
496 1 10.63742093800458 15.95621323303072 15.956172708841612 0 0 0
495 1 12.411346773567765 14.184070165715063 15.95676078469258 0 0 0
494 1 12.411385371872084 15.956842485393677 14.184004522199404 0 0 0
493 1 10.637810429924087 14.183694237152622 14.183665247837453 0 0 0
448 1 10.637766539450459 15.956541071431962 12.410839964972455 0 0 0
447 1 12.410793880254781 14.183744485187049 12.410824633269039 0 0 0
500 1 14.184703881019736 15.957274064537728 15.957140732953974 0 0 0
499 1 15.957274064537726 14.184703881019736 15.95714073295397 0 0 0
498 1 15.957169818144486 15.957169818144486 14.1845205898236 0 0 0
497 1 14.18391879238988 14.183918792389882 14.18388953085238 0 0 0
450 1 14.184113857131731 15.95691056255755 12.411367787172265 0 0 0
449 1 15.956910562557551 14.184113857131731 12.411367787172265 0 0 0

Velocities

1 1.6960285240773248e-09 1.6960292983773344e-09 -2.6473662286817698e-15
2 -1.6960292909650368e-09 -1.6960279972340193e-09 -1.0770517691435989e-15
3 3.73594528340646e-09 -3.735949107584908e-09 -5.472366415556114e-09
4 -3.735950253422308e-09 3.735945656527075e-09 -5.472369479639844e-09
5 -9.845516267903004e-09 -4.46755143416237e-09 -1.0490222415104757e-14
8 -5.683432293393655e-09 1.4758562106307697e-09 -4.147168159607595e-09
21 -4.467544752967e-09 -9.845516396383284e-09 -1.3360919709099757e-15
23 1.4758539835863404e-09 -5.683433743245372e-09 -4.147170312842966e-09
25 -2.576446516435052e-09 -2.576448788608091e-09 -2.6894764314173155e-15
51 -1.7734861607030848e-09 -1.7734817669923456e-09 -5.053029195968876e-09
52 1.7734842938685891e-09 1.7734853873705893e-09 -5.0530241656133915e-09
53 2.4606171449318392e-09 -2.460611475160911e-09 -4.833589134807091e-09
54 -2.4606108154270186e-09 2.4606182248882065e-09 -4.833590966546084e-09
55 1.466369037259529e-09 -1.439951169019782e-09 1.754512255364054e-09
58 -2.2172132448036847e-09 2.2076875130117718e-09 -1.8388598453846378e-09
71 -1.4399456708074746e-09 1.4663662233333657e-09 1.7545113568842576e-09
73 2.207685191834273e-09 -2.2172129649632235e-09 -1.8388607092265895e-09
75 -3.1597794186942507e-09 -3.1597819708146e-09 -3.0026926044219786e-09
6 2.536545211789483e-10 2.260417192970274e-09 -5.139951969196533e-15
7 3.5145506203599145e-09 -1.989001347029522e-09 5.710506506757948e-10
9 -2.461642539489849e-09 1.0212828624217259e-09 -3.5397201570329263e-15
12 -4.813514356638432e-09 5.302281626895248e-09 4.419095295100551e-09
27 4.02700184602217e-09 -4.8621000124571295e-09 -1.6425950450838056e-09
29 3.6167531257722187e-09 3.9311228995134566e-09 -4.50739913260879e-15
56 5.76943305748765e-09 1.1883589394373828e-09 1.4010222871705425e-09
57 1.0789883230745834e-09 -9.11440507695212e-10 4.228215434624546e-09
59 3.446808496237653e-09 -1.173779853574426e-09 2.5539027206086856e-09
62 -2.633031945304342e-09 3.2931558926637577e-09 2.5054378832153727e-09
77 2.0954312194229536e-09 -4.2888253412606145e-09 4.1035698168893846e-09
79 9.80859330882259e-10 7.957109617028068e-11 -1.8420877438412413e-09
60 7.314592943949775e-09 4.039413190082635e-09 4.572340098468646e-09
61 1.6079807330687922e-10 -5.422437276776637e-10 2.2879016281228856e-09
81 -1.3680998691879306e-09 -1.2870820480137194e-09 -7.938392178386919e-10
10 3.224110632171829e-09 5.896110572577515e-11 -4.076773715386026e-15
11 1.7092347341688801e-09 -1.4335455144284735e-09 4.7884194185364145e-09
14 2.4616431724403313e-09 -1.021290819865335e-09 -3.683026795848271e-15
15 4.813521916948714e-09 -5.302278178915968e-09 4.419091405964636e-09
16 -1.7092361017847522e-09 1.4335468271234422e-09 4.788417743803622e-09
31 1.5172012312376994e-09 2.8565784398839906e-09 7.60725671006861e-09
33 -7.82393833230424e-09 2.050841830697723e-09 -2.2243329845340438e-15
35 5.043478983575486e-09 -1.3083381913145298e-09 4.4163324930297185e-09
63 -7.314599563762137e-09 -4.039417376914617e-09 4.572340339827195e-09
64 -3.446806225497013e-09 1.1737834493242463e-09 2.5538995176822192e-09
65 2.633039499149662e-09 -3.2931550060405144e-09 2.5054344244611575e-09
66 -1.6079934167068572e-10 5.422521998553225e-10 2.2879047177586047e-09
83 -2.5321178064296214e-09 -2.06166954342698e-09 -1.9979397179625597e-09
85 -4.4616343487963177e-10 -6.877304305730223e-09 3.2386907804434013e-09
17 -2.5365696832067103e-10 -2.2604030451724365e-09 -4.2625643846127935e-15
19 5.683434765171017e-09 -1.475847420111497e-09 -4.147169857217133e-09
20 -3.5145513428962867e-09 1.988998442106979e-09 5.710489359218137e-10
37 -5.3341993999205144e-09 3.749250618611017e-09 -3.2141631848584334e-15
39 4.178118749911916e-09 -4.178125086805264e-09 -1.4154047386233656e-09
67 -5.769437570117117e-09 -1.188360647726403e-09 1.4010249942960602e-09
68 -1.4663680215161311e-09 1.4399508832593654e-09 1.754509705856322e-09
69 2.217208579564577e-09 -2.2076984813315544e-09 -1.8388558826713083e-09
70 -1.078985247600208e-09 9.114408007734507e-10 4.2282211253296344e-09
87 -6.841270533299578e-09 4.845598110460543e-10 -2.1786348248748046e-10
89 2.50044467416577e-09 -2.5004493237042577e-09 5.104699826577346e-09
22 2.260409237989507e-09 2.5365437987336885e-10 -1.0424288070733338e-14
24 -1.9889984458012424e-09 3.5145534640192546e-09 5.710468757541941e-10
28 -4.862097109692279e-09 4.027003804905398e-09 -1.642592564385856e-09
42 5.30228064175831e-09 -4.813518434489641e-09 4.419093341143007e-09
43 3.9311229758615695e-09 3.6167563040702616e-09 -1.8348175453049434e-15
72 1.1883587424099955e-09 5.769432662172592e-09 1.401022254383954e-09
74 -9.114390743209685e-10 1.0789856662834061e-09 4.22822522626999e-09
78 -4.288822213384398e-09 2.0954353970192776e-09 4.1035706838098895e-09
91 -1.1737859170922736e-09 3.446809930227607e-09 2.55389821483862e-09
92 3.293158064890704e-09 -2.6330341547817785e-09 2.5054393055068256e-09
93 7.957398847075687e-11 9.808548674233555e-10 -1.842085491571919e-09
301 4.039412515263833e-09 7.314598896947572e-09 4.572342638582666e-09
302 -5.422410111625597e-10 1.6080511888311107e-10 2.287900501372514e-09
304 -1.2870792871674532e-09 -1.3680974014199034e-09 -7.938392932632386e-10
26 6.120502054819309e-09 6.120497420673585e-09 -1.0380880474443406e-15
32 -1.5331790145239174e-10 4.942321551646846e-10 1.450698487269669e-09
44 4.942330060875371e-10 -1.533214316290347e-10 1.4506982483739617e-09
45 1.521548986570367e-09 1.5215507462712208e-09 -1.0199245851669929e-14
76 6.531769694067286e-09 6.531773226530671e-09 -3.6666711029501993e-09
82 1.38830513366959e-09 -2.147722551567104e-10 2.820592745214428e-09
94 -2.1477543099191127e-10 1.3883041534583376e-09 2.8205940628350813e-09
95 -6.173830241782434e-10 -6.173859932846317e-10 -1.6428206254339209e-09
30 6.605756643541605e-09 2.7625549775542453e-09 -7.102837316321419e-15
46 -8.643066875574505e-12 -4.950943437595709e-09 -7.428475510573532e-09
80 1.0579395283177358e-09 -2.4015287588980833e-09 -2.83579086588451e-09
96 4.76520449637023e-09 -5.084488332335981e-09 4.371726414237642e-09
253 2.762555564942144e-09 6.60575181206064e-09 -2.113118730029049e-15
256 -4.950939119001661e-09 -8.637689899945359e-12 -7.42847639165538e-09
303 -2.401529478048047e-09 1.0579403576798948e-09 -2.8357863699658134e-09
306 -5.084483941088084e-09 4.765206619648185e-09 4.371725396468044e-09
255 -1.804374646955874e-09 -1.8043744748647653e-09 -1.5244994101258524e-15
305 -1.467558141129245e-09 -1.4675502714243944e-09 1.6952714500167627e-09
34 -3.878670085569713e-09 3.5535907582705825e-09 -1.3299348650532477e-16
36 -1.5120781078702304e-10 -2.7735253434176844e-09 2.244040320859477e-09
47 -1.743560070732601e-09 -7.880659548888759e-10 -9.681433249119104e-15
48 3.750588013299521e-09 -3.750593686582863e-09 -8.306242510797217e-10
84 -1.1194624767991277e-09 -6.576157209894546e-10 -5.9069049538142165e-09
86 -2.006879136835014e-09 1.8856572486182033e-09 -5.556696614989258e-10
97 8.568531890183114e-10 -4.945144219058298e-09 1.6190027843773367e-09
98 1.142255645526219e-09 -1.1422498858615453e-09 -1.0275993123308943e-09
257 7.880635434583671e-10 1.7435613264743404e-09 -3.752756019675715e-15
258 3.888490478038242e-09 -3.888490591677732e-09 -1.3391251592675243e-08
307 4.945143084611544e-09 -8.568487253360653e-10 1.6190079132465153e-09
308 4.70725565363495e-09 -4.707249615361236e-09 7.77566470946309e-09
100 6.877295369306783e-09 4.4615284835182173e-10 3.2386898140856373e-09
310 -1.885663010437864e-09 2.006878297621486e-09 -5.556671814166868e-10
309 2.061668713141255e-09 2.5321199778995565e-09 -1.997947605830873e-09
38 -3.749250005978984e-09 5.3342031114239245e-09 -1.0033619704123946e-14
40 -1.301958819477769e-09 1.3019526306628173e-09 1.66753456798263e-09
49 -3.5535864766191697e-09 3.8786702333402535e-09 -3.606832610871261e-15
50 1.308343564620811e-09 -5.043474789970687e-09 4.416330921736304e-09
88 -4.845618912242679e-10 6.84127283728859e-09 -2.1785821138915652e-10
90 7.310684167175545e-10 -7.31061973921986e-10 5.113072473696464e-09
99 6.576174231213688e-10 1.1194609680003376e-09 -5.906898910614819e-09
259 -2.05084626381394e-09 7.823936524050638e-09 -3.4565992279670983e-15
260 2.77352927927545e-09 1.5121342637541966e-10 2.2440413561768265e-09
101 -2.385626713555298e-09 -2.385635454182772e-09 -4.566500787936449e-09
102 2.385628942427618e-09 2.3856284301564108e-09 -4.566499935792998e-09
105 5.856504824759386e-09 -3.022824393414607e-09 -1.490491079237837e-10
108 -2.864224398586487e-09 3.3769489086539413e-09 -2.4461116856099006e-15
121 -3.0228235446575647e-09 5.85650870804605e-09 -1.4905112991734704e-10
123 3.3769489948230964e-09 -2.864225492088487e-09 -1.8619088110745466e-15
125 7.562311033024453e-10 7.562266166194075e-10 -2.3048066927931424e-09
151 -2.38563584084902e-09 -2.3856261200102933e-09 4.566489769179808e-09
152 2.3856270706674377e-09 2.385629104975213e-09 4.566495074142214e-09
153 5.856508055392829e-09 -3.0228275384642786e-09 1.4904923014233496e-10
161 -3.0228288274543897e-09 5.856501048606364e-09 1.490488407053895e-10
163 7.562320391825355e-10 7.562328679289838e-10 2.304804217020877e-09
106 1.4549075169200271e-09 2.64412008975785e-09 2.8235591636995083e-09
107 -1.458739101064817e-09 -2.6704280288176214e-09 -8.964746127395965e-16
109 3.519745803723633e-10 -2.590237975727605e-09 1.7806404591101569e-09
112 -5.04469707626076e-09 -3.103001638185165e-09 4.295197045653452e-15
127 -2.4254601373221796e-09 2.9969704737993155e-09 3.3543912707454134e-15
129 -4.595865922155788e-09 1.8303200368436286e-09 -3.3008520237747487e-09
154 1.4549122935330023e-09 2.644120823684868e-09 -2.8235590116189935e-09
155 3.5197778329883e-10 -2.5902381432008845e-09 -1.7806408100651908e-09
165 -4.595866131497388e-09 1.8303168437685312e-09 3.300843912095638e-09
110 3.2440453066281393e-10 -1.2998801596063778e-09 -2.440905911231359e-09
111 -3.937821925505007e-09 3.21363593956971e-09 3.1647524103581913e-15
131 -6.218913798860325e-09 -7.325232295418109e-09 -9.112516667957437e-16
156 3.2440193390341884e-10 -1.2998798542139273e-09 2.440897548034474e-09
113 -3.244055441224379e-10 1.2998793665711436e-09 -2.4408971416654874e-09
114 -3.5197392464058954e-10 2.5902393795477403e-09 1.780638699409303e-09
115 5.044690946445193e-09 3.103007760811229e-09 3.5514186581607095e-15
116 3.937827364692321e-09 -3.213642601558247e-09 4.49037730131173e-15
133 3.1986057299491574e-10 -5.355669699677233e-09 -4.269742850891774e-09
135 4.4773101346602116e-09 -8.538948649456616e-09 5.758125397212024e-15
157 -3.2439995223889887e-10 1.299878041561963e-09 2.4408934153850226e-09
158 -3.5197404070203494e-10 2.590241078908957e-09 -1.7806455639666227e-09
167 3.198658237747904e-10 -5.3556694792528435e-09 4.269739235439215e-09
104 2.701727130305009e-09 -2.70173080578935e-09 6.456033346072143e-15
117 -1.45490736045979e-09 -2.644119943834441e-09 2.823553281200573e-09
118 -5.856511434104668e-09 3.022830222654577e-09 -1.4905045263570282e-10
119 2.864228057138787e-09 -3.3769501480490234e-09 5.9847068927396145e-15
120 1.4587373690709394e-09 2.6704282098365337e-09 -8.601476881849014e-16
137 2.8431132877612635e-09 -5.269137661553441e-09 1.309520457231268e-10
139 -9.705608777389065e-10 9.705569772123463e-10 2.7436063697579963e-15
159 -1.4549072878059409e-09 -2.6441205592371717e-09 -2.8235583872884595e-09
160 -5.8565025435516666e-09 3.0228258227867318e-09 1.4904790728814165e-10
169 2.8431082844970442e-09 -5.269132936938585e-09 -1.3095426289694582e-10
122 2.6441128687041013e-09 1.4549124647005451e-09 2.8235589457379608e-09
124 -2.6704257334485582e-09 -1.4587346580972307e-09 -6.861478766737681e-15
128 2.9969727269922036e-09 -2.425462090020643e-09 5.1325634421684596e-15
141 -2.590234468640109e-09 3.519704366401217e-10 1.7806454414402162e-09
142 -3.103008209048535e-09 -5.0446937787138865e-09 -1.59653754864957e-15
143 1.830318586889168e-09 -4.595866047145038e-09 -3.3008563066575828e-09
162 2.6441233998179587e-09 1.4549129972902016e-09 -2.823558845992846e-09
171 -2.5902431871020024e-09 3.5197273077776395e-10 -1.7806451619076102e-09
172 1.8303201190409917e-09 -4.595869282704165e-09 3.30085101062298e-09
351 -1.2998830460576034e-09 3.244037019163656e-10 -2.4409023333371456e-09
352 3.2136443551019952e-09 -3.937831645728023e-09 -6.403390090997118e-17
354 -7.325234799820917e-09 -6.21890723353835e-09 4.6301436042594545e-15
401 -1.2998791941721795e-09 3.244093753815573e-10 2.440894430076068e-09
126 8.045550623425291e-10 8.045554737141642e-10 1.3556546872129539e-09
132 -8.061337335862229e-09 8.457327146157404e-09 -1.9702738741529595e-15
144 8.457330978320247e-09 -8.061337500256954e-09 -1.353947577894487e-15
145 -5.370203294194892e-11 -5.369945240221454e-11 9.108356865669573e-10
164 8.045472121095257e-10 8.045533125700085e-10 -1.3556571993121435e-09
173 -5.3693557281212013e-11 -5.369627779843481e-11 -9.108373095800612e-10
130 1.692471789355285e-09 1.3322784686376332e-08 -7.572536030355658e-09
146 -3.61101508362289e-10 -1.389455882592869e-08 4.4971501177541305e-15
166 1.6924716732938397e-09 1.3322787931171118e-08 7.572538153325758e-09
353 1.3322786391278945e-08 1.6924700244208911e-09 -7.572536197828938e-09
356 -1.3894560943049538e-08 -3.6110328407161805e-10 -8.878546645401774e-16
402 1.3322785174634826e-08 1.6924725134309337e-09 7.572533363097401e-09
355 4.0897204998431095e-09 4.089726397734809e-09 -1.9935974736090602e-08
403 4.089718732753729e-09 4.089718071172704e-09 1.9935973940592526e-08
134 2.990694071861626e-09 5.384123088429887e-09 -3.2108821862895e-10
136 6.663696414704973e-09 8.493852916191858e-09 1.940719766040665e-15
147 6.247345111888475e-10 -5.593839509997616e-10 -8.699463679991551e-09
148 5.5339704909878406e-09 -5.533973677905832e-09 -3.355622691916759e-15
168 2.9906942085493763e-09 5.384115816887871e-09 3.2108135468734096e-10
174 6.247286917423926e-10 -5.593820392183931e-10 8.699464299704256e-09
357 5.593849853935455e-10 -6.247346499737301e-10 -8.699469314974831e-09
358 1.4593582502093975e-08 -1.4593584014894884e-08 -1.289297966398843e-15
404 5.593811156525146e-10 -6.247296029940594e-10 8.699470387542672e-09
175 -5.384114603938017e-09 -2.990695016977375e-09 3.210867988003395e-10
138 5.26913636955212e-09 -2.843106532800428e-09 1.3095160549005805e-10
140 8.637392499418268e-10 -8.637359903699863e-10 5.239697084075527e-15
149 -5.3841220244819956e-09 -2.9906935294206005e-09 -3.2109176758476584e-10
150 8.538949623510763e-09 -4.477313432406108e-09 4.492224433068748e-15
170 5.269129889813917e-09 -2.8431069317808875e-09 -1.3095327837571933e-10
359 5.35566582223982e-09 -3.198606191732097e-10 -4.269738591405942e-09
360 -8.493849524404587e-09 -6.663693746831004e-09 2.2411865318489916e-15
405 5.355661944186696e-09 -3.1986224526486643e-10 4.269736550941062e-09
176 2.460619435375218e-09 -2.46061235224064e-09 4.833595751848755e-09
177 -2.4606182236567852e-09 2.4606194698550106e-09 4.833592729941201e-09
179 -2.2172086251271604e-09 2.2076873159854364e-09 1.8388675436140903e-09
186 2.207687994548859e-09 -2.217213256502186e-09 1.8388660825328707e-09
201 -1.773482106864589e-09 -1.773486842910414e-09 5.053027490758409e-09
202 1.7734864365414273e-09 1.7734860055440174e-09 5.053025797063654e-09
203 3.735948051641253e-09 -3.735940818273293e-09 5.4723681533992425e-09
204 -3.7359401557687025e-09 3.735942497931771e-09 5.472365868805114e-09
205 1.4663680753301908e-09 -1.4399447163729768e-09 -1.7545150162498638e-09
208 -5.683430930833945e-09 1.4758493440914061e-09 4.147175186169403e-09
221 -1.4399428853327851e-09 1.4663651667740007e-09 -1.7545155129307107e-09
223 1.475849900193736e-09 -5.68342899257642e-09 4.1471759841531705e-09
225 -3.1597800763602853e-09 -3.1597841068017793e-09 3.0026829322502434e-09
178 1.0789826702356963e-09 -9.114373995881755e-10 -4.2282176542612075e-09
181 -2.6330349130293646e-09 3.2931559961031362e-09 -2.505433674217809e-09
188 2.0954283988527604e-09 -4.288825974211096e-09 -4.1035646695488885e-09
206 5.769429113762738e-09 1.188357998631608e-09 -1.4010335930022443e-09
207 3.5145454530088242e-09 -1.9890037359865947e-09 -5.710395857408597e-10
209 3.4468119038686482e-09 -1.1737798092432638e-09 -2.5539019214163457e-09
212 -4.81351182339704e-09 5.302280656535365e-09 -4.419086467965739e-09
227 4.027001494782731e-09 -4.8621016970412925e-09 1.642607502140375e-09
229 9.808603572718053e-10 7.957266069087886e-11 1.842078304997963e-09
180 1.6079910246712318e-10 -5.422526825724217e-10 -2.2878969006970086e-09
190 -1.368096587450509e-09 -1.287078605575835e-09 7.938462027674311e-10
210 7.3145939129038654e-09 4.039415712033194e-09 -4.572343761330919e-09
182 2.633032044125891e-09 -3.293163729428092e-09 -2.5054326736881074e-09
183 -1.60798362962633e-10 5.422510324680521e-10 -2.2878953257093306e-09
192 -4.4615870437520206e-10 -6.877306200887405e-09 -3.2386897315804187e-09
211 1.7092365289652374e-09 -1.4335447164675545e-09 -4.788408330204478e-09
213 -7.3145986358429915e-09 -4.039416923751626e-09 -4.572354252423589e-09
214 -3.446807432485778e-09 1.1737843162447508e-09 -2.5539075908794185e-09
215 4.813519367906889e-09 -5.302279459593986e-09 -4.419080648269283e-09
216 -1.7092365316289073e-09 1.43354494304905e-09 -4.788411054723819e-09
231 1.5172012469383193e-09 2.856581290624002e-09 -7.60725015090374e-09
233 -2.5321197146650173e-09 -2.061669262662953e-09 1.997935613020085e-09
235 5.043478458990067e-09 -1.3083408139337694e-09 -4.4163267533756385e-09
184 2.2172095770157257e-09 -2.207690521425103e-09 1.838859473495444e-09
185 -1.0789891074898695e-09 9.114426719179206e-10 -4.2282201356533345e-09
194 2.5004452116811114e-09 -2.5004464110853324e-09 -5.10469665566783e-09
217 -5.769435662030011e-09 -1.1883603959007732e-09 -1.401026997818306e-09
218 -1.466367252801465e-09 1.4399484168766867e-09 -1.7545156126758256e-09
219 5.683432543687223e-09 -1.4758570522878993e-09 4.147178056019291e-09
220 -3.514553952277749e-09 1.9889961812177083e-09 -5.710446992172737e-10
237 -6.841269753809976e-09 4.845647476078924e-10 2.178581473552556e-10
239 4.1781120996218804e-09 -4.17811014502217e-09 1.4154081324201139e-09
18 9.845516273241166e-09 4.467546504047905e-09 8.573769905493737e-15
187 -9.114396259976533e-10 1.0789885447303942e-09 -4.228216991756617e-09
189 -4.28882074190254e-09 2.0954343681668887e-09 -4.103567745638974e-09
196 3.293157877714686e-09 -2.6330344238473045e-09 -2.5054311961366294e-09
222 1.1883548560447787e-09 5.769435286136293e-09 -1.4010253523317657e-09
224 -1.9889921162964218e-09 3.5145484743006684e-09 -5.710391547434497e-10
228 -4.862103055298844e-09 4.0270054017508025e-09 1.6425992300686566e-09
241 -1.1737784054231284e-09 3.4468111776572536e-09 -2.553903843664794e-09
242 5.30228080923159e-09 -4.813523821341556e-09 -4.4190907148295035e-09
243 7.957574757153342e-11 9.808570638358826e-10 1.842080447670801e-09
426 -5.422439074651547e-10 1.6080057740183115e-10 -2.2878941891075895e-09
427 -1.2870818543727402e-09 -1.3681017486444935e-09 7.938440711773835e-10
451 4.039408786520526e-09 7.314594655317347e-09 -4.572347267186994e-09
41 1.021284881952447e-09 -2.4616490580178197e-09 5.426873102120058e-15
191 1.3883075718835093e-09 -2.1477257347908316e-10 -2.820588078128189e-09
197 -2.1477724154428136e-10 1.388301765116976e-09 -2.8205891063648667e-09
226 6.531768639355728e-09 6.531773640288184e-09 3.6666634201135113e-09
232 -1.5331196969660938e-10 4.942329523824217e-10 -1.4506905840085913e-09
244 4.942329581368203e-10 -1.5331287355974915e-10 -1.4506939267013609e-09
245 -6.173824128936038e-10 -6.173847963432532e-10 1.6428165869881895e-09
198 4.765203464322237e-09 -5.08448670255006e-09 -4.371727816210646e-09
230 1.0579385832019868e-09 -2.401529466041691e-09 2.835787189476603e-09
246 -8.645051055398505e-12 -4.950947085680928e-09 7.428489376991631e-09
428 -5.084482621004588e-09 4.765206984148852e-09 -4.371723257489469e-09
453 -2.401532332482322e-09 1.0579389126071501e-09 2.8357882792843394e-09
456 -4.950941405135066e-09 -8.65073065014991e-12 7.428485078716033e-09
455 -1.4675579465647001e-09 -1.467551920605198e-09 -1.6952783903064843e-09
193 -2.006880785092252e-09 1.885656129564214e-09 5.55671301751926e-10
199 1.1422488907033021e-09 -1.1422485516167061e-09 1.0276041875273116e-09
234 -1.1194623736676047e-09 -6.576163484069218e-10 5.906899053459674e-09
236 -1.5121331585536953e-10 -2.7735216468723133e-09 -2.2440323160061525e-09
247 8.568552542282405e-10 -4.9451448710958085e-09 -1.6190096304633388e-09
248 3.7505853830494754e-09 -3.750588912978692e-09 8.306329073548457e-10
429 4.707262109022277e-09 -4.707253395824232e-09 -7.775660603904905e-09
457 4.945134504376678e-09 -8.568487656651086e-10 -1.6190105835833254e-09
458 3.888495666888094e-09 -3.888491432584465e-09 1.3391255900186499e-08
195 7.310732962239459e-10 -7.310652658186323e-10 -5.113068823148402e-09
200 6.877299418835304e-09 4.4615625138422873e-10 -3.238690349753847e-09
238 -4.845696491776474e-10 6.841268803152832e-09 2.1785633470329137e-10
240 -1.3019445854804497e-09 1.3019497685321598e-09 -1.6675331860202205e-09
249 6.576197440424214e-10 1.1194598104644364e-09 5.906899949318577e-09
250 1.3083321967562677e-09 -5.043474586786194e-09 -4.416325993588776e-09
430 -1.885655997494293e-09 2.0068794172911856e-09 5.556660460463667e-10
459 2.0616688870794955e-09 2.532114579964852e-09 1.997940011656509e-09
460 2.7735336298864482e-09 1.5120665024658753e-10 -2.2440321596156636e-09
251 5.89605146436129e-11 3.224123104005452e-09 -3.136121868124406e-15
252 -1.4335469182486088e-09 1.7092386673281014e-09 4.788417797986153e-09
254 2.8565771518174453e-09 1.517206554671423e-09 7.607254228447095e-09
262 -1.021285975454447e-09 2.46164112089266e-09 -2.2319508730638996e-15
263 1.4335463714976087e-09 -1.7092404849057504e-09 4.788412227036774e-09
264 -5.302279691101166e-09 4.81351575245433e-09 4.41909041097633e-09
265 2.0508385994485694e-09 -7.823938118737146e-09 -1.1155382594856476e-15
268 -1.3083383803376796e-09 5.043474285703717e-09 4.416331945047297e-09
311 -4.039415204687671e-09 -7.3145999953752575e-09 4.572345694046448e-09
312 1.1737842325081112e-09 -3.446805285922659e-09 2.5539015575313894e-09
313 5.422457127285919e-10 -1.608058232560211e-10 2.2879018559358023e-09
314 -3.2931619611072903e-09 2.63303482898487e-09 2.5054370113691834e-09
315 -2.061665859014835e-09 -2.532115821006501e-09 -1.99794151583747e-09
318 -6.877299449620833e-09 -4.461584654794948e-10 3.238689437270759e-09
266 3.553592623565802e-09 -3.878670223488884e-09 -3.4421300292037875e-15
267 -2.7735313277445684e-09 -1.5120960927764378e-10 2.2440384297044127e-09
269 -7.880641656339139e-10 -1.7435591930371612e-09 -1.6328644732042653e-15
272 -3.750588316970845e-09 3.750597875261977e-09 -8.306278591437537e-10
316 -6.576210065569773e-10 -1.119462422308741e-09 -5.906901232151582e-09
317 1.88565229337941e-09 -2.0068792772170274e-09 -5.5567049640248e-10
319 -4.945137512738599e-09 8.568467701471005e-10 1.6190057059240656e-09
322 -1.1422452024589755e-09 1.1422503045447436e-09 -1.0275992753882592e-09
270 1.7435529506553882e-09 7.880670212996103e-10 -1.2825867210150093e-14
271 -3.888494374488125e-09 3.8884827735386434e-09 -1.3391248044950848e-08
320 -8.568540053621928e-10 4.9451418541139384e-09 1.6190076072383542e-09
321 -4.707256388793389e-09 4.70725217363872e-09 7.775665912561575e-09
273 1.8043758353542683e-09 1.8043721246974598e-09 -2.6143071467667082e-15
274 -1.521547199470392e-09 -1.5215502352314347e-09 -9.822430973238177e-15
275 4.950942260847713e-09 8.642143334611531e-12 -7.428476016687633e-09
276 8.649387236093397e-12 4.950942113817949e-09 -7.428474316094995e-09
323 1.467552631738899e-09 1.4675555101979126e-09 1.695272839059844e-09
324 6.173847147616007e-10 6.173898993525873e-10 -1.6428230808877366e-09
325 5.084487145553827e-09 -4.765213956455525e-09 4.371726839077946e-09
326 -4.765205211825932e-09 5.084486538155334e-09 4.371724461819375e-09
261 -5.895212004548785e-11 -3.2241162351381587e-09 -1.9801252435237243e-15
277 -2.7625522160922686e-09 -6.6057534553921924e-09 -3.3497734413528674e-15
278 -3.93112846369002e-09 -3.616750313821974e-09 -3.707193436335928e-15
279 -2.856582161854481e-09 -1.5172080385339344e-09 7.607256027245571e-09
280 -4.942312799429101e-10 1.5331792284713205e-10 1.4506950472946269e-09
327 2.4015297015509897e-09 -1.057945875062453e-09 -2.8357916828597774e-09
328 -7.957191968318901e-11 -9.808557178925423e-10 -1.842078403344501e-09
329 1.2870830091379436e-09 1.368101417084343e-09 -7.938449380978882e-10
330 2.1477315594129723e-10 -1.3883004825918258e-09 2.8205893372563362e-09
281 -2.260418035262355e-09 -2.5365313736940696e-10 -1.0234341355053279e-14
282 4.4675481664664865e-09 9.845517189418518e-09 4.673243345256551e-16
283 1.9890014997257476e-09 -3.5145485428754346e-09 5.71049478670695e-10
284 -1.4758520896605787e-09 5.6834328392283045e-09 -4.147171596599537e-09
285 3.749247414453129e-09 -5.334199984845571e-09 -9.620679270457822e-16
288 -4.178118817300358e-09 4.178119488520927e-09 -1.415403969071342e-09
331 -1.1883577424960043e-09 -5.769436466763747e-09 1.4010246442645923e-09
332 1.4399517072340567e-09 -1.4663686818657343e-09 1.7545091163134363e-09
333 9.114414485009869e-10 -1.0789898124784902e-09 4.228218534111635e-09
334 -2.2076958313131934e-09 2.21721409140574e-09 -1.8388552743492497e-09
335 4.845608842296051e-10 -6.841270251919841e-09 -2.1785847060331307e-10
338 -2.500443935005212e-09 2.5004448133163625e-09 5.104694478515199e-09
341 2.0068739343884203e-09 -1.8856559273032867e-09 -5.556682022648377e-10
340 2.532124401164404e-09 2.061667353960137e-09 -1.9979433217166175e-09
286 5.334200580853418e-09 -3.749243676474164e-09 -4.6547720276863665e-15
287 1.3019519021340145e-09 -1.3019546277201018e-09 1.6675347914855725e-09
289 3.878673719801445e-09 -3.553594786249234e-09 -2.7392963956582867e-15
292 -5.043474929429135e-09 1.3083405775009045e-09 4.4163275180881866e-09
336 6.841265412126781e-09 -4.845569347540533e-10 -2.1785737956415528e-10
337 -7.310693525976447e-10 7.310673786295071e-10 5.1130710252373114e-09
339 1.1194651874907236e-09 6.576137873503604e-10 -5.906901872798446e-09
342 4.4615876533055e-10 6.877299478559231e-09 3.2386908644878963e-09
290 7.823939719896433e-09 -2.0508388358814344e-09 -2.893839752662159e-15
291 1.5120534245176327e-10 2.7735283138412516e-09 2.2440402586727076e-09
346 1.3680964310600203e-09 1.287075472840375e-09 -7.938424924954418e-10
345 -1.3883063943370142e-09 2.1476984403405687e-10 2.8205918749075153e-09
344 -9.80856805853147e-10 -7.957360549877257e-11 -1.842085952123437e-09
343 -1.0579388269625179e-09 2.401533693818427e-09 -2.835789831490726e-09
296 -1.5172038412613283e-09 -2.85658230516112e-09 7.607255594401028e-09
295 1.5331572893232156e-10 -4.94230520771758e-10 1.4506988271419122e-09
294 -3.6167637246142404e-09 -3.931124608110332e-09 -3.42396656692644e-15
293 -6.605751385681059e-09 -2.7625497945025354e-09 -4.644920658315602e-15
13 -3.2241119774994587e-09 -5.896484678329371e-11 -7.339270181219774e-15
350 -2.0954260222099e-09 4.288829718962879e-09 4.103569177473941e-09
349 4.288827962956288e-09 -2.0954323104621113e-09 4.103570638247306e-09
348 3.1597771646649258e-09 3.1597813873620497e-09 -3.0026878259179784e-09
347 -6.531773904581953e-09 -6.531773769895263e-09 -3.666669473164279e-09
300 -4.027004002548496e-09 4.862097210973965e-09 -1.6425895572553555e-09
299 4.862098012013437e-09 -4.027001649302638e-09 -1.6425979284564785e-09
298 2.576455865646743e-09 2.5764422510542724e-09 -1.0792175145672836e-14
297 -6.120497591841128e-09 -6.120505994443491e-09 -1.9047006967788062e-15
361 1.2998871491529464e-09 -3.244044112149603e-10 -2.4409026929121277e-09
362 2.5902344144575775e-09 -3.5197450002213185e-10 1.7806427190758615e-09
363 -3.2136361784654174e-09 3.937824796563468e-09 3.5083189171636135e-15
364 3.1030057609832466e-09 5.044698352212117e-09 -2.1512927863407628e-15
365 -5.355667137705486e-09 3.1986329443570443e-10 -4.26974116384477e-09
368 -8.538948283567595e-09 4.477307996913059e-09 5.91328446480157e-15
406 1.2998809674186663e-09 -3.244056278590776e-10 2.4409000847620867e-09
407 2.5902415222205784e-09 -3.5196974889139755e-10 -1.7806470909288751e-09
408 -5.355669005617476e-09 3.1986207286590246e-10 4.269728411247119e-09
366 5.384115461930718e-09 2.990693904388347e-09 -3.2109021568623467e-10
367 8.493849693724998e-09 6.663693262266773e-09 3.7570659937754245e-15
369 -5.593764811989362e-10 6.247343045600915e-10 -8.699466615699624e-09
372 -5.533964621201164e-09 5.5339692497152996e-09 -7.973452084462758e-16
409 5.38411213155216e-09 2.990696219460149e-09 3.2108169825384775e-10
410 -5.593786127889838e-10 6.247330312706004e-10 8.699465306698919e-09
370 -6.247422561544502e-10 5.593800270761991e-10 -8.699468840108042e-09
371 -1.45935849843312e-08 1.4593584482834928e-08 2.255963585905139e-15
411 -6.247327107932405e-10 5.593793374803432e-10 8.699459072629239e-09
373 -4.089724650963878e-09 -4.089727120886892e-09 -1.993597620887032e-08
374 5.3699231054258985e-11 5.370472042198555e-11 9.108352226290311e-10
375 1.3894561299853823e-08 3.6110497850714985e-10 4.738508667337867e-15
376 3.611037046019481e-10 1.38945651548178e-08 1.1176994261718336e-14
412 -4.08971943312452e-09 -4.089720976095247e-09 1.9935968315460613e-08
413 5.3695951779679696e-11 5.369832195757924e-11 -9.108399171143915e-10
377 -1.332278560809508e-08 -1.6924742980680663e-09 -7.572534709964307e-09
378 -1.83031712114615e-09 4.595870582161357e-09 -3.3008502948594244e-09
379 7.3252266077915745e-09 6.218912137673165e-09 -2.0687875678606074e-16
380 -8.457327089942545e-09 8.061332387396251e-09 1.866834495759929e-15
414 -1.332278610312639e-08 -1.692474582526357e-09 7.572532466007078e-09
415 -1.8303187032145e-09 4.5958689588403975e-09 3.300850459869861e-09
381 -2.6441208458504493e-09 -1.454914580897828e-09 2.82355840883833e-09
382 3.022825386863637e-09 -5.856503761427205e-09 -1.4904788142829704e-10
383 2.6704242027920423e-09 1.4587367277229827e-09 4.275494306911922e-15
384 -3.3769490496213388e-09 2.8642260486908565e-09 2.3150718021297273e-16
385 -5.26912950207258e-09 2.8431128401396677e-09 1.3095321680466077e-10
388 9.705643303360157e-10 -9.705625250725787e-10 -5.49402678712259e-16
416 -2.644117636766877e-09 -1.454910124384609e-09 -2.8235594235293754e-09
417 3.022826529622484e-09 -5.8565108408675186e-09 1.490469892636584e-10
418 -5.269133084566585e-09 2.843105555052018e-09 -1.3095633045309252e-10
103 -2.701729867138562e-09 2.701733877877317e-09 -1.5232679889545068e-15
421 -3.198684060649867e-10 5.355672854578274e-09 4.269735099095501e-09
391 -6.6636954049396114e-09 -8.493853830068713e-09 3.9356220636205366e-15
390 -3.198609885995611e-10 5.355666469351645e-09 -4.269738891872708e-09
386 -2.8431106386664687e-09 5.269129865493348e-09 1.3095710994269397e-10
387 -8.637421283888148e-10 8.63741374759058e-10 4.1067896064375747e-16
389 -2.9906900184363596e-09 -5.384117244105009e-09 -3.2108871181312915e-10
392 -4.477312311812843e-09 8.538947062154726e-09 -1.1698501127783196e-16
419 -2.8431091237105725e-09 5.26913452980889e-09 -1.309585777967302e-10
420 -2.9906915246669335e-09 -5.384112708780834e-09 3.210859445019018e-10
423 4.5958637086762336e-09 -1.83031588572286e-09 3.3008551171047313e-09
422 -1.6924666361655383e-09 -1.332279386169548e-08 7.572526438508299e-09
396 6.218910496804455e-09 7.325234487039939e-09 -2.310146117444345e-15
395 8.0613307357502e-09 -8.457331866871794e-09 -2.762693397913853e-15
394 4.5958627152272034e-09 -1.830320015293758e-09 -3.3008499094245975e-09
393 -1.6924659743189737e-09 -1.3322780964405842e-08 -7.57253606421974e-09
425 -7.562302339190984e-10 -7.562259534991068e-10 2.3048079990231495e-09
424 -8.045476655803721e-10 -8.045534932810655e-10 -1.3556529527562341e-09
400 2.4254646205911503e-09 -2.9969743866400872e-09 2.113118730029049e-15
399 -2.9969716082460696e-09 2.425460348791107e-09 -1.295455072255571e-15
398 -7.562294027098077e-10 -7.562253079265576e-10 -2.304814785385225e-09
397 -8.045526020399927e-10 -8.045536687585823e-10 1.35565732183855e-09
431 5.422479588408084e-10 -1.6080560714160553e-10 -2.2878965463555668e-09
432 -3.293161695120317e-09 2.6330386636303973e-09 -2.5054325930300203e-09
434 -6.877304211526503e-09 -4.461521261233047e-10 -3.238683824299132e-09
452 -1.433542800376212e-09 1.7092427359436516e-09 -4.788418748027587e-09
454 2.8565807703485574e-09 1.517205145925603e-09 -7.607252603279003e-09
461 -4.039415785918464e-09 -7.3146008844613425e-09 -4.572342115536524e-09
462 1.1737874883856883e-09 -3.4467999575632508e-09 -2.5539079242867007e-09
463 1.4335431648768786e-09 -1.709241919511415e-09 -4.788404582374142e-09
464 -5.302279629530108e-09 4.813520254530133e-09 -4.419087993696571e-09
465 -2.06166439239222e-09 -2.532114660007228e-09 1.9979401150958872e-09
468 -1.3083374543089586e-09 5.0434734120103966e-09 -4.416330472113649e-09
433 1.8856598955580114e-09 -2.006880469232721e-09 5.556733028113295e-10
436 -1.1422452486372694e-09 1.1422485066698333e-09 1.0276098811570249e-09
466 -6.576181804453891e-10 -1.1194649294822458e-09 5.906899158130474e-09
467 -2.7735317316507126e-09 -1.5120337582367442e-10 -2.2440383616683933e-09
469 -4.945143150184722e-09 8.568519421160202e-10 -1.6190133641323303e-09
472 -3.75058901641807e-09 3.750590797053084e-09 8.306404531959284e-10
435 -4.707262169700078e-09 4.7072550551642604e-09 -7.775664040801395e-09
470 -8.568495174612626e-10 4.945146671433561e-09 -1.6190157543208238e-09
471 -3.8884901369947055e-09 3.8884937873696e-09 1.3391256977064315e-08
437 5.084486190278853e-09 -4.765209395271505e-09 -4.371721530421277e-09
438 -4.7652054633437055e-09 5.084493246937876e-09 -4.3717200150035974e-09
473 1.4675594238323738e-09 1.4675497619238847e-09 -1.6952735680611774e-09
474 6.173807815666032e-10 6.173809247550905e-10 1.6428154990275846e-09
475 4.950940777129509e-09 8.647507405233912e-12 7.428483364577763e-09
476 8.64415670822668e-12 4.950946133176653e-09 7.428484017692766e-09
439 1.2870809009448983e-09 1.3681004688900412e-09 7.938432116454059e-10
440 2.14773449019536e-10 -1.3883006266681028e-09 -2.8205886509524597e-09
477 2.4015283611490447e-09 -1.0579393103561885e-09 2.8357837956798547e-09
478 -7.957263698602131e-11 -9.808562868091234e-10 1.842077837057918e-09
479 -2.8565811422377512e-09 -1.5172039120415892e-09 -7.607249880606794e-09
480 -4.942322219801062e-10 1.5331615516609177e-10 -1.4506879838627879e-09
441 9.114410593718967e-10 -1.0789905464055081e-09 -4.228210368249992e-09
442 -2.2076934534389117e-09 2.217207357994775e-09 1.8388626678019624e-09
444 -2.5004432487957643e-09 2.5004453963942872e-09 -5.1046919183905836e-09
481 -1.188356683473797e-09 -5.769437474066265e-09 -1.4010321337681564e-09
482 1.439947160827092e-09 -1.4663687157298164e-09 -1.7545195495293106e-09
483 1.9889964853787375e-09 -3.5145547742513808e-09 -5.710431143782262e-10
484 -1.4758602392058906e-09 5.6834321594838176e-09 4.14718169240601e-09
485 4.84558514132277e-10 -6.841272549136035e-09 2.178493075983771e-10
488 -4.17811192629935e-09 4.178124608398139e-09 1.4154115754737088e-09
491 1.5120855017561183e-10 2.7735213680101346e-09 -2.2440312077270983e-09
490 2.532118884089701e-09 2.061669116739544e-09 1.997935039177819e-09
443 -7.310691623430737e-10 7.31067069542793e-10 -5.1130638731431476e-09
446 4.461616767180544e-10 6.877298396140021e-09 -3.238690278331419e-09
486 6.8412661993127654e-09 -4.845649697771963e-10 2.1785566481017416e-10
487 1.3019527143782617e-09 -1.301952899420488e-09 -1.6675289354621922e-09
489 1.1194636289388427e-09 6.576194734376191e-10 5.9068914401982825e-09
492 -5.043477145371532e-09 1.3083414416507116e-09 -4.416323314016308e-09
445 2.0068721846247684e-09 -1.885663680946692e-09 5.556793533992549e-10
496 -1.51720208167592e-09 -2.856580022106268e-09 -7.607246489272888e-09
495 1.5331176083964182e-10 -4.942340832732067e-10 -1.4506891272373455e-09
494 -9.808565592610575e-10 -7.957171465156397e-11 1.842080941470691e-09
493 -1.0579406062459862e-09 2.401526140280962e-09 2.8357840395012466e-09
448 1.3681030803375008e-09 1.2870931412713413e-09 7.938491027642896e-10
447 -1.3883050103453415e-09 2.147706296807642e-10 -2.8205897146869255e-09
500 -4.027000776225027e-09 4.862099961968861e-09 1.6425954329814747e-09
499 4.86210335638132e-09 -4.027001112403007e-09 1.6426090488053662e-09
498 3.159780306020334e-09 3.159781313322852e-09 3.0026841021003562e-09
497 -6.531768229423557e-09 -6.531771758368779e-09 3.666663416727103e-09
450 -2.0954322605895538e-09 4.2888271668425014e-09 -4.103567709509646e-09
449 4.288824029797067e-09 -2.0954328916929045e-09 -4.103566045046337e-09
