LAMMPS data file via write_data, version 29 Aug 2024, timestep = 27, units = metal

500 atoms
3 atom types

0 17.63456915721449 xlo xhi
0 17.63456915721449 ylo yhi
0 17.63456915721449 zlo zhi

Masses

1 55.2706
2 58.71
3 58.71

Atoms # atomic

1 2 0.0046260592738402205 0.004626059273838404 4.72626810715577e-16 0 0 0
2 3 1.7588308564476103 1.7588308564476098 8.504729105133969e-16 0 0 0
3 1 1.758215703785394 0.005241211936054735 1.7527234354474508 0 0 0
4 1 0.005241211936054896 1.7582157037853938 1.7527234354474508 0 0 0
5 1 3.5213338164562944 0.005184478917243143 4.487252359736181e-16 0 0 0
8 1 3.520860795300461 1.7628253815369908 1.7576337731449463 0 0 0
21 1 0.005184478917242953 3.5213338164562944 9.544008969419863e-16 0 0 0
23 1 1.762825381536991 3.520860795300461 1.7576337731449463 0 0 0
25 1 3.5204054471650887 3.520405447165089 4.025255798669499e-16 0 0 0
51 1 0.0006498130497439117 0.0006498130497431042 3.5254161410181246 0 0 0
52 1 1.7628071026717065 1.762807102671707 3.525416141018125 0 0 0
53 1 1.7632408147802943 0.0002161009411562397 5.290305798899376 0 0 0
54 1 0.00021610094115645206 1.763240814780294 5.290305798899375 0 0 0
55 1 3.5247929688957553 0.0006120040246351561 3.524513294672845 0 0 0
58 1 3.5262892097218024 1.7632054467307314 5.289866223619984 0 0 0
71 1 0.000612004024634747 3.5247929688957558 3.5245132946728446 0 0 0
73 1 1.763205446730731 3.5262892097218024 5.289866223619984 0 0 0
75 1 3.5259211938109503 3.5259211938109503 3.525675407329935 0 0 0
6 1 5.28979396417065 1.763283868181588 5.251495075266871e-16 0 0 0
7 1 5.289569887586441 0.0005993614401187339 1.762649701879815 0 0 0
9 1 7.053947709657263 0.00021812391048701765 1.117014656238702e-15 0 0 0
12 1 7.05381784529291 1.7634315736861437 1.7632081576793832 0 0 0
27 1 5.289135655737088 3.525950457366498 1.7626476234276818 0 0 0
29 1 7.053749553387404 3.5266058304778385 2.6557100224170974e-16 0 0 0
56 1 5.288434301776677 1.7632127238481312 3.5250194680523483 0 0 0
57 1 5.289353076488417 0.00024590387525394485 5.289287498194822 0 0 0
59 1 7.053325397814056 0.00024262689033572725 3.5264166207937278 0 0 0
62 1 7.053002758913548 1.7633499896213283 5.2895571722004275 0 0 0
77 1 5.289735602581543 3.5264632890581025 5.289676148481287 0 0 0
79 1 7.05318787566001 3.526519771945564 3.526388066947887 0 0 0
11 1 8.817280517367445 3.345542771508865e-05 1.7634298409992697 0 0 0
31 1 8.817281484270525 3.526842005045147 1.7634028019658703 0 0 0
60 1 8.817218094314924 1.7634347875031544 3.526756978622722 0 0 0
61 1 8.817074865264466 0.00010515880577271317 5.29007247515671 0 0 0
81 1 8.817076827677308 3.5266858948834554 5.290051564736366 0 0 0
10 1 8.81741808952751 1.7634701820925633 9.666906399584937e-16 0 0 0
14 1 12.344078363278676 1.7632387918109633 2.0593166896387195e-16 0 0 0
15 1 12.344208227643032 2.5342035305235514e-05 1.7632081576793839 0 0 0
16 1 10.580745555568495 1.763423460293735 1.7634298409992695 0 0 0
33 1 10.580809934022799 3.5268133071247845 5.894873355279581e-16 0 0 0
35 1 12.344630587358315 3.5265033007490456 1.763183979639985 0 0 0
63 1 10.580807978621017 2.2128218296026585e-05 3.5267569786227226 0 0 0
64 1 12.344700675121883 1.7632142888311135 3.526416620793728 0 0 0
65 1 12.345023314022392 0.00010692610012216422 5.2895571722004275 0 0 0
66 1 10.580951207671474 1.7633517569156767 5.29007247515671 0 0 0
83 1 10.580947888094173 3.5267386442273487 3.5267213347595328 0 0 0
85 1 12.344657228637006 3.526604449642373 5.289925827328703 0 0 0
17 1 14.10823210876529 0.0001730475398613711 8.665722412216669e-16 0 0 0
18 1 15.876692256479645 1.7582724368042055 1.2302536947563577e-15 0 0 0
19 1 15.877165277635479 0.0006315341844587327 1.7576337731449463 0 0 0
20 1 14.108456185349498 1.7628575542813303 1.7626497018798146 0 0 0
37 1 14.109111079107066 3.5252474514106447 6.882316490405644e-16 0 0 0
39 1 15.872568779815785 3.5254572931201547 1.7621944172916373 0 0 0
67 1 14.109591771159263 0.00024419187331911304 3.5250194680523483 0 0 0
68 1 15.873233104040184 1.7628449116968146 3.5245132946728446 0 0 0
69 1 15.871736863214137 0.0002514689907190973 5.289866223619983 0 0 0
70 1 14.108672996447524 1.7632110118461954 5.289287498194822 0 0 0
87 1 14.108490459624687 3.526285898435663 3.5261253281330878 0 0 0
89 1 15.871755697288698 3.5262703756472416 5.289450558378858 0 0 0
22 1 1.763283868181589 5.28979396417065 4.2567992170137475e-19 0 0 0
24 1 0.0005993614401199138 5.289569887586442 1.7626497018798144 0 0 0
28 1 3.5259504573664975 5.289135655737087 1.7626476234276816 0 0 0
41 1 0.00021812391048729176 7.0539477096572645 8.750908257542162e-16 0 0 0
42 1 1.763431573686145 7.05381784529291 1.7632081576793834 0 0 0
43 1 3.5266058304778385 7.053749553387403 2.201660309246217e-16 0 0 0
72 1 1.7632127238481317 5.288434301776677 3.525019468052349 0 0 0
74 1 0.0002459038752539408 5.289353076488417 5.289287498194822 0 0 0
78 1 3.526463289058103 5.289735602581542 5.289676148481287 0 0 0
91 1 0.00024262689033557557 7.0533253978140555 3.5264166207937278 0 0 0
92 1 1.7633499896213283 7.053002758913548 5.2895571722004275 0 0 0
93 1 3.5265197719455643 7.05318787566001 3.526388066947887 0 0 0
252 1 3.345542771531618e-05 8.817280517367443 1.763429840999269 0 0 0
254 1 3.5268420050451468 8.817281484270525 1.7634028019658705 0 0 0
301 1 1.7634347875031544 8.817218094314923 3.526756978622722 0 0 0
302 1 0.00010515880577375692 8.817074865264466 5.29007247515671 0 0 0
304 1 3.5266858948834545 8.817076827677308 5.290051564736366 0 0 0
26 1 5.288327722010329 5.288327722010329 9.609954183197033e-16 0 0 0
32 1 7.053191798012581 5.289800718806815 1.7631254974532058 0 0 0
44 1 5.2898007188068155 7.053191798012581 1.763125497453206 0 0 0
45 1 7.053020205061095 7.053020205061094 1.044706680708522e-15 0 0 0
76 1 5.289761121587576 5.289761121587576 3.5263513048572155 0 0 0
82 1 7.053482585956516 5.290035034449831 5.2900122411165285 0 0 0
94 1 5.290035034449831 7.053482585956517 5.2900122411165285 0 0 0
95 1 7.053493929000412 7.053493929000412 3.526606924945472 0 0 0
30 1 8.817217951771392 5.290164742650116 6.660048736187139e-16 0 0 0
46 1 8.817080771319237 7.053525612803284 1.7632764366732891 0 0 0
80 1 8.817078436472581 5.290090849041457 3.526654717372525 0 0 0
96 1 8.81717976393188 7.053621533424278 5.29014928446895 0 0 0
253 1 5.290164742650116 8.817217951771392 6.831893215899049e-16 0 0 0
256 1 7.053525612803284 8.817080771319237 1.7632764366732898 0 0 0
303 1 5.290090849041458 8.817078436472581 3.526654717372525 0 0 0
306 1 7.053621533424278 8.81717976393188 5.290149284468949 0 0 0
255 1 8.817069616274036 8.817069616274036 9.259251941166562e-16 0 0 0
305 1 8.81718518640033 8.81718518640033 3.5266915593299246 0 0 0
34 1 12.344860739656596 5.289667059785434 1.3424534813253728e-18 0 0 0
36 1 10.580945849536212 5.290133365017744 1.7633371810241263 0 0 0
47 1 10.580958860848337 7.0535132341428675 5.988620666206659e-16 0 0 0
48 1 12.344604906499885 7.0534211664360535 1.7632588990183053 0 0 0
84 1 12.344648272262106 5.289976755674915 3.5265649324672084 0 0 0
86 1 10.58085270760348 5.2901123779141255 5.290119004854224 0 0 0
97 1 10.580844419931658 7.053597401454354 3.5266834596162697 0 0 0
98 1 12.344443769146768 7.053582303789172 5.290114784241409 0 0 0
257 1 12.344512838793072 8.817067212087602 8.203540976297813e-16 0 0 0
258 1 10.580850364896657 8.817175708039281 1.763291699757065 0 0 0
307 1 12.344428671481586 8.817181653004281 3.5266834596162697 0 0 0
308 1 10.580814665890456 8.817211407045484 5.290176771175456 0 0 0
100 1 15.871421623293568 7.053368844298933 5.289925827328703 0 0 0
38 1 15.872778621525294 5.2889149938288735 3.251145945828269e-16 0 0 0
40 1 14.10848246518906 5.28954360774688 1.7629739099573374 0 0 0
49 1 14.108359013150507 7.0531653332793445 1.8087492572038237e-16 0 0 0
50 1 15.871522772186893 7.053395485577624 1.7631839796399853 0 0 0
88 1 15.871740174500276 5.289535613311254 3.526125328133088 0 0 0
90 1 14.108104135803792 5.289921937132148 5.289885680301961 0 0 0
99 1 14.108049317261024 7.053377800673834 3.526564932467209 0 0 0
259 1 15.871212765811155 8.81721613891314 8.84925012050038e-17 0 0 0
260 1 14.107892707918195 8.817080223399728 1.7633371810241258 0 0 0
309 1 15.871287428708591 8.817078184841765 3.5267213347595323 0 0 0
310 1 14.107913695021814 8.81717336533246 5.290119004854224 0 0 0
101 1 3.942765781944186e-05 3.94276578195024e-05 7.053935444268941 0 0 0
102 1 1.7634174880636302 1.7634174880636309 7.053935444268941 0 0 0
105 1 3.5267524797443284 3.9390111198324265e-05 7.053735796253318 0 0 0
108 1 3.526863767667845 1.7634302131553394 8.817284578607245 0 0 0
121 1 3.9390111199562044e-05 3.5267524797443284 7.053735796253319 0 0 0
123 1 1.7634302131553383 3.5268637676678454 8.817284578607245 0 0 0
125 1 3.526710793297846 3.526710793297846 7.053592152904028 0 0 0
151 1 3.942765781934088e-05 3.94276578195216e-05 10.580633712945549 0 0 0
152 1 1.7634174880636302 1.76341748806363 10.580633712945549 0 0 0
153 1 3.526752479744328 3.939011119868066e-05 10.580833360961172 0 0 0
161 1 3.9390111198572005e-05 3.5267524797443275 10.580833360961172 0 0 0
163 1 3.526710793297846 3.5267107932978456 10.580977004310462 0 0 0
106 1 5.29003426322322 1.7633482539559575 7.053531094727712 0 0 0
107 1 5.290204766909351 2.768746587356922e-05 8.817284578607245 0 0 0
109 1 7.0533868981807775 0.00010682347775726232 7.053388623682407 0 0 0
112 1 7.053595407787759 1.7633633437013745 8.817284578607245 0 0 0
127 1 5.290177503867142 3.5267581932551835 8.817284578607245 0 0 0
129 1 7.053513138601493 3.5266749290785793 7.053516903155951 0 0 0
154 1 5.29003426322322 1.7633482539559577 10.581038062486778 0 0 0
155 1 7.0533868981807775 0.00010682347775704667 10.581180533532084 0 0 0
165 1 7.053513138601493 3.5266749290785793 10.58105225405854 0 0 0
110 1 8.8170573697963 1.7633643158036472 7.053500267740148 0 0 0
111 1 8.817164822092476 9.252988230482734e-05 8.817284578607245 0 0 0
131 1 8.817170798490505 3.5266999514679696 8.817284578607245 0 0 0
156 1 8.8170573697963 1.7633643158036474 10.581068889474343 0 0 0
113 1 10.58096870313964 9.259991780269758e-05 7.053500267740148 0 0 0
114 1 12.344639174755162 1.7633500922436927 7.053388623682407 0 0 0
115 1 12.344430665148181 9.357202007551347e-05 8.817284578607245 0 0 0
116 1 10.580861250843464 1.763364385839146 8.817284578607245 0 0 0
133 1 10.580851383239027 3.5266905917108633 7.053620073456915 0 0 0
135 1 12.34445553419186 3.526694024459602 8.817284578607245 0 0 0
157 1 10.580968703139638 9.259991780291357e-05 10.581068889474343 0 0 0
158 1 12.344639174755162 1.7633500922436933 10.581180533532084 0 0 0
167 1 10.580851383239027 3.526690591710863 10.580949083757575 0 0 0
104 1 17.63456574968679 1.7634603232491477 8.817284578607245 -1 0 0
117 1 14.107991809712718 0.0001086617654931792 7.0535310947277114 0 0 0
118 1 15.87127359319161 1.7634175256102511 7.053735796253318 0 0 0
119 1 15.871162305268095 2.6702566110694437e-05 8.817284578607245 0 0 0
120 1 14.107821306026587 1.7634292282555764 8.817284578607245 0 0 0
137 1 14.108028156580422 3.526644382169293 7.053395944245161 0 0 0
139 1 15.871192538148359 3.5268335347875808 8.817284578607245 0 0 0
159 1 14.107991809712718 0.00010866176549155152 10.581038062486778 0 0 0
160 1 15.871273593191612 1.763417525610251 10.580833360961172 0 0 0
169 1 14.108028156580422 3.5266443821692937 10.581173212969327 0 0 0
122 1 1.7633482539559573 5.29003426322322 7.053531094727712 0 0 0
124 1 2.7687465873789522e-05 5.290204766909351 8.817284578607245 0 0 0
128 1 3.5267581932551835 5.290177503867142 8.817284578607245 0 0 0
141 1 0.00010682347775713625 7.0533868981807775 7.053388623682407 0 0 0
142 1 1.7633633437013747 7.053595407787759 8.817284578607245 0 0 0
143 1 3.526674929078579 7.053513138601493 7.05351690315595 0 0 0
162 1 1.7633482539559575 5.29003426322322 10.581038062486778 0 0 0
171 1 0.0001068234777575524 7.0533868981807775 10.581180533532084 0 0 0
172 1 3.5266749290785793 7.053513138601493 10.58105225405854 0 0 0
351 1 1.763364315803647 8.8170573697963 7.053500267740147 0 0 0
352 1 9.25298823035565e-05 8.817164822092476 8.817284578607245 0 0 0
354 1 3.526699951467969 8.817170798490505 8.817284578607245 0 0 0
401 1 1.7633643158036472 8.817057369796302 10.581068889474343 0 0 0
126 1 5.290070971029867 5.290070971029866 7.053509027259075 0 0 0
132 1 7.053616302755431 5.290133044942309 8.817284578607245 0 0 0
144 1 5.290133044942309 7.05361630275543 8.817284578607245 0 0 0
145 1 7.053621934612705 7.053621934612705 7.053663839430604 0 0 0
164 1 5.290070971029866 5.290070971029866 10.581060129955414 0 0 0
173 1 7.053621934612705 7.053621934612705 10.580905317783886 0 0 0
130 1 8.817182989269234 5.290130333319613 7.053663817240858 0 0 0
146 1 8.817212318631123 7.05365558961362 8.817284578607245 0 0 0
166 1 8.817182989269234 5.290130333319612 10.580905339973631 0 0 0
353 1 5.290130333319613 8.817182989269233 7.0536638172408574 0 0 0
356 1 7.053655589613621 8.817212318631123 8.817284578607245 0 0 0
402 1 5.290130333319613 8.817182989269234 10.580905339973631 0 0 0
355 1 8.817216136569781 8.817216136569781 7.0537127442936365 0 0 0
403 1 8.817216136569781 8.817216136569781 10.580856412920854 0 0 0
134 1 12.344445328717015 5.290100217547705 7.053621237807817 0 0 0
136 1 10.580820448675663 5.2901385192603385 8.817284578607245 0 0 0
147 1 10.580813715718747 7.053647615418571 7.053698443359534 0 0 0
148 1 12.344386310019086 7.053639762916854 8.817284578607245 0 0 0
168 1 12.344445328717013 5.290100217547705 10.580947919406674 0 0 0
174 1 10.580813715718746 7.053647615418572 10.580870713854955 0 0 0
357 1 12.344378457517367 8.817212357217194 7.053698443359534 0 0 0
358 1 10.580804261489401 8.817221811446537 8.817284578607245 0 0 0
404 1 12.344378457517367 8.817212357217194 10.580870713854955 0 0 0
175 1 14.107925855388235 7.053580744218925 10.580947919406674 0 0 0
138 1 15.871381690766645 5.2899979163555155 7.05339594424516 0 0 0
140 1 14.107920890237319 5.29010518269862 8.817284578607245 0 0 0
149 1 14.107925855388235 7.053580744218925 7.053621237807817 0 0 0
150 1 15.871332048476336 7.053570538744078 8.817284578607245 0 0 0
170 1 15.871381690766645 5.2899979163555155 10.581173212969329 0 0 0
359 1 15.871335481225078 8.81717468969691 7.053620073456915 0 0 0
360 1 14.107887553675601 8.817205624260277 8.817284578607246 0 0 0
405 1 15.871335481225078 8.817174689696913 10.580949083757575 0 0 0
176 1 1.7632408147802943 0.00021610094115516717 12.344263358315114 0 0 0
177 1 0.00021610094115644856 1.7632408147802938 12.344263358315114 0 0 0
179 1 3.526289209721802 1.7632054467307314 12.344702933594506 0 0 0
186 1 1.7632054467307317 3.5262892097218015 12.344702933594506 0 0 0
201 1 0.0006498130497446383 0.0006498130497445117 14.109153016196364 0 0 0
202 1 1.7628071026717067 1.7628071026717065 14.109153016196364 0 0 0
203 1 1.758215703785395 0.005241211936054566 15.88184572176704 0 0 0
204 1 0.005241211936054976 1.7582157037853938 15.88184572176704 0 0 0
205 1 3.524792968895755 0.000612004024634763 14.110055862541646 0 0 0
208 1 3.520860795300461 1.7628253815369903 15.876935384069544 0 0 0
221 1 0.0006120040246353893 3.5247929688957553 14.110055862541646 0 0 0
223 1 1.762825381536991 3.520860795300461 15.876935384069544 0 0 0
225 1 3.5259211938109503 3.5259211938109503 14.108893749884556 0 0 0
178 1 5.289353076488416 0.00024590387525386267 12.345281659019667 0 0 0
181 1 7.053002758913548 1.7633499896213278 12.345011985014063 0 0 0
188 1 5.289735602581542 3.526463289058103 12.344893008733203 0 0 0
206 1 5.288434301776677 1.7632127238481314 14.109549689162142 0 0 0
207 1 5.289569887586441 0.0005993614401191588 15.871919455334675 0 0 0
209 1 7.0533253978140555 0.00024262689033674353 14.10815253642076 0 0 0
212 1 7.053817845292909 1.7634315736861446 15.871360999535106 0 0 0
227 1 5.289135655737088 3.5259504573664975 15.871921533786807 0 0 0
229 1 7.05318787566001 3.526519771945564 14.108181090266603 0 0 0
180 1 8.817074865264466 0.00010515880577355842 12.344496682057779 0 0 0
190 1 8.817076827677308 3.526685894883455 12.344517592478125 0 0 0
210 1 8.817218094314923 1.7634347875031544 14.107812178591766 0 0 0
211 1 8.817280517367445 3.345542771556266e-05 15.87113931621522 0 0 0
231 1 8.817281484270525 3.526842005045147 15.87116635524862 0 0 0
182 1 12.345023314022392 0.00010692610012198754 12.345011985014063 0 0 0
183 1 10.580951207671474 1.7633517569156767 12.34449668205778 0 0 0
192 1 12.344657228637006 3.5266044496423725 12.344643329885788 0 0 0
213 1 10.580807978621015 2.2128218295791595e-05 14.107812178591766 0 0 0
214 1 12.344700675121885 1.7632142888311138 14.108152536420763 0 0 0
215 1 12.344208227643032 2.534203530570685e-05 15.871360999535106 0 0 0
216 1 10.580745555568495 1.7634234602937346 15.87113931621522 0 0 0
233 1 10.580947888094174 3.526738644227349 14.107847822454957 0 0 0
235 1 12.344630587358315 3.5265033007490456 15.871385177574506 0 0 0
184 1 15.871736863214137 0.00025146899071889296 12.344702933594506 0 0 0
185 1 14.108672996447524 1.7632110118461954 12.345281659019669 0 0 0
194 1 15.871755697288698 3.526270375647242 12.345118598835631 0 0 0
217 1 14.109591771159263 0.0002441918733183079 14.109549689162142 0 0 0
218 1 15.873233104040184 1.7628449116968148 14.110055862541646 0 0 0
219 1 15.877165277635479 0.0006315341844585645 15.876935384069542 0 0 0
220 1 14.108456185349498 1.7628575542813303 15.871919455334677 0 0 0
237 1 14.108490459624687 3.5262858984356638 14.108443829081402 0 0 0
239 1 15.872568779815786 3.525457293120154 15.872374739922854 0 0 0
187 1 0.00024590387525412103 5.289353076488417 12.345281659019669 0 0 0
189 1 3.526463289058103 5.289735602581542 12.344893008733203 0 0 0
196 1 1.7633499896213292 7.053002758913548 12.345011985014063 0 0 0
222 1 1.7632127238481317 5.288434301776677 14.109549689162142 0 0 0
224 1 0.000599361440119611 5.289569887586442 15.871919455334677 0 0 0
228 1 3.525950457366497 5.289135655737087 15.871921533786807 0 0 0
241 1 0.0002426268903365143 7.0533253978140555 14.10815253642076 0 0 0
242 1 1.7634315736861448 7.05381784529291 15.871360999535106 0 0 0
243 1 3.5265197719455648 7.05318787566001 14.108181090266603 0 0 0
426 1 0.00010515880577323602 8.817074865264466 12.344496682057779 0 0 0
427 1 3.5266858948834554 8.817076827677308 12.344517592478125 0 0 0
451 1 1.763434787503155 8.817218094314924 14.107812178591766 0 0 0
452 1 3.345542771535032e-05 8.817280517367445 15.87113931621522 0 0 0
454 1 3.5268420050451463 8.817281484270525 15.871166355248619 0 0 0
191 1 7.053482585956516 5.290035034449831 12.344556916097963 0 0 0
197 1 5.290035034449831 7.053482585956516 12.344556916097963 0 0 0
226 1 5.289761121587576 5.289761121587576 14.108217852357274 0 0 0
232 1 7.053191798012581 5.289800718806815 15.871443659761285 0 0 0
244 1 5.289800718806815 7.053191798012581 15.871443659761283 0 0 0
245 1 7.053493929000412 7.053493929000413 14.107962232269019 0 0 0
198 1 8.817179763931883 7.053621533424278 12.34441987274554 0 0 0
230 1 8.817078436472581 5.290090849041457 14.107914439841965 0 0 0
246 1 8.817080771319237 7.053525612803285 15.8712927205412 0 0 0
428 1 7.053621533424277 8.81717976393188 12.34441987274554 0 0 0
453 1 5.290090849041457 8.817078436472581 14.107914439841965 0 0 0
456 1 7.053525612803284 8.817080771319237 15.8712927205412 0 0 0
455 1 8.81718518640033 8.81718518640033 14.107877597884565 0 0 0
193 1 10.58085270760348 5.2901123779141255 12.344450152360265 0 0 0
199 1 12.344443769146768 7.053582303789172 12.34445437297308 0 0 0
234 1 12.344648272262106 5.289976755674915 14.108004224747281 0 0 0
236 1 10.580945849536212 5.290133365017744 15.871231976190364 0 0 0
247 1 10.580844419931658 7.053597401454354 14.10788569759822 0 0 0
248 1 12.344604906499885 7.053421166436053 15.871310258196186 0 0 0
429 1 10.580814665890456 8.817211407045484 12.344392386039035 0 0 0
457 1 12.344428671481586 8.817181653004281 14.10788569759822 0 0 0
458 1 10.580850364896657 8.817175708039281 15.871277457457426 0 0 0
195 1 14.108104135803792 5.289921937132148 12.344683476912527 0 0 0
200 1 15.871421623293568 7.053368844298932 12.344643329885788 0 0 0
238 1 15.871740174500276 5.289535613311253 14.108443829081402 0 0 0
240 1 14.10848246518906 5.28954360774688 15.871595247257153 0 0 0
249 1 14.108049317261024 7.053377800673833 14.108004224747281 0 0 0
250 1 15.871522772186895 7.053395485577624 15.871385177574506 0 0 0
430 1 14.107913695021812 8.81717336533246 12.344450152360265 0 0 0
459 1 15.87128742870859 8.817078184841767 14.107847822454957 0 0 0
460 1 14.107892707918197 8.817080223399728 15.871231976190364 0 0 0
251 1 1.7634701820925647 8.81741808952751 5.701228442234321e-16 0 0 0
262 1 1.7632387918109629 12.344078363278674 8.118444609024177e-16 0 0 0
263 1 1.763423460293735 10.580745555568495 1.7634298409992695 0 0 0
264 1 2.5342035304621716e-05 12.344208227643032 1.763208157679383 0 0 0
265 1 3.5268133071247845 10.580809934022799 6.677203262076835e-16 0 0 0
268 1 3.526503300749045 12.344630587358315 1.7631839796399853 0 0 0
311 1 2.212821829496993e-05 10.580807978621017 3.526756978622722 0 0 0
312 1 1.763214288831114 12.344700675121883 3.526416620793728 0 0 0
313 1 1.7633517569156758 10.580951207671474 5.29007247515671 0 0 0
314 1 0.00010692610012153503 12.345023314022392 5.2895571722004275 0 0 0
315 1 3.5267386442273483 10.580947888094173 3.5267213347595323 0 0 0
318 1 3.5266044496423725 12.344657228637006 5.289925827328703 0 0 0
266 1 5.289667059785435 12.344860739656596 8.708847276300258e-16 0 0 0
267 1 5.290133365017744 10.580945849536212 1.7633371810241263 0 0 0
269 1 7.053513234142867 10.580958860848337 8.858231862277117e-16 0 0 0
272 1 7.053421166436053 12.344604906499885 1.763258899018305 0 0 0
316 1 5.289976755674914 12.344648272262106 3.526564932467209 0 0 0
317 1 5.290112377914126 10.58085270760348 5.290119004854224 0 0 0
319 1 7.053597401454354 10.580844419931658 3.5266834596162697 0 0 0
322 1 7.053582303789171 12.344443769146768 5.29011478424141 0 0 0
270 1 8.817067212087602 12.344512838793072 1.2597285008315337e-15 0 0 0
271 1 8.817175708039281 10.580850364896659 1.7632916997570653 0 0 0
320 1 8.817181653004281 12.344428671481586 3.52668345961627 0 0 0
321 1 8.817211407045484 10.580814665890456 5.290176771175455 0 0 0
273 1 10.580956456661903 10.580956456661903 5.862069248801297e-17 0 0 0
274 1 12.345005867874844 12.345005867874844 3.8969517417139257e-16 0 0 0
275 1 12.344500460132654 10.580945301616703 1.7632764366732887 0 0 0
276 1 10.580945301616703 12.344500460132654 1.7632764366732891 0 0 0
323 1 10.580840886535608 10.58084088653561 3.5266915593299246 0 0 0
324 1 12.344532143935526 12.344532143935526 3.526606924945472 0 0 0
325 1 12.344404539511661 10.580846309004057 5.29014928446895 0 0 0
326 1 10.580846309004059 12.344404539511661 5.29014928446895 0 0 0
261 1 17.634555890843377 10.580607983408429 8.836185871872827e-16 -1 0 0
277 1 14.107861330285823 10.580808121164548 4.844252324859954e-16 0 0 0
278 1 15.871420242458102 12.344276519548535 5.066912252732004e-16 0 0 0
279 1 15.871184067890793 10.580744588665414 1.7634028019658703 0 0 0
280 1 14.108225354129123 12.344834274923357 1.7631254974532051 0 0 0
327 1 14.107935223894483 10.580947636463359 3.5266547173725256 0 0 0
328 1 15.871506300990376 12.34483819727593 3.526388066947887 0 0 0
329 1 15.871340178052483 10.580949245258632 5.290051564736366 0 0 0
330 1 14.107991038486109 12.344543486979422 5.290012241116529 0 0 0
281 1 0.00017304753986131156 14.108232108765288 6.713367515006786e-16 0 0 0
282 1 1.7582724368042066 15.876692256479645 7.558753481146793e-16 0 0 0
283 1 1.762857554281331 14.108456185349498 1.7626497018798148 0 0 0
284 1 0.0006315341844598504 15.877165277635479 1.7576337731449467 0 0 0
285 1 3.5252474514106447 14.109111079107066 1.010796363005261e-15 0 0 0
288 1 3.525457293120154 15.872568779815785 1.7621944172916373 0 0 0
331 1 0.00024419187331744906 14.109591771159263 3.525019468052348 0 0 0
332 1 1.7628449116968152 15.873233104040184 3.5245132946728446 0 0 0
333 1 1.7632110118461952 14.108672996447524 5.289287498194822 0 0 0
334 1 0.00025146899071931244 15.871736863214137 5.289866223619983 0 0 0
335 1 3.5262858984356633 14.108490459624685 3.526125328133088 0 0 0
338 1 3.526270375647241 15.871755697288698 5.28945055837886 0 0 0
341 1 8.81717336533246 14.107913695021812 5.290119004854224 0 0 0
340 1 8.817078184841765 15.87128742870859 3.5267213347595323 0 0 0
291 1 8.817080223399728 14.107892707918197 1.7633371810241258 0 0 0
286 1 5.2889149938288735 15.872778621525294 7.332716576122423e-17 0 0 0
287 1 5.28954360774688 14.108482465189061 1.7629739099573376 0 0 0
289 1 7.053165333279344 14.108359013150507 8.293517800831013e-16 0 0 0
292 1 7.0533954855776235 15.871522772186893 1.7631839796399853 0 0 0
336 1 5.289535613311254 15.871740174500276 3.5261253281330878 0 0 0
337 1 5.289921937132148 14.108104135803792 5.289885680301961 0 0 0
339 1 7.053377800673833 14.108049317261026 3.5265649324672084 0 0 0
342 1 7.053368844298934 15.871421623293568 5.289925827328703 0 0 0
290 1 8.81721613891314 15.871212765811155 8.896697157546772e-16 0 0 0
346 1 10.580949245258632 15.871340178052483 5.290051564736366 0 0 0
345 1 12.344543486979422 14.107991038486109 5.290012241116529 0 0 0
344 1 12.34483819727593 15.871506300990374 3.526388066947887 0 0 0
343 1 10.580947636463359 14.107935223894483 3.5266547173725256 0 0 0
296 1 10.580744588665414 15.871184067890793 1.76340280196587 0 0 0
295 1 12.344834274923357 14.108225354129123 1.7631254974532053 0 0 0
294 1 12.344276519548536 15.8714202424581 4.929713813235251e-16 0 0 0
293 1 10.580808121164546 14.107861330285825 4.000183638827675e-16 0 0 0
13 1 10.580607983408429 17.634555890843377 3.7025775508162544e-16 0 -1 0
350 1 14.108290470354396 15.871562783877836 5.289676148481288 0 0 0
349 1 15.871562783877836 14.108290470354396 5.289676148481287 0 0 0
348 1 15.87210487912499 15.872104879124988 3.525675407329935 0 0 0
347 1 14.108264951348364 14.108264951348364 3.5263513048572155 0 0 0
300 1 14.108890417198852 15.872075615569441 1.7626476234276813 0 0 0
299 1 15.872075615569441 14.108890417198852 1.7626476234276818 0 0 0
298 1 15.87762062577085 15.87762062577085 3.0738359208181174e-16 0 0 0
297 1 14.10969835092561 14.109698350925612 7.13061518600772e-16 0 0 0
361 1 9.259991780306539e-05 10.58096870313964 7.053500267740148 0 0 0
362 1 1.763350092243693 12.344639174755162 7.053388623682407 0 0 0
363 1 1.763364385839146 10.580861250843464 8.817284578607245 0 0 0
364 1 9.35720200752678e-05 12.344430665148181 8.817284578607245 0 0 0
365 1 3.5266905917108633 10.580851383239027 7.053620073456915 0 0 0
368 1 3.5266940244596023 12.34445553419186 8.817284578607245 0 0 0
406 1 9.259991780261909e-05 10.580968703139638 10.581068889474341 0 0 0
407 1 1.7633500922436933 12.344639174755162 10.581180533532082 0 0 0
408 1 3.5266905917108633 10.580851383239027 10.580949083757575 0 0 0
366 1 5.290100217547705 12.344445328717013 7.053621237807817 0 0 0
367 1 5.2901385192603385 10.580820448675663 8.817284578607245 0 0 0
369 1 7.053647615418572 10.580813715718746 7.053698443359534 0 0 0
372 1 7.053639762916854 12.344386310019086 8.817284578607245 0 0 0
409 1 5.290100217547705 12.344445328717015 10.580947919406674 0 0 0
410 1 7.053647615418572 10.580813715718746 10.580870713854955 0 0 0
370 1 8.817212357217192 12.344378457517367 7.053698443359534 0 0 0
371 1 8.817221811446537 10.580804261489401 8.817284578607245 0 0 0
411 1 8.817212357217194 12.344378457517367 10.580870713854955 0 0 0
373 1 10.580809936366158 10.580809936366158 7.0537127442936365 0 0 0
374 1 12.344404138323233 12.344404138323233 7.053663839430604 0 0 0
375 1 12.344370483322319 10.580813754304815 8.817284578607245 0 0 0
376 1 10.580813754304817 12.344370483322319 8.817284578607245 0 0 0
412 1 10.580809936366158 10.580809936366157 10.580856412920854 0 0 0
413 1 12.344404138323233 12.344404138323233 10.580905317783886 0 0 0
377 1 14.107895739616325 10.580843083666705 7.0536638172408574 0 0 0
378 1 15.871351143857359 12.344512934334446 7.053516903155951 0 0 0
379 1 15.871326121467972 10.580855274445435 8.817284578607245 0 0 0
380 1 14.10789302799363 12.344409770180508 8.817284578607245 0 0 0
414 1 14.107895739616326 10.580843083666705 10.580905339973633 0 0 0
415 1 15.871351143857359 12.344512934334446 10.58105225405854 0 0 0
381 1 0.00010866176549241202 14.107991809712718 7.053531094727712 0 0 0
382 1 1.763417525610251 15.87127359319161 7.053735796253318 0 0 0
383 1 1.7634292282555764 14.107821306026587 8.817284578607245 0 0 0
384 1 2.670256611020446e-05 15.871162305268095 8.817284578607245 0 0 0
385 1 3.526644382169293 14.108028156580422 7.05339594424516 0 0 0
388 1 3.526833534787581 15.871192538148359 8.817284578607245 0 0 0
416 1 0.00010866176549205918 14.107991809712718 10.581038062486778 0 0 0
417 1 1.7634175256102511 15.871273593191612 10.580833360961172 0 0 0
418 1 3.5266443821692928 14.108028156580422 10.581173212969327 0 0 0
103 1 1.7634603232491481 17.63456574968679 8.817284578607245 0 -1 0
421 1 8.817174689696913 15.871335481225076 10.580949083757575 0 0 0
391 1 8.817205624260277 14.1078875536756 8.817284578607245 0 0 0
390 1 8.81717468969691 15.871335481225076 7.053620073456914 0 0 0
386 1 5.289997916355516 15.871381690766647 7.053395944245161 0 0 0
387 1 5.290105182698621 14.10792089023732 8.817284578607245 0 0 0
389 1 7.053580744218926 14.107925855388235 7.053621237807817 0 0 0
392 1 7.053570538744078 15.871332048476336 8.817284578607245 0 0 0
419 1 5.2899979163555155 15.871381690766647 10.581173212969327 0 0 0
420 1 7.053580744218926 14.107925855388233 10.580947919406674 0 0 0
423 1 12.344512934334446 15.871351143857359 10.58105225405854 0 0 0
422 1 10.580843083666705 14.107895739616325 10.580905339973633 0 0 0
396 1 10.580855274445435 15.871326121467972 8.817284578607245 0 0 0
395 1 12.344409770180508 14.10789302799363 8.817284578607245 0 0 0
394 1 12.344512934334446 15.871351143857359 7.053516903155951 0 0 0
393 1 10.580843083666705 14.107895739616326 7.0536638172408574 0 0 0
425 1 15.871315279638093 15.871315279638093 10.580977004310462 0 0 0
424 1 14.107955101906072 14.107955101906073 10.581060129955414 0 0 0
400 1 14.107848569068798 15.871267879680756 8.817284578607245 0 0 0
399 1 15.871267879680756 14.107848569068798 8.817284578607245 0 0 0
398 1 15.871315279638093 15.871315279638093 7.053592152904029 0 0 0
397 1 14.107955101906073 14.107955101906072 7.053509027259076 0 0 0
431 1 1.7633517569156762 10.580951207671474 12.344496682057779 0 0 0
432 1 0.00010692610012171223 12.345023314022392 12.345011985014063 0 0 0
434 1 3.526604449642372 12.344657228637006 12.344643329885786 0 0 0
461 1 2.2128218294173525e-05 10.580807978621015 14.107812178591766 0 0 0
462 1 1.7632142888311133 12.344700675121885 14.108152536420763 0 0 0
463 1 1.763423460293735 10.580745555568496 15.871139316215219 0 0 0
464 1 2.5342035304873197e-05 12.34420822764303 15.871360999535106 0 0 0
465 1 3.5267386442273483 10.580947888094174 14.107847822454957 0 0 0
468 1 3.526503300749045 12.344630587358315 15.871385177574506 0 0 0
433 1 5.2901123779141255 10.58085270760348 12.344450152360265 0 0 0
436 1 7.053582303789171 12.344443769146768 12.34445437297308 0 0 0
466 1 5.289976755674915 12.344648272262106 14.10800422474728 0 0 0
467 1 5.290133365017744 10.580945849536212 15.871231976190364 0 0 0
469 1 7.053597401454354 10.580844419931658 14.10788569759822 0 0 0
472 1 7.053421166436053 12.344604906499885 15.871310258196186 0 0 0
435 1 8.817211407045484 10.580814665890456 12.344392386039035 0 0 0
470 1 8.817181653004281 12.344428671481586 14.10788569759822 0 0 0
471 1 8.817175708039283 10.580850364896657 15.871277457457426 0 0 0
437 1 12.344404539511661 10.580846309004057 12.34441987274554 0 0 0
438 1 10.580846309004057 12.344404539511661 12.34441987274554 0 0 0
473 1 10.580840886535608 10.58084088653561 14.107877597884565 0 0 0
474 1 12.344532143935528 12.344532143935526 14.107962232269019 0 0 0
475 1 12.344500460132654 10.580945301616703 15.871292720541202 0 0 0
476 1 10.580945301616701 12.344500460132654 15.8712927205412 0 0 0
439 1 15.871340178052485 10.58094924525863 12.344517592478125 0 0 0
440 1 14.107991038486109 12.344543486979424 12.344556916097961 0 0 0
477 1 14.107935223894483 10.580947636463359 14.107914439841965 0 0 0
478 1 15.871506300990376 12.34483819727593 14.108181090266601 0 0 0
479 1 15.871184067890793 10.580744588665414 15.87116635524862 0 0 0
480 1 14.108225354129123 12.344834274923357 15.871443659761283 0 0 0
441 1 1.7632110118461954 14.108672996447524 12.345281659019669 0 0 0
442 1 0.00025146899071913534 15.871736863214137 12.344702933594506 0 0 0
444 1 3.526270375647241 15.8717556972887 12.345118598835631 0 0 0
481 1 0.0002441918733185533 14.109591771159263 14.109549689162142 0 0 0
482 1 1.7628449116968157 15.873233104040184 14.110055862541646 0 0 0
483 1 1.7628575542813303 14.108456185349498 15.871919455334677 0 0 0
484 1 0.000631534184460037 15.877165277635479 15.876935384069542 0 0 0
485 1 3.5262858984356633 14.108490459624685 14.108443829081402 0 0 0
488 1 3.5254572931201547 15.872568779815785 15.872374739922853 0 0 0
491 1 8.817080223399728 14.107892707918197 15.871231976190362 0 0 0
490 1 8.817078184841765 15.87128742870859 14.107847822454957 0 0 0
445 1 8.81717336533246 14.107913695021814 12.344450152360265 0 0 0
443 1 5.289921937132148 14.108104135803792 12.344683476912527 0 0 0
446 1 7.053368844298933 15.871421623293568 12.344643329885786 0 0 0
486 1 5.289535613311254 15.871740174500276 14.1084438290814 0 0 0
487 1 5.2895436077468805 14.108482465189061 15.871595247257153 0 0 0
489 1 7.053377800673832 14.108049317261026 14.108004224747281 0 0 0
492 1 7.0533954855776235 15.871522772186893 15.871385177574506 0 0 0
496 1 10.580744588665413 15.871184067890793 15.87116635524862 0 0 0
495 1 12.344834274923357 14.108225354129123 15.871443659761285 0 0 0
494 1 12.34483819727593 15.871506300990376 14.108181090266601 0 0 0
493 1 10.580947636463357 14.107935223894483 14.107914439841965 0 0 0
448 1 10.580949245258632 15.871340178052483 12.344517592478125 0 0 0
447 1 12.344543486979422 14.107991038486109 12.344556916097963 0 0 0
500 1 14.108890417198852 15.872075615569441 15.871921533786807 0 0 0
499 1 15.872075615569441 14.108890417198852 15.871921533786809 0 0 0
498 1 15.87210487912499 15.872104879124992 14.108893749884556 0 0 0
497 1 14.108264951348364 14.108264951348364 14.108217852357274 0 0 0
450 1 14.108290470354397 15.871562783877836 12.344893008733203 0 0 0
449 1 15.871562783877836 14.108290470354396 12.344893008733202 0 0 0

Velocities

1 -3.3749167360348735e-09 -3.3749159389277943e-09 -9.647390400042115e-16
2 3.3749159993665287e-09 3.374916506823825e-09 -8.999587439441745e-16
3 9.646399782690948e-10 -9.646348889256492e-10 1.1535785655713994e-09
4 -9.646356272226456e-10 9.64639544618029e-10 1.153578323308234e-09
5 3.363774319821917e-09 -1.304095122373658e-09 -2.483187729386805e-16
8 -4.135670981593799e-09 -8.505716145341838e-10 -2.6808872991157268e-09
21 -1.3040932676036705e-09 3.3637732043893086e-09 6.080805449738526e-16
23 -8.505723388964644e-10 -4.135671606419838e-09 -2.680886629534879e-09
25 -1.786512358067894e-09 -1.7865150352065843e-09 -2.8439306099797834e-17
51 2.02991589129553e-09 2.029919147312472e-09 -7.671017925878189e-09
52 -2.0299174660061045e-09 -2.029918252755734e-09 -7.671019920810075e-09
53 -3.298499871514913e-10 3.298497034007589e-10 4.50458342731643e-09
54 3.2984931365989167e-10 -3.2984879461105995e-10 4.5045852170355645e-09
55 7.880679483372165e-10 -4.2227495318497495e-09 -5.650812076595651e-09
58 -4.905798033371026e-10 -4.095970138075977e-09 3.192501421597745e-09
71 -4.222746520028282e-09 7.880688492438992e-10 -5.650811879260592e-09
73 -4.095969578150421e-09 -4.905795647410068e-10 3.1925013298491473e-09
75 1.4644420240677118e-09 1.4644413910197476e-09 -1.273045866645625e-09
6 2.7075310949108168e-09 -4.649868431343894e-09 1.2683328411373352e-16
7 3.1864115885604094e-09 -3.5889614534788814e-09 -2.820142758433408e-09
9 5.141692658830591e-09 1.1459325353612658e-10 -8.043137088897175e-16
12 4.393546218511126e-09 -4.0072175480261425e-09 -1.4300483995268406e-09
27 -4.2350213397179015e-09 1.0435371533787161e-10 2.9998592313631578e-09
29 1.0635130984283984e-10 -1.604048067368398e-09 7.31530661837397e-16
56 -5.978232751086741e-10 -2.885745835096474e-09 1.302123920117878e-09
57 9.101506212779086e-10 -1.7057577463913162e-10 -9.836555775104554e-10
59 -7.686274016274984e-10 -3.602152183768883e-10 2.1990596483644066e-09
62 -3.746842343696873e-10 -6.643252112956381e-09 7.036189841300469e-10
77 -3.840357846824638e-09 -2.1542513147026656e-09 -1.8190270000729474e-09
79 4.851149338595211e-09 -3.946716700646888e-09 2.6265258379567986e-09
11 2.2722729263324277e-09 2.924635081258155e-09 5.39314223019648e-10
31 -2.288006187041693e-09 -3.5377185471386727e-09 -2.2983738243632957e-09
60 -3.0989594495749384e-09 -2.047563197869643e-09 3.772740605150903e-09
61 1.3171454289086595e-09 1.2762388082163655e-09 1.4382340200624782e-09
81 -2.70538586955394e-10 -8.17646471089558e-10 4.02768630476208e-09
10 9.483576598926536e-10 -1.0846616613128375e-10 6.301208149757841e-17
14 -5.141693732323755e-09 -1.1459538551294487e-10 1.1209784592388224e-15
15 -4.393548751417471e-09 4.0072211411065e-09 -1.4300505746265745e-09
16 -2.2722722168503167e-09 -2.924638533508261e-09 5.393126240827569e-10
33 -9.264645376953637e-10 9.488935944669927e-10 3.664301351126168e-16
35 -2.6826906736897072e-09 3.7474691647171957e-10 -3.6230966032942288e-09
63 3.098955221290143e-09 2.047559951543228e-09 3.7727395095157375e-09
64 7.686298103290197e-10 3.6021854222751657e-10 2.1990590299876767e-09
65 3.7468452094761187e-10 6.643247961941765e-09 7.036191462854899e-10
66 -1.3171453440582925e-09 -1.2762389196574216e-09 1.4382356898613453e-09
83 -9.765551064262043e-09 2.5521778412032695e-10 2.241181754743441e-09
85 -2.6464767975432963e-09 2.2066031374584385e-09 -1.138394332602475e-09
17 -2.7075309038588674e-09 4.6498709003083776e-09 -6.444200197730868e-16
18 -3.363775028630944e-09 1.304095506115318e-09 -8.794152901414682e-16
19 4.135669189754862e-09 8.505703668742986e-10 -2.6808852704385216e-09
20 -3.1864105422485105e-09 3.5889621287874547e-09 -2.820141117706121e-09
37 -7.867882173226576e-09 2.1610587809271552e-09 -1.074948162095056e-16
39 -1.49424392083521e-10 1.4942444692631824e-10 1.7381113246858806e-09
67 5.978249831633555e-10 2.8857438539894396e-09 1.302125211285915e-09
68 -7.880690615269978e-10 4.222747439521091e-09 -5.650812667524366e-09
69 4.905782970989942e-10 4.095967722414575e-09 3.1925022919367424e-09
70 -9.101512797037676e-10 1.7057869996685295e-10 -9.8365669818579e-10
87 -3.1158057115183586e-09 2.4155217829181088e-09 -1.123457783518825e-11
89 -7.518724429569497e-11 7.518646793688413e-11 -4.300883612711594e-09
22 -4.6498708733566e-09 2.7075323342288586e-09 4.2567992170137473e-16
24 -3.5889619573862652e-09 3.186411384302278e-09 -2.820142423504582e-09
28 1.043556332861418e-10 -4.235019820688079e-09 2.9998600552578342e-09
41 1.1459465381722218e-10 5.141689355458771e-09 3.679371823422465e-16
42 -4.007219631489364e-09 4.393545199188858e-09 -1.4300495599674026e-09
43 -1.6040463367340325e-09 1.063531748601424e-10 -5.284066605004958e-16
72 -2.8857463244680682e-09 -5.978229420914558e-10 1.3021241289799557e-09
74 -1.7057567288860216e-10 9.101496249706412e-10 -9.8365481862109e-10
78 -2.154251813764786e-09 -3.8403566708226344e-09 -1.8190265750661104e-09
91 -3.602148210652971e-10 -7.686270219935476e-10 2.199059963306521e-09
92 -6.643252117801644e-09 -3.7468641790841587e-10 7.036186964425381e-10
93 -3.946715945204568e-09 4.851148568790843e-09 2.6265260790713433e-09
252 2.9246364379318808e-09 2.272276497291485e-09 5.393153192604712e-10
254 -3.5377161527836734e-09 -2.288006289663447e-09 -2.2983740573552816e-09
301 -2.047564142695988e-09 -3.098955503107975e-09 3.772739821732391e-09
302 1.2762381516831874e-09 1.3171444373520213e-09 1.438233442264829e-09
304 -8.176442934914819e-10 -2.7053705604709463e-10 4.027685244323388e-09
26 -1.4101473718058207e-09 -1.4101468892716329e-09 -1.2130973126127438e-15
32 -2.9678944163595835e-09 -3.3065208820488483e-09 -3.973781195106513e-09
44 -3.3065220713126866e-09 -2.9678947694581468e-09 -3.973782055746408e-09
45 -4.3095865975928754e-09 -4.309584144829741e-09 -1.2149497741210642e-15
76 -3.2421731101005337e-09 -3.2421732161906257e-09 6.236858066560965e-09
82 -2.3837713339623695e-09 5.527830340012397e-09 3.072188382358127e-09
94 5.527829872975621e-09 -2.383773596686163e-09 3.0721873244993956e-09
95 -4.1284577935505896e-09 -4.128459279463955e-09 9.16673223645524e-09
30 -7.473859062238849e-09 -4.980127556345109e-09 -2.975701367468511e-17
46 -1.6882953415144949e-09 -1.3039289193006014e-09 -3.2912083425719724e-09
80 5.071663789550231e-09 2.9321019932664244e-10 4.541726955519407e-09
96 -1.9651758929498197e-09 -1.0272922956350423e-09 2.3020781465672863e-09
253 -4.980128228734814e-09 -7.473861086403194e-09 -1.6837289990311857e-16
256 -1.3039276568102298e-09 -1.6882946677624484e-09 -3.2912108003317847e-09
303 2.9320681663382346e-10 5.071664385486862e-09 4.5417268864448325e-09
306 -1.0272908783065099e-09 -1.9651766336256796e-09 2.30207975065227e-09
255 -1.4927261366333977e-09 -1.4927242824365377e-09 6.359408089865989e-16
305 -2.922958034067456e-09 -2.9229582192221487e-09 -5.09617888413958e-10
34 -7.95585185829765e-10 2.114372767930205e-09 1.3424534813253728e-15
36 -4.7485935920749095e-09 -2.0872533688334086e-10 -5.917559094670337e-09
47 -2.8720220900589922e-09 -4.4625708923274684e-10 3.9627061659977443e-16
48 -3.829368286695747e-09 3.829366708043128e-09 -7.765806125069653e-09
84 -1.0182998585562688e-08 2.7374584962010157e-10 3.7634335353236e-09
86 -2.839007777506378e-09 6.3293820840689565e-09 3.5875854182911353e-09
97 -2.579895612099765e-09 -9.003792850608194e-10 5.157505949293305e-09
98 -4.2983665071041415e-09 4.298366997116483e-09 1.9434781051907823e-09
257 4.462546625980733e-10 2.872021401171293e-09 -4.984330998819933e-16
258 -3.6487263556537294e-10 3.648760129466013e-10 2.886914832999054e-09
307 9.003775866491002e-10 2.5798965285157665e-09 5.157505071808549e-09
308 -1.4813728713767406e-10 1.4813580009164641e-10 -1.6057323438821827e-09
100 -2.206605612985417e-09 2.6464787808056215e-09 -1.138394930030775e-09
38 -2.1610590380289397e-09 7.867884053188738e-09 6.686463363059097e-16
40 -2.847502048263546e-09 2.847503270703605e-09 -1.7826061286458754e-09
49 -2.114373886633455e-09 7.955824432664166e-10 -1.4402355910665252e-16
50 -3.7474602448902773e-10 2.6826902897025903e-09 -3.623098173462369e-09
88 -2.4155241462284084e-09 3.1158032612896606e-09 -1.123625645661022e-11
90 -5.439702104758786e-09 5.439701385842843e-09 -4.299505806672673e-09
99 -2.737454465713212e-10 1.0182996880770514e-08 3.763434079245155e-09
259 -9.488928749453917e-10 9.264655550143474e-10 1.928414796012696e-15
260 2.0872836756005135e-10 4.748595707613281e-09 -5.917557848768723e-09
309 -2.552176769585043e-10 9.765554953195016e-09 2.2411822529928915e-09
310 -6.329381553447563e-09 2.8390062642539177e-09 3.587586314757411e-09
101 4.243255364009671e-09 4.243255531171255e-09 8.97317715575778e-10
102 -4.243254821340181e-09 -4.2432571361647256e-09 8.973191340975865e-10
105 -9.525183944494027e-10 5.227910791252283e-10 -3.3599831418430996e-09
108 3.630404138867332e-11 -3.557904129864922e-09 3.1461503599499123e-16
121 5.227872109726724e-10 -9.525183117203171e-10 -3.3599857589678335e-09
123 -3.5579009681537303e-09 3.630412375814953e-11 1.1395453639126533e-15
125 -4.129377521296873e-09 -4.129377234330948e-09 6.655891717451432e-09
151 4.243255683797049e-09 4.243254961852816e-09 -8.973172589097113e-10
152 -4.2432549206680784e-09 -4.243255396715198e-09 -8.973179469371009e-10
153 -9.525177199925358e-10 5.227915650474113e-10 3.3599829889913667e-09
161 5.227899854915733e-10 -9.525160732086694e-10 3.3599847874925404e-09
163 -4.129378446313945e-09 -4.129376946402123e-09 -6.655893417339195e-09
106 -3.0363423367080676e-09 -6.639817533525733e-09 -1.4337364813167147e-09
107 -1.334554816382267e-09 -2.920577076691772e-09 9.908563461924531e-16
109 3.871258356135223e-10 5.838772725133159e-10 3.52244119814912e-09
112 -1.5466492689541106e-09 1.410889077662649e-09 1.7055326839107261e-15
127 -1.3790087721015416e-09 2.5269288024818943e-10 1.0804937173638975e-15
129 -3.042686782109919e-09 -1.7274414325429291e-09 1.5472111685093427e-09
154 -3.036342266908359e-09 -6.639817772408961e-09 1.4337354906440176e-09
155 3.871263414892944e-10 5.838812795460704e-10 -3.5224459822409773e-09
165 -3.0426880090769744e-09 -1.7274411816160167e-09 -1.5472116756603087e-09
110 -9.07489312812949e-10 2.1214645880193047e-09 2.083973840587153e-09
111 -5.823364140521388e-10 -3.914001315173307e-09 8.491323944754397e-16
131 -2.7732498004438867e-09 2.5048921500587096e-10 4.457642242039398e-16
156 -9.074900956707532e-10 2.121465028938266e-09 -2.083978089192244e-09
113 9.074884477560099e-10 -2.1214646994603607e-09 2.083973241506306e-09
114 -3.871270207222235e-10 -5.838777085870135e-10 3.522441356055494e-09
115 1.546650943867948e-09 -1.4108905468154482e-09 2.0477027891105795e-15
116 5.823344050972611e-10 3.914001315173307e-09 1.873299925900524e-15
133 1.0104437150346697e-10 6.546399731350472e-09 5.291028373665105e-10
135 -1.2983966351641883e-09 7.571147006602274e-09 4.528322047353664e-16
157 9.07493840344802e-10 -2.121463182892946e-09 -2.083976512059038e-09
158 -3.871271439904655e-10 -5.838805721376277e-10 -3.5224432834293157e-09
167 1.0104406542736217e-10 6.546399687075933e-09 -5.29103436049303e-10
104 -7.884036714741727e-10 7.884066634242646e-10 -6.056579133205704e-16
117 3.036343360242734e-09 6.639813967714768e-09 -1.4337349402201542e-09
118 9.525186239369715e-10 -5.227887759927204e-10 -3.3599840600973866e-09
119 -3.630633319821732e-11 3.557901961432708e-09 3.803531695653182e-16
120 1.3345566408486576e-09 2.9205767656311316e-09 1.733998605836793e-15
137 -6.2566551965815874e-12 -3.563839550565381e-10 7.350088803137132e-09
139 -1.9095160257601833e-09 1.909516216542426e-09 -4.603000141236335e-17
159 3.0363432518299676e-09 6.6398195412911784e-09 1.4337358744474855e-09
160 9.525136305903051e-10 -5.227886021688993e-10 3.3599843683772644e-09
169 -6.256452301180625e-12 -3.5638496407214174e-10 -7.3500888297860805e-09
122 -6.6398163319004325e-09 -3.0363419323917824e-09 -1.4337368550928177e-09
124 -2.9205805310063785e-09 -1.3345539553614701e-09 1.523242664182966e-15
128 2.5269235717770633e-10 -1.3790088010406335e-09 7.212835687238434e-16
141 5.838804098213069e-10 3.8712469758230317e-10 3.5224424094649468e-09
142 1.4108884671594726e-09 -1.5466481553337444e-09 1.3457718833983073e-15
143 -1.7274405604310217e-09 -3.0426880302588563e-09 1.5472125984641273e-09
162 -6.639816249530957e-09 -3.036343166432202e-09 1.4337361036890058e-09
171 5.838764149017106e-10 3.871252142085032e-10 -3.522444657061463e-09
172 -1.727441241372687e-09 -3.0426871215120985e-09 -1.5472119620980565e-09
351 2.1214647091508874e-09 -9.074895418770303e-10 2.083977008092869e-09
352 -3.9139987617195445e-09 -5.823365563060412e-10 3.9488895948501186e-16
354 2.504908496458229e-10 -2.7732501735924477e-09 -7.009248274793051e-17
401 2.121465343880381e-09 -9.07494209209398e-10 -2.083977690063679e-09
126 2.540519552849253e-10 2.540535344243734e-10 7.628583734878264e-09
132 -4.660560950729446e-09 3.2296348539331144e-09 9.491120842722e-16
144 3.22963489721518e-09 -4.660559286187322e-09 7.546497599974307e-16
145 3.287401388924316e-09 3.287400843816987e-09 2.9146246061617877e-09
164 2.5405366448314447e-10 2.5405348278612164e-10 -7.628585365025464e-09
173 3.287401834119507e-09 3.2874006433442176e-09 -2.9146254316735233e-09
130 -2.6994070549794674e-09 7.1567478265529045e-09 -1.808741203952792e-09
146 -1.4356882270173387e-09 9.803438328330894e-09 -6.359408089865988e-17
166 -2.6994071266582533e-09 7.156749407037792e-09 1.8087422557581974e-09
353 7.156747391987437e-09 -2.699403617870809e-09 -1.808738821900219e-09
356 9.803436098193769e-09 -1.4356895482067732e-09 1.3566737258380777e-16
402 7.15674762475097e-09 -2.699407545496133e-09 1.8087410719193668e-09
355 3.854955897210532e-09 3.8549546235119406e-09 9.514719957029624e-09
403 3.854954651615055e-09 3.8549545510317225e-09 -9.514719417388423e-09
134 -2.152684887875739e-09 9.839061627026088e-09 -2.0820658681310342e-09
136 1.64165279975595e-10 3.6397924646714956e-09 3.4344115876989813e-16
147 -4.911895210240627e-09 5.6897893958235335e-09 1.627096198773754e-10
148 -7.426092376990157e-10 7.426101410787425e-10 1.3567733873208847e-15
168 -2.15268196258114e-09 9.839062528208096e-09 2.082064626910848e-09
174 -4.911891998417882e-09 5.689787718151114e-09 -1.6270932613328745e-10
357 -5.6897859938430346e-09 4.911889965087852e-09 1.6271082271399126e-10
358 -1.0112343927374509e-08 1.0112344861678582e-08 -1.0901842439770266e-15
404 -5.689787100067676e-09 4.911889841926369e-09 -1.6270952721171467e-10
175 -9.839063468989131e-09 2.152684879213175e-09 2.0820647189387985e-09
138 3.5638572333780685e-10 6.256133725118219e-12 7.350091949529992e-09
140 -5.738307266119997e-09 5.7383092438959125e-09 1.5707737981968992e-15
149 -9.83906362888282e-09 2.1526857180493848e-09 -2.082065708583829e-09
150 -7.57114413408055e-09 1.2983946922573706e-09 2.486831392094262e-15
170 3.5638724475048513e-10 6.257667250954746e-12 -7.350093933968144e-09
359 -6.546403695996636e-09 -1.0103966238558339e-10 5.29103013509753e-10
360 -3.6397918655953804e-09 -1.64164168527664e-10 -3.2635876659278936e-15
405 -6.546402595213379e-09 -1.010465090454645e-10 -5.291029565779092e-10
176 -3.298503989988724e-10 3.2985159729305387e-10 -4.504584125640004e-09
177 3.298497909183274e-10 -3.2984903233179095e-10 -4.504583048780234e-09
179 -4.905791220050721e-10 -4.095971413651956e-09 -3.1925012574730266e-09
186 -4.0959710268841505e-09 -4.905781365996471e-10 -3.192501255656053e-09
201 2.02991523233972e-09 2.0299145951875954e-09 7.671017034955399e-09
202 -2.029916855502928e-09 -2.0299172867313624e-09 7.671019281946256e-09
203 9.646374490416487e-10 -9.64634924053808e-10 -1.153575737451773e-09
204 -9.646343408052377e-10 9.646382533553576e-10 -1.1535753131884047e-09
205 7.880703279766215e-10 -4.222744071514216e-09 5.650809050009793e-09
208 -4.135671405724679e-09 -8.505704344855948e-10 2.6808866816043072e-09
221 -4.222748874826249e-09 7.880685585281009e-10 5.65080986241974e-09
223 -8.505722323006717e-10 -4.135672184733243e-09 2.6808867936681736e-09
225 1.4644414831489514e-09 1.46444090452148e-09 1.2730448166557886e-09
178 9.101502737059736e-10 -1.7057430652434972e-10 9.836585864189689e-10
181 -3.74686863833518e-10 -6.643249738777361e-09 -7.036197655612428e-10
188 -3.840355624567571e-09 -2.154252917226187e-09 1.8190271376199887e-09
206 -5.978248744690526e-10 -2.8857472644491494e-09 -1.3021266539630646e-09
207 3.1864123793225223e-09 -3.5889624225315424e-09 2.820143576677249e-09
209 -7.686263350071326e-10 -3.6021783481907383e-10 -2.1990570149637994e-09
212 4.393548337878506e-09 -4.007220644149395e-09 1.4300501528923047e-09
227 -4.2350219413841065e-09 1.0435561563689168e-10 -2.999857263436872e-09
229 4.851148905287046e-09 -3.946715281053349e-09 -2.6265285832302295e-09
180 1.3171443032555738e-09 1.2762368022773566e-09 -1.4382325422571698e-09
190 -2.705384721745046e-10 -8.17644630296428e-10 -4.027685421104523e-09
210 -3.098955464592213e-09 -2.04756199139908e-09 -3.772736526044856e-09
211 2.272270338450798e-09 2.9246361714423987e-09 -5.393168176581487e-10
231 -2.288005327613978e-09 -3.537719227332729e-09 2.2983720721056417e-09
182 3.746847782292008e-10 6.643249260829575e-09 -7.036202142246074e-10
183 -1.3171445486632512e-09 -1.2762390262532142e-09 -1.4382361302030384e-09
192 -2.646475929178001e-09 2.2066048185680637e-09 1.138394325568208e-09
213 3.0989587652548374e-09 2.047562117375926e-09 -3.772736781632496e-09
214 7.686265400247022e-10 3.602166011566267e-10 -2.199058879436143e-09
215 -4.393550141646065e-09 4.007216547631276e-09 1.4300490871327783e-09
216 -2.2722721423354664e-09 -2.9246371937929565e-09 -5.393167555876759e-10
233 -9.765555135903199e-09 2.552158940701744e-10 -2.2411807679279682e-09
235 -2.6826905155586884e-09 3.7474699166320317e-10 3.623095765503134e-09
184 4.905792176990224e-10 4.0959696871688465e-09 -3.1925004913157662e-09
185 -9.101494857450284e-10 1.705779749943307e-10 9.83654681556978e-10
194 -7.518679830908074e-11 7.518525178052589e-11 4.3008857752746855e-09
217 5.978245912742953e-10 2.8857471499798038e-09 -1.3021257939288277e-09
218 -7.880688940625848e-10 4.222749218234285e-09 5.650809456628938e-09
219 4.135669378720131e-09 8.505715200469656e-10 2.680889832253925e-09
220 -3.1864093600042637e-09 3.5889627641226056e-09 2.8201400493255618e-09
237 -3.1158046730782565e-09 2.415520080287733e-09 1.1234826086618758e-11
239 -1.494274558348316e-10 1.4942483389913951e-10 -1.7381125111697328e-09
187 -1.705754742328066e-10 9.101483174309136e-10 9.836550178825436e-10
189 -2.1542524923476976e-09 -3.840356035827583e-09 1.8190272390330887e-09
196 -6.643251827085846e-09 -3.7468506184034797e-10 -7.036192315838899e-10
222 -2.8857466394101832e-09 -5.978240116561234e-10 -1.302125239751837e-09
224 -3.588960610403066e-09 3.186411023595137e-09 2.820140726451109e-09
228 1.0435665843786734e-10 -4.235019944109547e-09 -2.9998574649550516e-09
241 -3.602158579516447e-10 -7.686243048985876e-10 -2.1990566012994443e-09
242 -4.007220726518872e-09 4.393546654584824e-09 1.4300494573131181e-09
243 -3.946717883101695e-09 4.851148852140878e-09 -2.626528910016318e-09
426 1.2762400280114029e-09 1.3171425476993318e-09 -1.438232526510064e-09
427 -8.176452232307934e-10 -2.7053783788196384e-10 -4.0276857043741e-09
451 -2.0475653637023415e-09 -3.0989587203628104e-09 -3.772738750323543e-09
452 2.924637896356136e-09 2.272273015969799e-09 -5.393172149697398e-10
454 -3.537716651401014e-09 -2.2880049795153687e-09 2.298375613982768e-09
191 -2.3837704914591146e-09 5.527830074356877e-09 -3.0721885388435118e-09
197 5.527829313309856e-09 -2.3837714544741235e-09 -3.0721888344045737e-09
226 -3.2421717170942894e-09 -3.242173004836715e-09 -6.236857287805252e-09
232 -2.967894919126627e-09 -3.3065193216544275e-09 3.973779807889648e-09
244 -3.306520103576519e-09 -2.967895026257102e-09 3.973784736388332e-09
245 -4.1284580773826365e-09 -4.128460958761714e-09 -9.166732113705414e-09
198 -1.9651807630013323e-09 -1.0272922447597775e-09 -2.3020791377264617e-09
230 5.07166389937374e-09 2.9320938851425674e-10 -4.541726701855501e-09
246 -1.6882951816998585e-09 -1.303930689033024e-09 3.2912106271136215e-09
428 -1.0272895322979978e-09 -1.9651768843819547e-09 -2.3020792215012532e-09
453 2.9320895789148036e-10 5.0716657786387605e-09 -4.541727339984426e-09
456 -1.3039285065553797e-09 -1.6882942878398638e-09 3.2912108499957335e-09
455 -2.922957946060966e-09 -2.922957109643248e-09 5.096164692107842e-10
193 -2.839007601009542e-09 6.3293814898534825e-09 -3.5875861400251026e-09
199 -4.298367540155444e-09 4.298366148959217e-09 -1.943477687591721e-09
234 -1.0182998908801843e-08 2.737465533298317e-10 -3.763435304743372e-09
236 -4.748594599055481e-09 -2.087254376076084e-10 5.917557549985372e-09
247 -2.5798942154081087e-09 -9.003796930468355e-10 -5.157503801393759e-09
248 -3.829368125462007e-09 3.82937013546126e-09 7.765804826539086e-09
429 -1.4813678494814244e-10 1.4813637487401832e-10 1.6057319742072826e-09
457 9.003777876908085e-10 2.5798955251845568e-09 -5.15750188435368e-09
458 -3.648710415478628e-10 3.6487471793169003e-10 -2.8869157021181594e-09
195 -5.439703496560671e-09 5.43970088466092e-09 4.2995073008307455e-09
200 -2.206605759554632e-09 2.646482126989885e-09 1.138394503041946e-09
238 -2.415523046353638e-09 3.115804341783378e-09 1.1235068155784284e-11
240 -2.8475000235491417e-09 2.8475024328563206e-09 1.7826092138672858e-09
249 -2.7374486651191813e-10 1.0182998460326352e-08 -3.763434704018259e-09
250 -3.747480717641892e-10 2.682691033147679e-09 3.62309457706568e-09
430 -6.329377694075262e-09 2.8390056714703752e-09 -3.5875869544019598e-09
459 -2.5521480488905134e-10 9.765549084555555e-09 -2.2411817414189665e-09
460 2.087239868363643e-10 4.748594271577541e-09 5.91755714741686e-09
251 -1.0846774084185838e-10 9.483587137374227e-10 -1.230696879867399e-15
262 -1.1459408449878365e-10 -5.141690379134205e-09 8.3883620994899e-16
263 -2.9246400815698874e-09 -2.2722736706860033e-09 5.393142181743847e-10
264 4.007223134614735e-09 -4.39354881799489e-09 -1.430048411639999e-09
265 9.488941855891161e-10 -9.264652656252001e-10 -4.073429726904264e-16
268 3.747480363332013e-10 -2.6826908208645802e-09 -3.623097714979329e-09
311 2.0475636290980776e-09 3.098954867167166e-09 3.772738794839399e-09
312 3.6021522322215157e-10 7.686299114738912e-10 2.199059161112615e-09
313 -1.276238469047934e-09 -1.3171450642079615e-09 1.4382344870247294e-09
314 6.6432498138789414e-09 3.746844053071699e-10 7.036198066134932e-10
315 2.552183395086335e-10 -9.765552498552804e-09 2.2411831871244057e-09
318 2.2066036602141827e-09 -2.646478122870085e-09 -1.1383935996103085e-09
266 2.114370018029021e-09 -7.955837118343642e-10 -1.700331503371873e-16
267 -2.0872656326727395e-10 -4.748594203789402e-09 -5.917558088672839e-09
269 -4.462540988914339e-10 -2.872022416558549e-09 -1.6231632076991285e-16
272 3.8293684130707034e-09 -3.829366111470083e-09 -7.765802420865856e-09
316 2.737486765927151e-10 -1.0182998836439917e-08 3.7634319160140064e-09
317 6.329379495734266e-09 -2.8390089533750526e-09 3.5875854374619232e-09
319 -9.003793167250765e-10 -2.5798939719571196e-09 5.1575054457549936e-09
322 4.2983677060368075e-09 -4.298367016867007e-09 1.943475941479957e-09
270 2.872020884687034e-09 4.462562364664049e-10 -1.4720281955448101e-15
271 3.648745641608239e-10 -3.6487602735463523e-10 2.886913264950716e-09
320 2.579893884781417e-09 9.003807153973932e-10 5.157503949496046e-09
321 1.4813551549393926e-10 -1.481363863685065e-10 -1.6057305123726528e-09
273 1.492723020661836e-09 1.4927232055767677e-09 1.938105322625825e-15
274 4.309585072924786e-09 4.309587664574983e-09 -1.0297077635286722e-15
275 1.3039300978162666e-09 1.6882927878319288e-09 -3.291207650948521e-09
276 1.6882931965865509e-09 1.3039322982660997e-09 -3.291209561761352e-09
323 2.9229603822353436e-09 2.922955645162413e-09 -5.09617260200019e-10
324 4.12846236009591e-09 4.128461594096866e-09 9.166733027056475e-09
325 1.02728996903329e-09 1.965179189604988e-09 2.30207629796596e-09
326 1.9651758373812977e-09 1.027289935386154e-09 2.302078400640781e-09
261 1.0846969348297092e-10 -9.483594041874439e-10 1.1422708245225957e-15
277 4.980128923132849e-09 7.47385971761631e-09 -9.690526613129126e-17
278 1.6040410223555502e-09 -1.0635085620506276e-10 -4.2153790767111697e-16
279 3.537717679836541e-09 2.2880034588556226e-09 -2.2983734349252575e-09
280 3.306520776113128e-09 2.967896282391614e-09 -3.973780339311881e-09
327 -2.9321070663170516e-10 -5.071664911942287e-09 4.541724536999604e-09
328 3.946715502189463e-09 -4.851149254498238e-09 2.6265267980150852e-09
329 8.176490848252097e-10 2.7053733595893766e-10 4.027686328947882e-09
330 -5.5278334457516514e-09 2.3837755154104323e-09 3.072185402538642e-09
281 4.64987277754508e-09 -2.707526672127027e-09 -2.1955099357870675e-16
282 1.3040943384068612e-09 -3.3637763501765106e-09 -1.0190194391618596e-15
283 3.5889599126851497e-09 -3.1864115729836447e-09 -2.820141359666457e-09
284 8.505705001190395e-10 4.135667590817971e-09 -2.68088934893891e-09
285 2.1610589817027538e-09 -7.867883558971882e-09 -8.015811507261032e-16
288 1.4942511065168399e-10 -1.4942351374439745e-10 1.7381134052618766e-09
331 2.8857488100881445e-09 5.978239102119717e-10 1.3021250417016993e-09
332 4.222749831765752e-09 -7.880700641936734e-10 -5.650810679149437e-09
333 1.7057736873075948e-10 -9.101516703531217e-10 -9.83657243069717e-10
334 4.095968250548276e-09 4.90577970043721e-10 3.1925026238372793e-09
335 2.4155212668691764e-09 -3.1158007631358963e-09 -1.123443768955503e-11
338 7.518835857849951e-11 -7.518804503341973e-11 -4.300888042823608e-09
341 2.8390069976430047e-09 -6.3293797835873845e-09 3.587585596061196e-09
340 9.765555799405335e-09 -2.5521429787293893e-10 2.2411830351575013e-09
291 4.74859393978877e-09 2.0872354422345393e-10 -5.9175567164949994e-09
286 7.867881989182278e-09 -2.1610572004628306e-09 5.135979104958436e-16
287 2.8475017375269163e-09 -2.8475055015356993e-09 -1.782606652274108e-09
289 7.955858548205545e-10 -2.1143738957798354e-09 -6.383625534456722e-16
292 2.6826923035151523e-09 -3.747438321777228e-10 -3.6230978015884103e-09
336 3.115801117795235e-09 -2.4155229185639583e-09 -1.123320231657022e-11
337 5.439701385704928e-09 -5.439700504989115e-09 -4.2995041877416775e-09
339 1.0182997864885636e-08 -2.7375028444370857e-10 3.76343369988032e-09
342 2.646476868667882e-09 -2.2066043544282733e-09 -1.1383937986617928e-09
290 9.264623492362561e-10 -9.488915013132442e-10 4.542434349904278e-16
346 2.7053660250720463e-10 8.176492144360032e-10 4.027685426517591e-09
345 2.383776643318174e-09 -5.527833442731642e-09 3.072186615743305e-09
344 -4.8511489552847405e-09 3.946719517885965e-09 2.626526832052587e-09
343 -5.071665302990878e-09 -2.9321124377929873e-10 4.5417246998798844e-09
296 2.2880056440214654e-09 3.53771906667487e-09 -2.298372010417845e-09
295 2.9678951361295987e-09 3.306519691584747e-09 -3.973781104343276e-09
294 -1.063549029675569e-10 1.6040482204018429e-09 -1.0115205779762787e-15
293 7.473862467043588e-09 4.980123933405935e-09 -6.190646007436538e-16
13 -9.483567792672304e-10 1.0846793828633812e-10 1.6425442609253868e-15
350 3.840358890417249e-09 2.1542538402772373e-09 -1.8190276915932205e-09
349 2.1542524169811408e-09 3.8403589479547515e-09 -1.8190258615978355e-09
348 -1.4644426419239542e-09 -1.4644378702859377e-09 -1.2730452745786398e-09
347 3.242170097412573e-09 3.2421692252083973e-09 6.2368587598405446e-09
300 4.235021809284142e-09 -1.04355964396484e-10 2.999861320838599e-09
299 -1.0435671420098069e-10 4.235020652477527e-09 2.9998584052014043e-09
298 1.7865153391681922e-09 1.7865146172239595e-09 -3.7550790625875364e-16
297 1.4101489842849405e-09 1.4101425070763864e-09 -2.4559428385149128e-16
361 -2.12146516702827e-09 9.074894567820935e-10 2.083973780541849e-09
362 -5.838789538196832e-10 -3.871268110255917e-10 3.522441395290771e-09
363 3.914001484757523e-09 5.823341324630721e-10 1.1204671396430551e-17
364 -1.4108901775374197e-09 1.5466507051535594e-09 1.1289463504295432e-15
365 6.546399861001485e-09 1.010429969890055e-10 5.291024667029803e-10
368 7.571147877817722e-09 -1.2983955178968624e-09 2.5797507903760735e-16
406 -2.1214636141213802e-09 9.074949028580501e-10 -2.0839738320227714e-09
407 -5.838814491302861e-10 -3.8712717775145823e-10 -3.522441365916362e-09
408 6.5464006789117415e-09 1.0104415019775169e-10 -5.291043173883259e-10
366 9.839062339134293e-09 -2.1526809091255532e-09 -2.082065253001322e-09
367 3.639793124254256e-09 1.6416412007503095e-10 1.5080882041682202e-16
369 5.689787409006517e-09 -4.911893618416385e-09 1.627093697406572e-10
372 7.426086035737017e-10 -7.426108747722456e-10 6.754082348352431e-16
409 9.839062097885488e-09 -2.152685555733064e-09 2.082062977672298e-09
410 5.689787161902228e-09 -4.9118916754658e-09 -1.6270865385300366e-10
370 4.9118954041987425e-09 -5.689787807182826e-09 1.627097776039448e-10
371 1.0112346926033415e-08 -1.011234262437825e-08 4.118473810579879e-17
411 4.911891516066203e-09 -5.689788577579693e-09 -1.6270905419288436e-10
373 -3.8549570272286136e-09 -3.854955919014217e-09 9.514721004212156e-09
374 -3.2874000367778174e-09 -3.287400453773291e-09 2.9146250241461866e-09
375 -9.803437393980538e-09 1.4356906383283222e-09 9.193189198095206e-16
376 1.4356871706771162e-09 -9.803439553576852e-09 -8.288286592718571e-17
412 -3.854956192364668e-09 -3.854952420734109e-09 -9.514720261069897e-09
413 -3.287400683446579e-09 -3.287401573029115e-09 -2.9146250525316698e-09
377 -7.156743816491861e-09 2.699403923728055e-09 -1.8087370827535208e-09
378 1.7274428319439282e-09 3.042687241686334e-09 1.5472118447876194e-09
379 -2.504949527439664e-10 2.773249112457308e-09 -5.838542284410298e-16
380 -3.229634598382146e-09 4.66056073492105e-09 2.0021631103643713e-15
414 -7.156747727225007e-09 2.6994061018063994e-09 1.8087382441025697e-09
415 1.7274431467724822e-09 3.042687285293704e-09 -1.5472130476242351e-09
381 6.639817274304145e-09 3.036342984909901e-09 -1.4337364249905287e-09
382 -5.22789079427335e-10 9.525184295207812e-10 -3.3599828627116917e-09
383 2.920576964892585e-09 1.3345572761838087e-09 5.496176996484473e-16
384 3.55790287234221e-09 -3.6305916505572955e-11 6.783368629190388e-16
385 -3.5638187077147876e-10 -6.256737524692369e-12 7.35009134416367e-09
388 1.9095142652380194e-09 -1.9095163592082824e-09 -6.771279129436216e-16
416 6.639819980383702e-09 3.0363432366885196e-09 1.4337352657612826e-09
417 -5.227893895241866e-10 9.525143850555287e-10 3.3599840607030445e-09
418 -3.563828520981762e-10 -6.254721675368336e-12 -7.350088434655212e-09
103 7.884068548121652e-10 -7.884031169943531e-10 -8.779011453581667e-16
421 -1.0104405296792035e-10 -6.54640065317128e-09 -5.29104530077168e-10
391 -1.6416366532589525e-10 -3.639789599630395e-09 7.376913384244547e-16
390 -1.010408864202262e-10 -6.546398184812454e-09 5.291045827694064e-10
386 6.256834584884789e-12 3.563824570246803e-10 7.350089191969512e-09
387 5.738307876681025e-09 -5.738311160571355e-09 -3.9685971355452764e-17
389 2.152681647793427e-09 -9.83906366815595e-09 -2.0820663247975787e-09
392 1.2983974407329812e-09 -7.57114565791586e-09 1.2743042496264801e-15
419 6.256734608743769e-12 3.563803815485722e-10 -7.350089456036363e-09
420 2.152683493749513e-09 -9.839059205748884e-09 2.0820641889869416e-09
423 3.042687050472065e-09 1.7274432845785842e-09 -1.5472122063653936e-09
422 2.699406055877613e-09 -7.156744710783623e-09 1.808736739415868e-09
396 2.773248654715962e-09 -2.504952870671346e-10 1.1180445079897729e-15
395 4.6605618698766626e-09 -3.229633771244183e-09 6.200499777784116e-16
394 3.0426901857894507e-09 1.727443286793021e-09 1.5472120979526272e-09
393 2.6994043912455705e-09 -7.156748392019737e-09 -1.808738102037344e-09
425 4.129379513180359e-09 4.129379509849241e-09 -6.655893483053079e-09
424 -2.540527004428902e-10 -2.540549146430506e-10 -7.628586713503881e-09
400 1.379003970313117e-09 -2.5269132877056953e-10 -4.248690261943801e-16
399 -2.5269259459560837e-10 1.3790044905732645e-09 1.6473895242319514e-15
398 4.129378075045644e-09 4.1293803208251865e-09 6.65588916652913e-09
397 -2.540559941525739e-10 -2.540520040782409e-10 7.62858308016206e-09
431 -1.276239636756391e-09 -1.3171433156735658e-09 -1.438232799661783e-09
432 6.643250707830022e-09 3.746829129660715e-10 -7.036216199532857e-10
434 2.206604300600426e-09 -2.646476532743328e-09 1.1383970305443906e-09
461 2.047564564233896e-09 3.098958493846751e-09 -3.772737361852777e-09
462 3.6021655566956086e-10 7.686259053496235e-10 -2.1990609620364204e-09
463 -2.9246391415888058e-09 -2.2722767165396494e-09 -5.39312993231255e-10
464 4.00722120014336e-09 -4.393545457804787e-09 1.4300488695173814e-09
465 2.552179431007975e-10 -9.765553133449089e-09 -2.241182872860403e-09
468 3.74749966931678e-10 -2.682689846564461e-09 3.623096328012061e-09
433 6.329381319829218e-09 -2.839007819583439e-09 -3.5875865118990615e-09
436 4.2983693993170434e-09 -4.29836721067754e-09 -1.9434772080715316e-09
466 2.7374595246017945e-10 -1.0182999049631502e-08 -3.763430859907483e-09
467 -2.0872659801689672e-10 -4.748593714040503e-09 5.9175563758086775e-09
469 -9.003788946785108e-10 -2.5798950427603104e-09 -5.1575037147846776e-09
472 3.829370272020558e-09 -3.829367754014344e-09 7.765803147759448e-09
435 1.4813478302758328e-10 -1.4813747655275048e-10 1.6057309266426656e-09
470 2.579891636815384e-09 9.003795137720931e-10 -5.157504156914954e-09
471 3.648693594632043e-10 -3.648725484555811e-10 -2.8869147294315504e-09
437 1.0272901480134841e-09 1.9651809003948893e-09 -2.302078121458435e-09
438 1.9651802912695252e-09 1.0272896592061457e-09 -2.302078069800146e-09
473 2.9229610517310205e-09 2.9229556160908337e-09 5.096170676008026e-10
474 4.128456946508709e-09 4.128461538445328e-09 -9.166732851043355e-09
475 1.3039298534060913e-09 1.6882929430421197e-09 3.291206744884571e-09
476 1.6882975148207136e-09 1.303932346718733e-09 3.291211060140103e-09
439 8.176435806060935e-10 2.7054273842752447e-10 -4.027686514279203e-09
440 -5.527831550042383e-09 2.3837698743126277e-09 -3.0721849909268755e-09
477 -2.9321034102252043e-10 -5.071663989828113e-09 -4.541727859638916e-09
478 3.94671558698157e-09 -4.8511498284632084e-09 -2.626526301375596e-09
479 3.5377178857602316e-09 2.2880050577925136e-09 2.2983720449403463e-09
480 3.3065216446265756e-09 2.967896402311881e-09 3.973784614045434e-09
441 1.7057854612974296e-10 -9.101494209396317e-10 9.836547572887628e-10
442 4.095968961590666e-09 4.905789172926974e-10 -3.192499634309819e-09
444 7.518727010003426e-11 -7.519274955194124e-11 4.3008840510760265e-09
481 2.8857445462564347e-09 5.978256517813016e-10 -1.3021251386069656e-09
482 4.222746212354062e-09 -7.88070737685273e-10 5.6508094778269655e-09
483 3.5889614437883546e-09 -3.186411152751687e-09 2.820140866831257e-09
484 8.505704440956825e-10 4.135669281814865e-09 2.6808901350828815e-09
485 2.415522002000664e-09 -3.115802001695442e-09 1.1232733593793041e-11
488 1.494250439819965e-10 -1.4942539064928915e-10 -1.7381091008723792e-09
491 4.748592176933908e-09 2.087232031670732e-10 5.917561343432035e-09
490 9.765552041275756e-09 -2.552128219650431e-10 -2.2411831792508527e-09
445 2.8390055242526782e-09 -6.329383059468013e-09 -3.587586040401178e-09
443 5.43969945083548e-09 -5.4397000315113095e-09 4.299504780608912e-09
446 2.6464788720470874e-09 -2.2066061365080734e-09 1.1383962435501915e-09
486 3.1158029134385553e-09 -2.415522921588108e-09 1.1235672602381779e-11
487 2.847499934172901e-09 -2.847505641497092e-09 1.782607831813891e-09
489 1.0183000119395641e-08 -2.737490120226765e-10 -3.763435776924991e-09
492 2.682692542343693e-09 -3.7474285704009213e-10 3.623095402577416e-09
496 2.2880102104168607e-09 3.5377204782268806e-09 2.298371319967824e-09
495 2.967893788407071e-09 3.3065201070805663e-09 3.973779202039457e-09
494 -4.851150738090419e-09 3.9467166136070875e-09 -2.6265234164205344e-09
493 -5.071660074647645e-09 -2.9321087148421846e-10 -4.5417269672451574e-09
448 2.705373845323047e-10 8.176481882793824e-10 -4.027686015120082e-09
447 2.3837740161645972e-09 -5.5278325558565276e-09 -3.072187247553513e-09
500 4.235020199445408e-09 -1.0435504319079783e-10 -2.999859086566557e-09
499 -1.0435595349464156e-10 4.235020587066472e-09 -2.9998623995153424e-09
498 -1.46443979866288e-09 -1.4644457910422744e-09 1.2730426859967182e-09
497 3.2421725657146182e-09 3.2421718343826877e-09 -6.236857684797748e-09
450 3.840354824030019e-09 2.154253498686174e-09 1.8190269315841235e-09
449 2.1542533206227475e-09 3.840359921852676e-09 1.8190310884256273e-09
