LAMMPS (12 Jun 2025)
  using 8 OpenMP thread(s) per MPI task
Reading data file ...
  triclinic box = (-0.0094102242 -0.028611766 -0.018615475) to (17.35941 17.378612 17.368615) with tilt (1.065885e-15 1.0646608e-15 1.0646608e-15)
  1 by 1 by 1 MPI processor grid
  reading atoms ...
  500 atoms
  reading velocities ...
  500 velocities
  read_data CPU = 0.004 seconds

This is the PET-MAD v1.0.2 model
================================

A universal interatomic potential for advanced materials modeling

Model authors
-------------

- Arslan Mazitov (arslan.mazitov@epfl.ch)
- Filippo Bigi
- Matthias Kellner
- Paolo Pegolo
- Davide Tisi
- Guillaume Fraux
- Sergey Pozdnyakov
- Philip Loche
- Michele Ceriotti (michele.ceriotti@epfl.ch)

Model references
----------------

Please cite the following references when using this model:
- about this specific model:
  * http://arxiv.org/abs/2503.14118
- about the architecture of this model:
  * LLPR (uncertainty method):
    https://iopscience.iop.org/article/10.1088/2632-2153/ad805f
  * LPR (if using per-atom uncertainty):
    https://pubs.acs.org/doi/10.1021/acs.jctc.3c00704
  * https://arxiv.org/abs/2305.19302v3

WARNING: the model declared support for unknown device 'cuda', it will be ignored (src/ML-METATOMIC/pair_metatomic.cpp:216)
Running simulation on cpu device with float32 data

CITE-CITE-CITE-CITE-CITE-CITE-CITE-CITE-CITE-CITE-CITE-CITE-CITE

Your simulation uses code contributions which should be cited:
- LLPR (uncertainty method): https://iopscience.iop.org/article/10.1088/2632-2153/ad805f
- LPR (if using per-atom uncertainty): https://pubs.acs.org/doi/10.1021/acs.jctc.3c00704
- https://arxiv.org/abs/2305.19302v3
- http://arxiv.org/abs/2503.14118
The log file lists these citations in BibTeX format.

CITE-CITE-CITE-CITE-CITE-CITE-CITE-CITE-CITE-CITE-CITE-CITE-CITE

Neighbor list info ...
  update: every = 1 steps, delay = 0 steps, check = yes
  max neighbors/atom: 2000, page size: 100000
  master list distance cutoff = 11
  ghost atom cutoff = 11
  binsize = 5.5, bins = 4 4 4
  1 neighbor lists, perpetual/occasional/extra = 1 0 0
  (1) pair metatomic, perpetual
      attributes: full, newton on, ghost
      pair build: full/bin/ghost
      stencil: full/ghost/bin/3d
      bin: standard
Setting up cg style minimization ...
  Unit style    : metal
  Current step  : 0
WARNING: Energy due to 3 extra global DOFs will be included in minimizer energies
 (src/min.cpp:222)
Per MPI rank memory allocation (min/avg/max) = 19.79 | 19.79 | 19.79 Mbytes
   Step          Temp          PotEng         Press           Pxx            Pyy            Pzz            Pxy            Pxz            Pyz             Lx             Ly             Lz           Volume    
         0   0             -3819.5132     -0.13279222    -358.50686      354.69294      3.4155466     -393.4181      -1058.181      -213.75036      17.36882       17.407224      17.387231      5256.9065    
Loop time of 3.734e-06 on 8 procs for 0 steps with 500 atoms

642.7% CPU use with 1 MPI tasks x 8 OpenMP threads

Minimization stats:
  Stopping criterion = max iterations
  Energy initial, next-to-last, final = 
     -3819.51318359375 4.66525879425066e-310  -3819.51318359375
  Force two-norm initial, final = 1.6548451 1.6548451
  Force max component initial, final = 1.176298 1.176298
  Final line search alpha, max atom move = 0 0
  Iterations, force evaluations = 0 0

MPI task timing breakdown:
Section |  min time  |  avg time  |  max time  |%varavg| %total
---------------------------------------------------------------
Pair    | 0          | 0          | 0          |   0.0 |  0.00
Neigh   | 0          | 0          | 0          |   0.0 |  0.00
Comm    | 0          | 0          | 0          |   0.0 |  0.00
Output  | 0          | 0          | 0          |   0.0 |  0.00
Modify  | 0          | 0          | 0          |   0.0 |  0.00
Other   |            | 3.734e-06  |            |       |100.00

Nlocal:            500 ave         500 max         500 min
Histogram: 1 0 0 0 0 0 0 0 0 0
Nghost:           5584 ave        5584 max        5584 min
Histogram: 1 0 0 0 0 0 0 0 0 0
Neighs:              0 ave           0 max           0 min
Histogram: 1 0 0 0 0 0 0 0 0 0
FullNghs:       271330 ave      271330 max      271330 min
Histogram: 1 0 0 0 0 0 0 0 0 0

Total # of neighbors = 271330
Ave neighs/atom = 542.66
Neighbor list builds = 0
Dangerous builds = 0
Displacing atoms ...
System init for write_restart ...
  using 8 OpenMP thread(s) per MPI task

The 'box' command has been removed and will be ignored

Reading restart file ...
  restart file = 12 Jun 2025, LAMMPS = 12 Jun 2025
  restoring atom style atomic from restart
  triclinic box = (-0.0094102242 -0.028611766 -0.018615475) to (17.35941 17.378612 17.368615) with tilt (1.065885e-15 1.0646608e-15 1.0646608e-15)
  1 by 1 by 1 MPI processor grid
  pair style metatomic stores no restart info
  500 atoms
  read_restart CPU = 0.002 seconds

This is the PET-MAD v1.0.2 model
================================

A universal interatomic potential for advanced materials modeling

Model authors
-------------

- Arslan Mazitov (arslan.mazitov@epfl.ch)
- Filippo Bigi
- Matthias Kellner
- Paolo Pegolo
- Davide Tisi
- Guillaume Fraux
- Sergey Pozdnyakov
- Philip Loche
- Michele Ceriotti (michele.ceriotti@epfl.ch)

Model references
----------------

Please cite the following references when using this model:
- about this specific model:
  * http://arxiv.org/abs/2503.14118
- about the architecture of this model:
  * LLPR (uncertainty method):
    https://iopscience.iop.org/article/10.1088/2632-2153/ad805f
  * LPR (if using per-atom uncertainty):
    https://pubs.acs.org/doi/10.1021/acs.jctc.3c00704
  * https://arxiv.org/abs/2305.19302v3

WARNING: the model declared support for unknown device 'cuda', it will be ignored (src/ML-METATOMIC/pair_metatomic.cpp:216)
Running simulation on cpu device with float32 data
Changing box ...
  triclinic box = (-0.0094102242 -0.028611766 -0.018615475) to (17.359393 17.378612 17.368615) with tilt (1.065885e-15 1.0646608e-15 1.0646608e-15)
  triclinic box = (-0.0094102242 -0.028611766 -0.018615475) to (17.359393 17.378612 17.368615) with tilt (1.065884e-15 1.0646608e-15 1.0646608e-15)
  triclinic box = (-0.0094102242 -0.028611766 -0.018615475) to (17.359393 17.378612 17.368615) with tilt (1.065884e-15 1.0646598e-15 1.0646608e-15)
Neighbor list info ...
  update: every = 1 steps, delay = 0 steps, check = yes
  max neighbors/atom: 2000, page size: 100000
  master list distance cutoff = 11
  ghost atom cutoff = 11
  binsize = 5.5, bins = 4 4 4
  1 neighbor lists, perpetual/occasional/extra = 1 0 0
  (1) pair metatomic, perpetual
      attributes: full, newton on, ghost
      pair build: full/bin/ghost
      stencil: full/ghost/bin/3d
      bin: standard
Setting up cg style minimization ...
  Unit style    : metal
  Current step  : 0
Per MPI rank memory allocation (min/avg/max) = 19.79 | 19.79 | 19.79 Mbytes
   Step          Temp          PotEng         Press           Pxx            Pyy            Pzz            Pxy            Pxz            Pyz             Lx             Ly             Lz           Volume    
         0   0             -3819.5132      2.4991399     -354.73925      356.77087      5.4658006     -393.59628     -1058.2535     -213.7522       17.368803      17.407224      17.387231      5256.9013    
Loop time of 3.718e-06 on 8 procs for 0 steps with 500 atoms

1183.4% CPU use with 1 MPI tasks x 8 OpenMP threads

Minimization stats:
  Stopping criterion = max iterations
  Energy initial, next-to-last, final = 
     -3819.51318359375 4.94065645841247e-324  -3819.51318359375
  Force two-norm initial, final = 0.0180625 0.0180625
  Force max component initial, final = 0.0019060709 0.0019060709
  Final line search alpha, max atom move = 0 0
  Iterations, force evaluations = 0 0

MPI task timing breakdown:
Section |  min time  |  avg time  |  max time  |%varavg| %total
---------------------------------------------------------------
Pair    | 0          | 0          | 0          |   0.0 |  0.00
Neigh   | 0          | 0          | 0          |   0.0 |  0.00
Comm    | 0          | 0          | 0          |   0.0 |  0.00
Output  | 0          | 0          | 0          |   0.0 |  0.00
Modify  | 0          | 0          | 0          |   0.0 |  0.00
Other   |            | 3.718e-06  |            |       |100.00

Nlocal:            500 ave         500 max         500 min
Histogram: 1 0 0 0 0 0 0 0 0 0
Nghost:           5584 ave        5584 max        5584 min
Histogram: 1 0 0 0 0 0 0 0 0 0
Neighs:              0 ave           0 max           0 min
Histogram: 1 0 0 0 0 0 0 0 0 0
FullNghs:       271330 ave      271330 max      271330 min
Histogram: 1 0 0 0 0 0 0 0 0 0

Total # of neighbors = 271330
Ave neighs/atom = 542.66
Neighbor list builds = 0
Dangerous builds = 0
  using 8 OpenMP thread(s) per MPI task

The 'box' command has been removed and will be ignored

Reading restart file ...
  restart file = 12 Jun 2025, LAMMPS = 12 Jun 2025
  restoring atom style atomic from restart
  triclinic box = (-0.0094102242 -0.028611766 -0.018615475) to (17.35941 17.378612 17.368615) with tilt (1.065885e-15 1.0646608e-15 1.0646608e-15)
  1 by 1 by 1 MPI processor grid
  pair style metatomic stores no restart info
  500 atoms
  read_restart CPU = 0.001 seconds

This is the PET-MAD v1.0.2 model
================================

A universal interatomic potential for advanced materials modeling

Model authors
-------------

- Arslan Mazitov (arslan.mazitov@epfl.ch)
- Filippo Bigi
- Matthias Kellner
- Paolo Pegolo
- Davide Tisi
- Guillaume Fraux
- Sergey Pozdnyakov
- Philip Loche
- Michele Ceriotti (michele.ceriotti@epfl.ch)

Model references
----------------

Please cite the following references when using this model:
- about this specific model:
  * http://arxiv.org/abs/2503.14118
- about the architecture of this model:
  * LLPR (uncertainty method):
    https://iopscience.iop.org/article/10.1088/2632-2153/ad805f
  * LPR (if using per-atom uncertainty):
    https://pubs.acs.org/doi/10.1021/acs.jctc.3c00704
  * https://arxiv.org/abs/2305.19302v3

WARNING: the model declared support for unknown device 'cuda', it will be ignored (src/ML-METATOMIC/pair_metatomic.cpp:216)
Running simulation on cpu device with float32 data
Changing box ...
  triclinic box = (-0.0094102242 -0.028611766 -0.018615475) to (17.359428 17.378612 17.368615) with tilt (1.065885e-15 1.0646608e-15 1.0646608e-15)
  triclinic box = (-0.0094102242 -0.028611766 -0.018615475) to (17.359428 17.378612 17.368615) with tilt (1.0658861e-15 1.0646608e-15 1.0646608e-15)
  triclinic box = (-0.0094102242 -0.028611766 -0.018615475) to (17.359428 17.378612 17.368615) with tilt (1.0658861e-15 1.0646619e-15 1.0646608e-15)
Neighbor list info ...
  update: every = 1 steps, delay = 0 steps, check = yes
  max neighbors/atom: 2000, page size: 100000
  master list distance cutoff = 11
  ghost atom cutoff = 11
  binsize = 5.5, bins = 4 4 4
  1 neighbor lists, perpetual/occasional/extra = 1 0 0
  (1) pair metatomic, perpetual
      attributes: full, newton on, ghost
      pair build: full/bin/ghost
      stencil: full/ghost/bin/3d
      bin: standard
Setting up cg style minimization ...
  Unit style    : metal
  Current step  : 0
Per MPI rank memory allocation (min/avg/max) = 19.79 | 19.79 | 19.79 Mbytes
   Step          Temp          PotEng         Press           Pxx            Pyy            Pzz            Pxy            Pxz            Pyz             Lx             Ly             Lz           Volume    
         0   0             -3819.5132     -2.9869856     -362.58197      352.48672      1.1342999     -393.5913      -1058.2472     -213.74933      17.368838      17.407224      17.387231      5256.9118    
Loop time of 4.016e-06 on 8 procs for 0 steps with 500 atoms

1867.5% CPU use with 1 MPI tasks x 8 OpenMP threads

Minimization stats:
  Stopping criterion = max iterations
  Energy initial, next-to-last, final = 
     -3819.51318359375 -nan                -3819.51318359375
  Force two-norm initial, final = 0.018073886 0.018073886
  Force max component initial, final = 0.0019028001 0.0019028001
  Final line search alpha, max atom move = 0 0
  Iterations, force evaluations = 0 0

MPI task timing breakdown:
Section |  min time  |  avg time  |  max time  |%varavg| %total
---------------------------------------------------------------
Pair    | 0          | 0          | 0          |   0.0 |  0.00
Neigh   | 0          | 0          | 0          |   0.0 |  0.00
Comm    | 0          | 0          | 0          |   0.0 |  0.00
Output  | 0          | 0          | 0          |   0.0 |  0.00
Modify  | 0          | 0          | 0          |   0.0 |  0.00
Other   |            | 4.016e-06  |            |       |100.00

Nlocal:            500 ave         500 max         500 min
Histogram: 1 0 0 0 0 0 0 0 0 0
Nghost:           5584 ave        5584 max        5584 min
Histogram: 1 0 0 0 0 0 0 0 0 0
Neighs:              0 ave           0 max           0 min
Histogram: 1 0 0 0 0 0 0 0 0 0
FullNghs:       271330 ave      271330 max      271330 min
Histogram: 1 0 0 0 0 0 0 0 0 0

Total # of neighbors = 271330
Ave neighs/atom = 542.66
Neighbor list builds = 0
Dangerous builds = 0
  using 8 OpenMP thread(s) per MPI task

The 'box' command has been removed and will be ignored

Reading restart file ...
  restart file = 12 Jun 2025, LAMMPS = 12 Jun 2025
  restoring atom style atomic from restart
  triclinic box = (-0.0094102242 -0.028611766 -0.018615475) to (17.35941 17.378612 17.368615) with tilt (1.065885e-15 1.0646608e-15 1.0646608e-15)
  1 by 1 by 1 MPI processor grid
  pair style metatomic stores no restart info
  500 atoms
  read_restart CPU = 0.001 seconds

This is the PET-MAD v1.0.2 model
================================

A universal interatomic potential for advanced materials modeling

Model authors
-------------

- Arslan Mazitov (arslan.mazitov@epfl.ch)
- Filippo Bigi
- Matthias Kellner
- Paolo Pegolo
- Davide Tisi
- Guillaume Fraux
- Sergey Pozdnyakov
- Philip Loche
- Michele Ceriotti (michele.ceriotti@epfl.ch)

Model references
----------------

Please cite the following references when using this model:
- about this specific model:
  * http://arxiv.org/abs/2503.14118
- about the architecture of this model:
  * LLPR (uncertainty method):
    https://iopscience.iop.org/article/10.1088/2632-2153/ad805f
  * LPR (if using per-atom uncertainty):
    https://pubs.acs.org/doi/10.1021/acs.jctc.3c00704
  * https://arxiv.org/abs/2305.19302v3

WARNING: the model declared support for unknown device 'cuda', it will be ignored (src/ML-METATOMIC/pair_metatomic.cpp:216)
Running simulation on cpu device with float32 data
Changing box ...
  triclinic box = (-0.0094102242 -0.028611766 -0.018615475) to (17.35941 17.378594 17.368615) with tilt (1.065885e-15 1.0646608e-15 1.0646608e-15)
  triclinic box = (-0.0094102242 -0.028611766 -0.018615475) to (17.35941 17.378594 17.368615) with tilt (1.065885e-15 1.0646608e-15 1.0646598e-15)
Neighbor list info ...
  update: every = 1 steps, delay = 0 steps, check = yes
  max neighbors/atom: 2000, page size: 100000
  master list distance cutoff = 11
  ghost atom cutoff = 11
  binsize = 5.5, bins = 4 4 4
  1 neighbor lists, perpetual/occasional/extra = 1 0 0
  (1) pair metatomic, perpetual
      attributes: full, newton on, ghost
      pair build: full/bin/ghost
      stencil: full/ghost/bin/3d
      bin: standard
Setting up cg style minimization ...
  Unit style    : metal
  Current step  : 0
Per MPI rank memory allocation (min/avg/max) = 19.79 | 19.79 | 19.79 Mbytes
   Step          Temp          PotEng         Press           Pxx            Pyy            Pzz            Pxy            Pxz            Pyz             Lx             Ly             Lz           Volume    
         0   0             -3819.5132      2.5085098     -356.50746      358.58384      5.4491491     -393.60538     -1058.2232     -213.74852      17.36882       17.407206      17.387231      5256.9013    
Loop time of 4.156e-06 on 8 procs for 0 steps with 500 atoms

842.2% CPU use with 1 MPI tasks x 8 OpenMP threads

Minimization stats:
  Stopping criterion = max iterations
  Energy initial, next-to-last, final = 
     -3819.51318359375                  0  -3819.51318359375
  Force two-norm initial, final = 0.018056793 0.018056793
  Force max component initial, final = 0.0019053668 0.0019053668
  Final line search alpha, max atom move = 0 0
  Iterations, force evaluations = 0 0

MPI task timing breakdown:
Section |  min time  |  avg time  |  max time  |%varavg| %total
---------------------------------------------------------------
Pair    | 0          | 0          | 0          |   0.0 |  0.00
Neigh   | 0          | 0          | 0          |   0.0 |  0.00
Comm    | 0          | 0          | 0          |   0.0 |  0.00
Output  | 0          | 0          | 0          |   0.0 |  0.00
Modify  | 0          | 0          | 0          |   0.0 |  0.00
Other   |            | 4.156e-06  |            |       |100.00

Nlocal:            500 ave         500 max         500 min
Histogram: 1 0 0 0 0 0 0 0 0 0
Nghost:           5584 ave        5584 max        5584 min
Histogram: 1 0 0 0 0 0 0 0 0 0
Neighs:              0 ave           0 max           0 min
Histogram: 1 0 0 0 0 0 0 0 0 0
FullNghs:       271330 ave      271330 max      271330 min
Histogram: 1 0 0 0 0 0 0 0 0 0

Total # of neighbors = 271330
Ave neighs/atom = 542.66
Neighbor list builds = 0
Dangerous builds = 0
  using 8 OpenMP thread(s) per MPI task

The 'box' command has been removed and will be ignored

Reading restart file ...
  restart file = 12 Jun 2025, LAMMPS = 12 Jun 2025
  restoring atom style atomic from restart
  triclinic box = (-0.0094102242 -0.028611766 -0.018615475) to (17.35941 17.378612 17.368615) with tilt (1.065885e-15 1.0646608e-15 1.0646608e-15)
  1 by 1 by 1 MPI processor grid
  pair style metatomic stores no restart info
  500 atoms
  read_restart CPU = 0.001 seconds

This is the PET-MAD v1.0.2 model
================================

A universal interatomic potential for advanced materials modeling

Model authors
-------------

- Arslan Mazitov (arslan.mazitov@epfl.ch)
- Filippo Bigi
- Matthias Kellner
- Paolo Pegolo
- Davide Tisi
- Guillaume Fraux
- Sergey Pozdnyakov
- Philip Loche
- Michele Ceriotti (michele.ceriotti@epfl.ch)

Model references
----------------

Please cite the following references when using this model:
- about this specific model:
  * http://arxiv.org/abs/2503.14118
- about the architecture of this model:
  * LLPR (uncertainty method):
    https://iopscience.iop.org/article/10.1088/2632-2153/ad805f
  * LPR (if using per-atom uncertainty):
    https://pubs.acs.org/doi/10.1021/acs.jctc.3c00704
  * https://arxiv.org/abs/2305.19302v3

WARNING: the model declared support for unknown device 'cuda', it will be ignored (src/ML-METATOMIC/pair_metatomic.cpp:216)
Running simulation on cpu device with float32 data
Changing box ...
  triclinic box = (-0.0094102242 -0.028611766 -0.018615475) to (17.35941 17.378629 17.368615) with tilt (1.065885e-15 1.0646608e-15 1.0646608e-15)
  triclinic box = (-0.0094102242 -0.028611766 -0.018615475) to (17.35941 17.378629 17.368615) with tilt (1.065885e-15 1.0646608e-15 1.0646619e-15)
Neighbor list info ...
  update: every = 1 steps, delay = 0 steps, check = yes
  max neighbors/atom: 2000, page size: 100000
  master list distance cutoff = 11
  ghost atom cutoff = 11
  binsize = 5.5, bins = 4 4 4
  1 neighbor lists, perpetual/occasional/extra = 1 0 0
  (1) pair metatomic, perpetual
      attributes: full, newton on, ghost
      pair build: full/bin/ghost
      stencil: full/ghost/bin/3d
      bin: standard
Setting up cg style minimization ...
  Unit style    : metal
  Current step  : 0
Per MPI rank memory allocation (min/avg/max) = 19.79 | 19.79 | 19.79 Mbytes
   Step          Temp          PotEng         Press           Pxx            Pyy            Pzz            Pxy            Pxz            Pyz             Lx             Ly             Lz           Volume    
         0   0             -3819.5132     -3.2956913     -361.03826      350.23014      0.92105351    -393.59482     -1058.2518     -213.75365      17.36882       17.407241      17.387231      5256.9118    
Loop time of 4.045e-06 on 8 procs for 0 steps with 500 atoms

1137.2% CPU use with 1 MPI tasks x 8 OpenMP threads

Minimization stats:
  Stopping criterion = max iterations
  Energy initial, next-to-last, final = 
     -3819.51318359375  -126.284683199872  -3819.51318359375
  Force two-norm initial, final = 0.018077501 0.018077501
  Force max component initial, final = 0.0019026436 0.0019026436
  Final line search alpha, max atom move = 0 0
  Iterations, force evaluations = 0 0

MPI task timing breakdown:
Section |  min time  |  avg time  |  max time  |%varavg| %total
---------------------------------------------------------------
Pair    | 0          | 0          | 0          |   0.0 |  0.00
Neigh   | 0          | 0          | 0          |   0.0 |  0.00
Comm    | 0          | 0          | 0          |   0.0 |  0.00
Output  | 0          | 0          | 0          |   0.0 |  0.00
Modify  | 0          | 0          | 0          |   0.0 |  0.00
Other   |            | 4.045e-06  |            |       |100.00

Nlocal:            500 ave         500 max         500 min
Histogram: 1 0 0 0 0 0 0 0 0 0
Nghost:           5584 ave        5584 max        5584 min
Histogram: 1 0 0 0 0 0 0 0 0 0
Neighs:              0 ave           0 max           0 min
Histogram: 1 0 0 0 0 0 0 0 0 0
FullNghs:       271330 ave      271330 max      271330 min
Histogram: 1 0 0 0 0 0 0 0 0 0

Total # of neighbors = 271330
Ave neighs/atom = 542.66
Neighbor list builds = 0
Dangerous builds = 0
  using 8 OpenMP thread(s) per MPI task

The 'box' command has been removed and will be ignored

Reading restart file ...
  restart file = 12 Jun 2025, LAMMPS = 12 Jun 2025
  restoring atom style atomic from restart
  triclinic box = (-0.0094102242 -0.028611766 -0.018615475) to (17.35941 17.378612 17.368615) with tilt (1.065885e-15 1.0646608e-15 1.0646608e-15)
  1 by 1 by 1 MPI processor grid
  pair style metatomic stores no restart info
  500 atoms
  read_restart CPU = 0.001 seconds

This is the PET-MAD v1.0.2 model
================================

A universal interatomic potential for advanced materials modeling

Model authors
-------------

- Arslan Mazitov (arslan.mazitov@epfl.ch)
- Filippo Bigi
- Matthias Kellner
- Paolo Pegolo
- Davide Tisi
- Guillaume Fraux
- Sergey Pozdnyakov
- Philip Loche
- Michele Ceriotti (michele.ceriotti@epfl.ch)

Model references
----------------

Please cite the following references when using this model:
- about this specific model:
  * http://arxiv.org/abs/2503.14118
- about the architecture of this model:
  * LLPR (uncertainty method):
    https://iopscience.iop.org/article/10.1088/2632-2153/ad805f
  * LPR (if using per-atom uncertainty):
    https://pubs.acs.org/doi/10.1021/acs.jctc.3c00704
  * https://arxiv.org/abs/2305.19302v3

WARNING: the model declared support for unknown device 'cuda', it will be ignored (src/ML-METATOMIC/pair_metatomic.cpp:216)
Running simulation on cpu device with float32 data
Changing box ...
  triclinic box = (-0.0094102242 -0.028611766 -0.018615475) to (17.35941 17.378612 17.368598) with tilt (1.065885e-15 1.0646608e-15 1.0646608e-15)
Neighbor list info ...
  update: every = 1 steps, delay = 0 steps, check = yes
  max neighbors/atom: 2000, page size: 100000
  master list distance cutoff = 11
  ghost atom cutoff = 11
  binsize = 5.5, bins = 4 4 4
  1 neighbor lists, perpetual/occasional/extra = 1 0 0
  (1) pair metatomic, perpetual
      attributes: full, newton on, ghost
      pair build: full/bin/ghost
      stencil: full/ghost/bin/3d
      bin: standard
Setting up cg style minimization ...
  Unit style    : metal
  Current step  : 0
Per MPI rank memory allocation (min/avg/max) = 19.79 | 19.79 | 19.79 Mbytes
   Step          Temp          PotEng         Press           Pxx            Pyy            Pzz            Pxy            Pxz            Pyz             Lx             Ly             Lz           Volume    
         0   0             -3819.5132      2.8068161     -356.26614      357.01571      7.6708804     -393.60213     -1058.2521     -213.74238      17.36882       17.407224      17.387214      5256.9013    
Loop time of 4.166e-06 on 8 procs for 0 steps with 500 atoms

360.1% CPU use with 1 MPI tasks x 8 OpenMP threads

Minimization stats:
  Stopping criterion = max iterations
  Energy initial, next-to-last, final = 
     -3819.51318359375  -126.283767672528  -3819.51318359375
  Force two-norm initial, final = 0.018055506 0.018055506
  Force max component initial, final = 0.0019019507 0.0019019507
  Final line search alpha, max atom move = 0 0
  Iterations, force evaluations = 0 0

MPI task timing breakdown:
Section |  min time  |  avg time  |  max time  |%varavg| %total
---------------------------------------------------------------
Pair    | 0          | 0          | 0          |   0.0 |  0.00
Neigh   | 0          | 0          | 0          |   0.0 |  0.00
Comm    | 0          | 0          | 0          |   0.0 |  0.00
Output  | 0          | 0          | 0          |   0.0 |  0.00
Modify  | 0          | 0          | 0          |   0.0 |  0.00
Other   |            | 4.166e-06  |            |       |100.00

Nlocal:            500 ave         500 max         500 min
Histogram: 1 0 0 0 0 0 0 0 0 0
Nghost:           5584 ave        5584 max        5584 min
Histogram: 1 0 0 0 0 0 0 0 0 0
Neighs:              0 ave           0 max           0 min
Histogram: 1 0 0 0 0 0 0 0 0 0
FullNghs:       271330 ave      271330 max      271330 min
Histogram: 1 0 0 0 0 0 0 0 0 0

Total # of neighbors = 271330
Ave neighs/atom = 542.66
Neighbor list builds = 0
Dangerous builds = 0
  using 8 OpenMP thread(s) per MPI task

The 'box' command has been removed and will be ignored

Reading restart file ...
  restart file = 12 Jun 2025, LAMMPS = 12 Jun 2025
  restoring atom style atomic from restart
  triclinic box = (-0.0094102242 -0.028611766 -0.018615475) to (17.35941 17.378612 17.368615) with tilt (1.065885e-15 1.0646608e-15 1.0646608e-15)
  1 by 1 by 1 MPI processor grid
  pair style metatomic stores no restart info
  500 atoms
  read_restart CPU = 0.004 seconds

This is the PET-MAD v1.0.2 model
================================

A universal interatomic potential for advanced materials modeling

Model authors
-------------

- Arslan Mazitov (arslan.mazitov@epfl.ch)
- Filippo Bigi
- Matthias Kellner
- Paolo Pegolo
- Davide Tisi
- Guillaume Fraux
- Sergey Pozdnyakov
- Philip Loche
- Michele Ceriotti (michele.ceriotti@epfl.ch)

Model references
----------------

Please cite the following references when using this model:
- about this specific model:
  * http://arxiv.org/abs/2503.14118
- about the architecture of this model:
  * LLPR (uncertainty method):
    https://iopscience.iop.org/article/10.1088/2632-2153/ad805f
  * LPR (if using per-atom uncertainty):
    https://pubs.acs.org/doi/10.1021/acs.jctc.3c00704
  * https://arxiv.org/abs/2305.19302v3

WARNING: the model declared support for unknown device 'cuda', it will be ignored (src/ML-METATOMIC/pair_metatomic.cpp:216)
Running simulation on cpu device with float32 data
Changing box ...
  triclinic box = (-0.0094102242 -0.028611766 -0.018615475) to (17.35941 17.378612 17.368633) with tilt (1.065885e-15 1.0646608e-15 1.0646608e-15)
Neighbor list info ...
  update: every = 1 steps, delay = 0 steps, check = yes
  max neighbors/atom: 2000, page size: 100000
  master list distance cutoff = 11
  ghost atom cutoff = 11
  binsize = 5.5, bins = 4 4 4
  1 neighbor lists, perpetual/occasional/extra = 1 0 0
  (1) pair metatomic, perpetual
      attributes: full, newton on, ghost
      pair build: full/bin/ghost
      stencil: full/ghost/bin/3d
      bin: standard
Setting up cg style minimization ...
  Unit style    : metal
  Current step  : 0
Per MPI rank memory allocation (min/avg/max) = 19.79 | 19.79 | 19.79 Mbytes
   Step          Temp          PotEng         Press           Pxx            Pyy            Pzz            Pxy            Pxz            Pyz             Lx             Ly             Lz           Volume    
         0   0             -3819.5132     -2.9995655     -360.84334      352.48018     -0.63553365    -393.58345     -1058.2241     -213.76716      17.36882       17.407224      17.387248      5256.9118    
Loop time of 3.59e-06 on 8 procs for 0 steps with 500 atoms

1559.9% CPU use with 1 MPI tasks x 8 OpenMP threads

Minimization stats:
  Stopping criterion = max iterations
  Energy initial, next-to-last, final = 
     -3819.51318359375                  0  -3819.51318359375
  Force two-norm initial, final = 0.018074573 0.018074573
  Force max component initial, final = 0.0019010939 0.0019010939
  Final line search alpha, max atom move = 0 0
  Iterations, force evaluations = 0 0

MPI task timing breakdown:
Section |  min time  |  avg time  |  max time  |%varavg| %total
---------------------------------------------------------------
Pair    | 0          | 0          | 0          |   0.0 |  0.00
Neigh   | 0          | 0          | 0          |   0.0 |  0.00
Comm    | 0          | 0          | 0          |   0.0 |  0.00
Output  | 0          | 0          | 0          |   0.0 |  0.00
Modify  | 0          | 0          | 0          |   0.0 |  0.00
Other   |            | 3.59e-06   |            |       |100.00

Nlocal:            500 ave         500 max         500 min
Histogram: 1 0 0 0 0 0 0 0 0 0
Nghost:           5584 ave        5584 max        5584 min
Histogram: 1 0 0 0 0 0 0 0 0 0
Neighs:              0 ave           0 max           0 min
Histogram: 1 0 0 0 0 0 0 0 0 0
FullNghs:       271330 ave      271330 max      271330 min
Histogram: 1 0 0 0 0 0 0 0 0 0

Total # of neighbors = 271330
Ave neighs/atom = 542.66
Neighbor list builds = 0
Dangerous builds = 0
  using 8 OpenMP thread(s) per MPI task

The 'box' command has been removed and will be ignored

Reading restart file ...
  restart file = 12 Jun 2025, LAMMPS = 12 Jun 2025
  restoring atom style atomic from restart
  triclinic box = (-0.0094102242 -0.028611766 -0.018615475) to (17.35941 17.378612 17.368615) with tilt (1.065885e-15 1.0646608e-15 1.0646608e-15)
  1 by 1 by 1 MPI processor grid
  pair style metatomic stores no restart info
  500 atoms
  read_restart CPU = 0.002 seconds

This is the PET-MAD v1.0.2 model
================================

A universal interatomic potential for advanced materials modeling

Model authors
-------------

- Arslan Mazitov (arslan.mazitov@epfl.ch)
- Filippo Bigi
- Matthias Kellner
- Paolo Pegolo
- Davide Tisi
- Guillaume Fraux
- Sergey Pozdnyakov
- Philip Loche
- Michele Ceriotti (michele.ceriotti@epfl.ch)

Model references
----------------

Please cite the following references when using this model:
- about this specific model:
  * http://arxiv.org/abs/2503.14118
- about the architecture of this model:
  * LLPR (uncertainty method):
    https://iopscience.iop.org/article/10.1088/2632-2153/ad805f
  * LPR (if using per-atom uncertainty):
    https://pubs.acs.org/doi/10.1021/acs.jctc.3c00704
  * https://arxiv.org/abs/2305.19302v3

WARNING: the model declared support for unknown device 'cuda', it will be ignored (src/ML-METATOMIC/pair_metatomic.cpp:216)
Running simulation on cpu device with float32 data
Changing box ...
  triclinic box = (-0.0094102242 -0.028611766 -0.018615475) to (17.35941 17.378612 17.368615) with tilt (1.065885e-15 1.0646608e-15 -1.7387231e-05)
Neighbor list info ...
  update: every = 1 steps, delay = 0 steps, check = yes
  max neighbors/atom: 2000, page size: 100000
  master list distance cutoff = 11
  ghost atom cutoff = 11
  binsize = 5.5, bins = 4 4 4
  1 neighbor lists, perpetual/occasional/extra = 1 0 0
  (1) pair metatomic, perpetual
      attributes: full, newton on, ghost
      pair build: full/bin/ghost
      stencil: full/ghost/bin/3d
      bin: standard
Setting up cg style minimization ...
  Unit style    : metal
  Current step  : 0
Per MPI rank memory allocation (min/avg/max) = 19.79 | 19.79 | 19.79 Mbytes
   Step          Temp          PotEng         Press           Pxx            Pyy            Pzz            Pxy            Pxz            Pyz             Lx             Ly             Lz           Volume    
         0   0             -3819.5132     -0.23979472    -358.6657       354.63648      3.309843      -393.60225     -1058.2394     -211.94101      17.36882       17.407224      17.387231      5256.9065    
Loop time of 3.677e-06 on 8 procs for 0 steps with 500 atoms

1251.0% CPU use with 1 MPI tasks x 8 OpenMP threads

Minimization stats:
  Stopping criterion = max iterations
  Energy initial, next-to-last, final = 
     -3819.51318359375  -126.283767672528  -3819.51318359375
  Force two-norm initial, final = 0.018068476 0.018068476
  Force max component initial, final = 0.00190337 0.00190337
  Final line search alpha, max atom move = 0 0
  Iterations, force evaluations = 0 0

MPI task timing breakdown:
Section |  min time  |  avg time  |  max time  |%varavg| %total
---------------------------------------------------------------
Pair    | 0          | 0          | 0          |   0.0 |  0.00
Neigh   | 0          | 0          | 0          |   0.0 |  0.00
Comm    | 0          | 0          | 0          |   0.0 |  0.00
Output  | 0          | 0          | 0          |   0.0 |  0.00
Modify  | 0          | 0          | 0          |   0.0 |  0.00
Other   |            | 3.677e-06  |            |       |100.00

Nlocal:            500 ave         500 max         500 min
Histogram: 1 0 0 0 0 0 0 0 0 0
Nghost:           5584 ave        5584 max        5584 min
Histogram: 1 0 0 0 0 0 0 0 0 0
Neighs:              0 ave           0 max           0 min
Histogram: 1 0 0 0 0 0 0 0 0 0
FullNghs:       271330 ave      271330 max      271330 min
Histogram: 1 0 0 0 0 0 0 0 0 0

Total # of neighbors = 271330
Ave neighs/atom = 542.66
Neighbor list builds = 0
Dangerous builds = 0
  using 8 OpenMP thread(s) per MPI task

The 'box' command has been removed and will be ignored

Reading restart file ...
  restart file = 12 Jun 2025, LAMMPS = 12 Jun 2025
  restoring atom style atomic from restart
  triclinic box = (-0.0094102242 -0.028611766 -0.018615475) to (17.35941 17.378612 17.368615) with tilt (1.065885e-15 1.0646608e-15 1.0646608e-15)
  1 by 1 by 1 MPI processor grid
  pair style metatomic stores no restart info
  500 atoms
  read_restart CPU = 0.001 seconds

This is the PET-MAD v1.0.2 model
================================

A universal interatomic potential for advanced materials modeling

Model authors
-------------

- Arslan Mazitov (arslan.mazitov@epfl.ch)
- Filippo Bigi
- Matthias Kellner
- Paolo Pegolo
- Davide Tisi
- Guillaume Fraux
- Sergey Pozdnyakov
- Philip Loche
- Michele Ceriotti (michele.ceriotti@epfl.ch)

Model references
----------------

Please cite the following references when using this model:
- about this specific model:
  * http://arxiv.org/abs/2503.14118
- about the architecture of this model:
  * LLPR (uncertainty method):
    https://iopscience.iop.org/article/10.1088/2632-2153/ad805f
  * LPR (if using per-atom uncertainty):
    https://pubs.acs.org/doi/10.1021/acs.jctc.3c00704
  * https://arxiv.org/abs/2305.19302v3

WARNING: the model declared support for unknown device 'cuda', it will be ignored (src/ML-METATOMIC/pair_metatomic.cpp:216)
Running simulation on cpu device with float32 data
Changing box ...
  triclinic box = (-0.0094102242 -0.028611766 -0.018615475) to (17.35941 17.378612 17.368615) with tilt (1.065885e-15 1.0646608e-15 1.7387231e-05)
Neighbor list info ...
  update: every = 1 steps, delay = 0 steps, check = yes
  max neighbors/atom: 2000, page size: 100000
  master list distance cutoff = 11
  ghost atom cutoff = 11
  binsize = 5.5, bins = 4 4 4
  1 neighbor lists, perpetual/occasional/extra = 1 0 0
  (1) pair metatomic, perpetual
      attributes: full, newton on, ghost
      pair build: full/bin/ghost
      stencil: full/ghost/bin/3d
      bin: standard
Setting up cg style minimization ...
  Unit style    : metal
  Current step  : 0
Per MPI rank memory allocation (min/avg/max) = 19.79 | 19.79 | 19.79 Mbytes
   Step          Temp          PotEng         Press           Pxx            Pyy            Pzz            Pxy            Pxz            Pyz             Lx             Ly             Lz           Volume    
         0   0             -3819.5132     -0.24337343    -358.65055      354.63851      3.2819218     -393.59078     -1058.2381     -215.5612       17.36882       17.407224      17.387231      5256.9065    
Loop time of 3.79e-06 on 8 procs for 0 steps with 500 atoms

659.6% CPU use with 1 MPI tasks x 8 OpenMP threads

Minimization stats:
  Stopping criterion = max iterations
  Energy initial, next-to-last, final = 
     -3819.51318359375                  0  -3819.51318359375
  Force two-norm initial, final = 0.018070586 0.018070586
  Force max component initial, final = 0.0019051358 0.0019051358
  Final line search alpha, max atom move = 0 0
  Iterations, force evaluations = 0 0

MPI task timing breakdown:
Section |  min time  |  avg time  |  max time  |%varavg| %total
---------------------------------------------------------------
Pair    | 0          | 0          | 0          |   0.0 |  0.00
Neigh   | 0          | 0          | 0          |   0.0 |  0.00
Comm    | 0          | 0          | 0          |   0.0 |  0.00
Output  | 0          | 0          | 0          |   0.0 |  0.00
Modify  | 0          | 0          | 0          |   0.0 |  0.00
Other   |            | 3.79e-06   |            |       |100.00

Nlocal:            500 ave         500 max         500 min
Histogram: 1 0 0 0 0 0 0 0 0 0
Nghost:           5584 ave        5584 max        5584 min
Histogram: 1 0 0 0 0 0 0 0 0 0
Neighs:              0 ave           0 max           0 min
Histogram: 1 0 0 0 0 0 0 0 0 0
FullNghs:       271330 ave      271330 max      271330 min
Histogram: 1 0 0 0 0 0 0 0 0 0

Total # of neighbors = 271330
Ave neighs/atom = 542.66
Neighbor list builds = 0
Dangerous builds = 0
  using 8 OpenMP thread(s) per MPI task

The 'box' command has been removed and will be ignored

Reading restart file ...
  restart file = 12 Jun 2025, LAMMPS = 12 Jun 2025
  restoring atom style atomic from restart
  triclinic box = (-0.0094102242 -0.028611766 -0.018615475) to (17.35941 17.378612 17.368615) with tilt (1.065885e-15 1.0646608e-15 1.0646608e-15)
  1 by 1 by 1 MPI processor grid
  pair style metatomic stores no restart info
  500 atoms
  read_restart CPU = 0.006 seconds

This is the PET-MAD v1.0.2 model
================================

A universal interatomic potential for advanced materials modeling

Model authors
-------------

- Arslan Mazitov (arslan.mazitov@epfl.ch)
- Filippo Bigi
- Matthias Kellner
- Paolo Pegolo
- Davide Tisi
- Guillaume Fraux
- Sergey Pozdnyakov
- Philip Loche
- Michele Ceriotti (michele.ceriotti@epfl.ch)

Model references
----------------

Please cite the following references when using this model:
- about this specific model:
  * http://arxiv.org/abs/2503.14118
- about the architecture of this model:
  * LLPR (uncertainty method):
    https://iopscience.iop.org/article/10.1088/2632-2153/ad805f
  * LPR (if using per-atom uncertainty):
    https://pubs.acs.org/doi/10.1021/acs.jctc.3c00704
  * https://arxiv.org/abs/2305.19302v3

WARNING: the model declared support for unknown device 'cuda', it will be ignored (src/ML-METATOMIC/pair_metatomic.cpp:216)
Running simulation on cpu device with float32 data
Changing box ...
  triclinic box = (-0.0094102242 -0.028611766 -0.018615475) to (17.35941 17.378612 17.368615) with tilt (1.065885e-15 -1.7387231e-05 1.0646608e-15)
Neighbor list info ...
  update: every = 1 steps, delay = 0 steps, check = yes
  max neighbors/atom: 2000, page size: 100000
  master list distance cutoff = 11
  ghost atom cutoff = 11
  binsize = 5.5, bins = 4 4 4
  1 neighbor lists, perpetual/occasional/extra = 1 0 0
  (1) pair metatomic, perpetual
      attributes: full, newton on, ghost
      pair build: full/bin/ghost
      stencil: full/ghost/bin/3d
      bin: standard
Setting up cg style minimization ...
  Unit style    : metal
  Current step  : 0
Per MPI rank memory allocation (min/avg/max) = 19.79 | 19.79 | 19.79 Mbytes
   Step          Temp          PotEng         Press           Pxx            Pyy            Pzz            Pxy            Pxz            Pyz             Lx             Ly             Lz           Volume    
         0   0             -3819.5132     -0.2392399     -358.65666      354.64574      3.2931961     -393.58682     -1056.4382     -213.75388      17.36882       17.407224      17.387231      5256.9065    
Loop time of 3.881e-06 on 8 procs for 0 steps with 500 atoms

901.8% CPU use with 1 MPI tasks x 8 OpenMP threads

Minimization stats:
  Stopping criterion = max iterations
  Energy initial, next-to-last, final = 
     -3819.51318359375  -126.283767672528  -3819.51318359375
  Force two-norm initial, final = 0.018065466 0.018065466
  Force max component initial, final = 0.001903791 0.001903791
  Final line search alpha, max atom move = 0 0
  Iterations, force evaluations = 0 0

MPI task timing breakdown:
Section |  min time  |  avg time  |  max time  |%varavg| %total
---------------------------------------------------------------
Pair    | 0          | 0          | 0          |   0.0 |  0.00
Neigh   | 0          | 0          | 0          |   0.0 |  0.00
Comm    | 0          | 0          | 0          |   0.0 |  0.00
Output  | 0          | 0          | 0          |   0.0 |  0.00
Modify  | 0          | 0          | 0          |   0.0 |  0.00
Other   |            | 3.881e-06  |            |       |100.00

Nlocal:            500 ave         500 max         500 min
Histogram: 1 0 0 0 0 0 0 0 0 0
Nghost:           5584 ave        5584 max        5584 min
Histogram: 1 0 0 0 0 0 0 0 0 0
Neighs:              0 ave           0 max           0 min
Histogram: 1 0 0 0 0 0 0 0 0 0
FullNghs:       271330 ave      271330 max      271330 min
Histogram: 1 0 0 0 0 0 0 0 0 0

Total # of neighbors = 271330
Ave neighs/atom = 542.66
Neighbor list builds = 0
Dangerous builds = 0
  using 8 OpenMP thread(s) per MPI task

The 'box' command has been removed and will be ignored

Reading restart file ...
  restart file = 12 Jun 2025, LAMMPS = 12 Jun 2025
  restoring atom style atomic from restart
  triclinic box = (-0.0094102242 -0.028611766 -0.018615475) to (17.35941 17.378612 17.368615) with tilt (1.065885e-15 1.0646608e-15 1.0646608e-15)
  1 by 1 by 1 MPI processor grid
  pair style metatomic stores no restart info
  500 atoms
  read_restart CPU = 0.005 seconds

This is the PET-MAD v1.0.2 model
================================

A universal interatomic potential for advanced materials modeling

Model authors
-------------

- Arslan Mazitov (arslan.mazitov@epfl.ch)
- Filippo Bigi
- Matthias Kellner
- Paolo Pegolo
- Davide Tisi
- Guillaume Fraux
- Sergey Pozdnyakov
- Philip Loche
- Michele Ceriotti (michele.ceriotti@epfl.ch)

Model references
----------------

Please cite the following references when using this model:
- about this specific model:
  * http://arxiv.org/abs/2503.14118
- about the architecture of this model:
  * LLPR (uncertainty method):
    https://iopscience.iop.org/article/10.1088/2632-2153/ad805f
  * LPR (if using per-atom uncertainty):
    https://pubs.acs.org/doi/10.1021/acs.jctc.3c00704
  * https://arxiv.org/abs/2305.19302v3

WARNING: the model declared support for unknown device 'cuda', it will be ignored (src/ML-METATOMIC/pair_metatomic.cpp:216)
Running simulation on cpu device with float32 data
Changing box ...
  triclinic box = (-0.0094102242 -0.028611766 -0.018615475) to (17.35941 17.378612 17.368615) with tilt (1.065885e-15 1.7387231e-05 1.0646608e-15)
Neighbor list info ...
  update: every = 1 steps, delay = 0 steps, check = yes
  max neighbors/atom: 2000, page size: 100000
  master list distance cutoff = 11
  ghost atom cutoff = 11
  binsize = 5.5, bins = 4 4 4
  1 neighbor lists, perpetual/occasional/extra = 1 0 0
  (1) pair metatomic, perpetual
      attributes: full, newton on, ghost
      pair build: full/bin/ghost
      stencil: full/ghost/bin/3d
      bin: standard
Setting up cg style minimization ...
  Unit style    : metal
  Current step  : 0
Per MPI rank memory allocation (min/avg/max) = 19.79 | 19.79 | 19.79 Mbytes
   Step          Temp          PotEng         Press           Pxx            Pyy            Pzz            Pxy            Pxz            Pyz             Lx             Ly             Lz           Volume    
         0   0             -3819.5132     -0.23719547    -358.6378       354.61355      3.3126632     -393.60497     -1060.0571     -213.74796      17.36882       17.407224      17.387231      5256.9065    
Loop time of 4.203e-06 on 8 procs for 0 steps with 500 atoms

785.2% CPU use with 1 MPI tasks x 8 OpenMP threads

Minimization stats:
  Stopping criterion = max iterations
  Energy initial, next-to-last, final = 
     -3819.51318359375  -126.283767672528  -3819.51318359375
  Force two-norm initial, final = 0.01806701 0.01806701
  Force max component initial, final = 0.0019094944 0.0019094944
  Final line search alpha, max atom move = 0 0
  Iterations, force evaluations = 0 0

MPI task timing breakdown:
Section |  min time  |  avg time  |  max time  |%varavg| %total
---------------------------------------------------------------
Pair    | 0          | 0          | 0          |   0.0 |  0.00
Neigh   | 0          | 0          | 0          |   0.0 |  0.00
Comm    | 0          | 0          | 0          |   0.0 |  0.00
Output  | 0          | 0          | 0          |   0.0 |  0.00
Modify  | 0          | 0          | 0          |   0.0 |  0.00
Other   |            | 4.203e-06  |            |       |100.00

Nlocal:            500 ave         500 max         500 min
Histogram: 1 0 0 0 0 0 0 0 0 0
Nghost:           5584 ave        5584 max        5584 min
Histogram: 1 0 0 0 0 0 0 0 0 0
Neighs:              0 ave           0 max           0 min
Histogram: 1 0 0 0 0 0 0 0 0 0
FullNghs:       271330 ave      271330 max      271330 min
Histogram: 1 0 0 0 0 0 0 0 0 0

Total # of neighbors = 271330
Ave neighs/atom = 542.66
Neighbor list builds = 0
Dangerous builds = 0
  using 8 OpenMP thread(s) per MPI task

The 'box' command has been removed and will be ignored

Reading restart file ...
  restart file = 12 Jun 2025, LAMMPS = 12 Jun 2025
  restoring atom style atomic from restart
  triclinic box = (-0.0094102242 -0.028611766 -0.018615475) to (17.35941 17.378612 17.368615) with tilt (1.065885e-15 1.0646608e-15 1.0646608e-15)
  1 by 1 by 1 MPI processor grid
  pair style metatomic stores no restart info
  500 atoms
  read_restart CPU = 0.006 seconds

This is the PET-MAD v1.0.2 model
================================

A universal interatomic potential for advanced materials modeling

Model authors
-------------

- Arslan Mazitov (arslan.mazitov@epfl.ch)
- Filippo Bigi
- Matthias Kellner
- Paolo Pegolo
- Davide Tisi
- Guillaume Fraux
- Sergey Pozdnyakov
- Philip Loche
- Michele Ceriotti (michele.ceriotti@epfl.ch)

Model references
----------------

Please cite the following references when using this model:
- about this specific model:
  * http://arxiv.org/abs/2503.14118
- about the architecture of this model:
  * LLPR (uncertainty method):
    https://iopscience.iop.org/article/10.1088/2632-2153/ad805f
  * LPR (if using per-atom uncertainty):
    https://pubs.acs.org/doi/10.1021/acs.jctc.3c00704
  * https://arxiv.org/abs/2305.19302v3

WARNING: the model declared support for unknown device 'cuda', it will be ignored (src/ML-METATOMIC/pair_metatomic.cpp:216)
Running simulation on cpu device with float32 data
Changing box ...
  triclinic box = (-0.0094102242 -0.028611766 -0.018615475) to (17.35941 17.378612 17.368615) with tilt (-1.7407224e-05 1.0646608e-15 1.0646608e-15)
Neighbor list info ...
  update: every = 1 steps, delay = 0 steps, check = yes
  max neighbors/atom: 2000, page size: 100000
  master list distance cutoff = 11
  ghost atom cutoff = 11
  binsize = 5.5, bins = 4 4 4
  1 neighbor lists, perpetual/occasional/extra = 1 0 0
  (1) pair metatomic, perpetual
      attributes: full, newton on, ghost
      pair build: full/bin/ghost
      stencil: full/ghost/bin/3d
      bin: standard
Setting up cg style minimization ...
  Unit style    : metal
  Current step  : 0
Per MPI rank memory allocation (min/avg/max) = 19.79 | 19.79 | 19.79 Mbytes
   Step          Temp          PotEng         Press           Pxx            Pyy            Pzz            Pxy            Pxz            Pyz             Lx             Ly             Lz           Volume    
         0   0             -3819.5132     -0.2426801     -358.66076      354.64418      3.2885433     -391.7797      -1058.2385     -213.74707      17.36882       17.407224      17.387231      5256.9065    
Loop time of 3.9e-06 on 8 procs for 0 steps with 500 atoms

359.0% CPU use with 1 MPI tasks x 8 OpenMP threads

Minimization stats:
  Stopping criterion = max iterations
  Energy initial, next-to-last, final = 
     -3819.51318359375 2.42586232108052e-321  -3819.51318359375
  Force two-norm initial, final = 0.018072232 0.018072232
  Force max component initial, final = 0.0019054264 0.0019054264
  Final line search alpha, max atom move = 0 0
  Iterations, force evaluations = 0 0

MPI task timing breakdown:
Section |  min time  |  avg time  |  max time  |%varavg| %total
---------------------------------------------------------------
Pair    | 0          | 0          | 0          |   0.0 |  0.00
Neigh   | 0          | 0          | 0          |   0.0 |  0.00
Comm    | 0          | 0          | 0          |   0.0 |  0.00
Output  | 0          | 0          | 0          |   0.0 |  0.00
Modify  | 0          | 0          | 0          |   0.0 |  0.00
Other   |            | 3.9e-06    |            |       |100.00

Nlocal:            500 ave         500 max         500 min
Histogram: 1 0 0 0 0 0 0 0 0 0
Nghost:           5584 ave        5584 max        5584 min
Histogram: 1 0 0 0 0 0 0 0 0 0
Neighs:              0 ave           0 max           0 min
Histogram: 1 0 0 0 0 0 0 0 0 0
FullNghs:       271330 ave      271330 max      271330 min
Histogram: 1 0 0 0 0 0 0 0 0 0

Total # of neighbors = 271330
Ave neighs/atom = 542.66
Neighbor list builds = 0
Dangerous builds = 0
  using 8 OpenMP thread(s) per MPI task

The 'box' command has been removed and will be ignored

Reading restart file ...
  restart file = 12 Jun 2025, LAMMPS = 12 Jun 2025
  restoring atom style atomic from restart
  triclinic box = (-0.0094102242 -0.028611766 -0.018615475) to (17.35941 17.378612 17.368615) with tilt (1.065885e-15 1.0646608e-15 1.0646608e-15)
  1 by 1 by 1 MPI processor grid
  pair style metatomic stores no restart info
  500 atoms
  read_restart CPU = 0.006 seconds

This is the PET-MAD v1.0.2 model
================================

A universal interatomic potential for advanced materials modeling

Model authors
-------------

- Arslan Mazitov (arslan.mazitov@epfl.ch)
- Filippo Bigi
- Matthias Kellner
- Paolo Pegolo
- Davide Tisi
- Guillaume Fraux
- Sergey Pozdnyakov
- Philip Loche
- Michele Ceriotti (michele.ceriotti@epfl.ch)

Model references
----------------

Please cite the following references when using this model:
- about this specific model:
  * http://arxiv.org/abs/2503.14118
- about the architecture of this model:
  * LLPR (uncertainty method):
    https://iopscience.iop.org/article/10.1088/2632-2153/ad805f
  * LPR (if using per-atom uncertainty):
    https://pubs.acs.org/doi/10.1021/acs.jctc.3c00704
  * https://arxiv.org/abs/2305.19302v3

WARNING: the model declared support for unknown device 'cuda', it will be ignored (src/ML-METATOMIC/pair_metatomic.cpp:216)
Running simulation on cpu device with float32 data
Changing box ...
  triclinic box = (-0.0094102242 -0.028611766 -0.018615475) to (17.35941 17.378612 17.368615) with tilt (1.7407224e-05 1.0646608e-15 1.0646608e-15)
Neighbor list info ...
  update: every = 1 steps, delay = 0 steps, check = yes
  max neighbors/atom: 2000, page size: 100000
  master list distance cutoff = 11
  ghost atom cutoff = 11
  binsize = 5.5, bins = 4 4 4
  1 neighbor lists, perpetual/occasional/extra = 1 0 0
  (1) pair metatomic, perpetual
      attributes: full, newton on, ghost
      pair build: full/bin/ghost
      stencil: full/ghost/bin/3d
      bin: standard
Setting up cg style minimization ...
  Unit style    : metal
  Current step  : 0
Per MPI rank memory allocation (min/avg/max) = 19.79 | 19.79 | 19.79 Mbytes
   Step          Temp          PotEng         Press           Pxx            Pyy            Pzz            Pxy            Pxz            Pyz             Lx             Ly             Lz           Volume    
         0   0             -3819.5132     -0.23297338    -358.64917      354.64236      3.3078901     -395.40393     -1058.2686     -213.73631      17.36882       17.407224      17.387231      5256.9065    
Loop time of 3.947e-06 on 8 procs for 0 steps with 500 atoms

912.1% CPU use with 1 MPI tasks x 8 OpenMP threads

Minimization stats:
  Stopping criterion = max iterations
  Energy initial, next-to-last, final = 
     -3819.51318359375  -126.283767672528  -3819.51318359375
  Force two-norm initial, final = 0.018065587 0.018065587
  Force max component initial, final = 0.0019061454 0.0019061454
  Final line search alpha, max atom move = 0 0
  Iterations, force evaluations = 0 0

MPI task timing breakdown:
Section |  min time  |  avg time  |  max time  |%varavg| %total
---------------------------------------------------------------
Pair    | 0          | 0          | 0          |   0.0 |  0.00
Neigh   | 0          | 0          | 0          |   0.0 |  0.00
Comm    | 0          | 0          | 0          |   0.0 |  0.00
Output  | 0          | 0          | 0          |   0.0 |  0.00
Modify  | 0          | 0          | 0          |   0.0 |  0.00
Other   |            | 3.947e-06  |            |       |100.00

Nlocal:            500 ave         500 max         500 min
Histogram: 1 0 0 0 0 0 0 0 0 0
Nghost:           5584 ave        5584 max        5584 min
Histogram: 1 0 0 0 0 0 0 0 0 0
Neighs:              0 ave           0 max           0 min
Histogram: 1 0 0 0 0 0 0 0 0 0
FullNghs:       271330 ave      271330 max      271330 min
Histogram: 1 0 0 0 0 0 0 0 0 0

Total # of neighbors = 271330
Ave neighs/atom = 542.66
Neighbor list builds = 0
Dangerous builds = 0
Elastic Constant C11all = 392.1361851119 GPa
Elastic Constant C22all = 417.685359492751 GPa
Elastic Constant C33all = 415.320703324879 GPa
Elastic Constant C12all = 220.373810546423 GPa
Elastic Constant C13all = 222.717442510614 GPa
Elastic Constant C23all = 226.590734092395 GPa
Elastic Constant C44all = 181.009349822951 GPa
Elastic Constant C55all = 180.944633314494 GPa
Elastic Constant C66all = 181.211674065849 GPa
Elastic Constant C14all = -0.450646259400862 GPa
Elastic Constant C15all = -0.62968420835007 GPa
Elastic Constant C16all = -0.414336854551324 GPa
Elastic Constant C24all = 0.0773041900998815 GPa
Elastic Constant C25all = 1.51935867209687 GPa
Elastic Constant C26all = -0.218598115901613 GPa
Elastic Constant C34all = 1.31759021735208 GPa
Elastic Constant C35all = -1.18811894341222 GPa
Elastic Constant C36all = -0.95068906234985 GPa
Elastic Constant C45all = -0.181660375051252 GPa
Elastic Constant C46all = -0.555767210373417 GPa
Elastic Constant C56all = 1.2057707402988 GPa
=========================================
Averaged Elastic Properties
=========================================
Bulk Modulus = 284.945135803155 GPa
Shear Modulus 1 = 181.055219067765 GPa
Shear Modulus 2 = 92.576710130016 GPa
Poisson Ratio = 0.353426969505446
Bulk Modulus (B) = 284.945135803155 GPa
Shear Modulus (Voigt) (G) = 145.663815492665 GPa
Young Modulus (E) = 373.369366645685 GPa
Poisson Ratio (nu) = 0.281613300402962
Total wall time: 0:00:32
