LAMMPS data file via write_data, version 29 Aug 2024, timestep = 28, units = metal

500 atoms
3 atom types

0 17.583246476374942 xlo xhi
0 17.583246476374942 ylo yhi
0 17.583246476374942 zlo zhi

Masses

1 55.8175
2 55.845
3 55.845

Atoms # atomic

1 2 0.0009332096204056526 0.0009332096204045649 1.173405740596888e-16 0 0 0
2 3 1.7573914380170876 1.7573914380170896 0 0 0 0
3 1 1.7564102975356675 0.0019143501018238608 1.7543786007058988 0 0 0
4 1 0.001914350101825648 1.7564102975356708 1.754378600705898 0 0 0
5 1 3.5131235078246332 0.001895945988299655 0 0 0 0
8 1 3.515752555434763 1.758952163001642 1.7572733576760613 0 0 0
11 1 0.0018959459883024637 3.5131235078246315 0 0 0 0
13 1 1.7589521630016396 3.51575255543476 1.7572733576760617 0 0 0
15 1 3.512847013928019 3.5128470139280163 7.904267519122972e-17 0 0 0
52 1 1.7588497242200598 1.7588497242200631 3.5154152253254702 0 0 0
53 1 1.7580366434056465 0.0002880042318442085 5.274455384542499 0 0 0
54 1 0.00028800423184543073 1.7580366434056482 5.274455384542498 0 0 0
58 1 3.51635148413228 1.7580675858138153 5.274511999572995 0 0 0
63 1 1.7580675858138113 3.5163514841322763 5.274511999572995 0 0 0
65 1 3.5175570494424186 3.517557049442416 3.5176947407665855 0 0 0
6 1 5.272925644662722 1.758101661201419 0 0 0 0
9 1 7.033081526492193 0.00029249696434417553 0 0 0 0
10 1 7.032930415382705 1.7583043888868204 1.7580209912228626 0 0 0
17 1 5.275511130948184 3.5172282100910612 1.7586429515099515 0 0 0
19 1 7.033022324593177 3.5162476737230186 2.5533235489564644e-19 0 0 0
56 1 5.272628254476801 1.7580769299328833 3.514479171280758 0 0 0
57 1 5.274259954953197 0.0002524456801521616 5.274086597298151 0 0 0
59 1 7.033085936264484 0.0002513662465662174 3.516494531614079 0 0 0
60 1 7.032546971164808 1.7582085067576616 5.274229108933904 0 0 0
67 1 5.275027176514322 3.5163502670797726 5.2748575543165535 0 0 0
69 1 7.0329744259372715 3.5163126284141053 3.516565649974697 0 0 0
252 1 8.791497470242712 3.9170705916467824e-05 1.7582577928922343 0 0 0
262 1 8.791503212446443 3.5165477172768878 1.7582827349123447 0 0 0
301 1 8.791584702041867 1.7583168705255605 3.5164315923134817 0 0 0
302 1 8.791534830037039 0.0001113895793578995 5.274781256932469 0 0 0
312 1 8.791542577001579 3.5164448748862234 5.2748162128616345 0 0 0
12 1 1.758101661201417 5.2729256446627275 7.9402872006348e-16 0 0 0
18 1 3.517228210091064 5.275511130948187 1.758642951509951 0 0 0
21 1 0.00029249696434482144 7.0330815264921895 4.508355906830958e-16 0 0 0
23 1 1.7583043888868164 7.032930415382704 1.758020991222863 0 0 0
25 1 3.5162476737230204 7.033022324593174 0 0 0 0
62 1 1.758076929932881 5.272628254476804 3.5144791712807586 0 0 0
64 1 0.0002524456801532505 5.2742599549532 5.274086597298151 0 0 0
68 1 3.516350267079774 5.2750271765143255 5.274857554316554 0 0 0
71 1 0.0002513662465697281 7.033085936264482 3.5164945316140783 0 0 0
73 1 1.7582085067576596 7.0325469711648045 5.274229108933902 0 0 0
75 1 3.5163126284141075 7.03297442593727 3.5165656499746976 0 0 0
24 1 3.917070591917978e-05 8.791497470242716 1.7582577928922345 0 0 0
28 1 3.5165477172768895 8.791503212446447 1.7582827349123444 0 0 0
72 1 1.7583168705255565 8.791584702041867 3.5164315923134812 0 0 0
74 1 0.00011138957936275357 8.791534830037044 5.274781256932469 0 0 0
78 1 3.516444874886226 8.791542577001579 5.274816212861635 0 0 0
16 1 5.272142525156353 5.272142525156355 0 0 0 0
20 1 7.033054482281904 5.274906585443085 1.7579729981660923 0 0 0
27 1 5.274906585443082 7.0330544822819006 1.7579729981660919 0 0 0
29 1 7.03242649200359 7.032426492003588 0 0 0 0
66 1 5.275375427834801 5.275375427834803 3.516952610187227 0 0 0
70 1 7.033359267969973 5.274888344666642 5.27499637930923 0 0 0
77 1 5.274888344666639 7.0333592679699715 5.27499637930923 0 0 0
79 1 7.03335650321822 7.033356503218218 3.5165172379949916 0 0 0
30 1 7.033168590770229 8.791546707466535 1.7581097630243856 0 0 0
76 1 5.274799689151618 8.791471316699335 3.5164686604038535 0 0 0
261 1 8.79159130488805 5.27471974834665 0 0 0 0
272 1 8.791546707466534 7.0331685907702255 1.7581097630243852 0 0 0
311 1 8.79147131669933 5.274799689151621 3.5164686604038535 0 0 0
271 1 8.791409825471021 8.791409825471025 4.365988358520977e-19 0 0 0
22 1 1.758299983098986 8.791655445654108 3.104644958427746e-16 0 0 0
31 1 2.466453850872087e-05 10.549915678358328 0 0 0 0
32 1 1.758032150673149 12.308489597520246 0 0 0 0
33 1 1.7582854769315752 10.55007365376972 1.7582577928922338 0 0 0
34 1 2.025875067576243e-05 12.308640708629733 1.7580209912228622 0 0 0
35 1 3.516465237350313 10.54999204612677 0 0 0 0
38 1 3.5165984502719034 12.308582432668729 1.7580286987653762 0 0 0
81 1 7.777111936297627e-06 10.549986421970567 3.516431592313483 0 0 0
82 1 1.7580732813909237 12.308485187747955 3.5164945316140783 0 0 0
83 1 1.7582132580581311 10.550036293975394 5.27478125693247 0 0 0
84 1 0.00011614087983662196 12.309024152847632 5.274229108933903 0 0 0
85 1 3.516542537138681 10.550114749006365 3.51647992331277 0 0 0
88 1 3.5164736666664633 12.308336143109834 5.274921195645106 0 0 0
36 1 5.274129135824417 12.3090095284994 0 0 0 0
37 1 5.274815311850433 10.55004474433806 1.75820105112955 0 0 0
39 1 7.032960782162276 10.550179944123203 1.5855194674230541e-18 0 0 0
40 1 7.033107434951138 12.3084636890613 1.7580956685728972 0 0 0
80 1 7.033242979715112 8.791637326379911 5.274887306542296 0 0 0
86 1 5.274905588818695 12.308411291937436 3.516486358328724 0 0 0
87 1 5.274836403586418 10.549958575664187 5.274851942637255 0 0 0
89 1 7.033208958035843 10.54996079234667 3.516466593144636 0 0 0
90 1 7.033249663464314 12.308321460548123 5.27489202940954 0 0 0
281 1 8.79139117988923 12.308610341850164 0 0 0 0
282 1 8.791564327431193 10.550006796581238 1.758112902682254 0 0 0
331 1 8.791610331665762 12.308362165976595 3.516466593144635 0 0 0
332 1 8.791599137176437 10.549971986835995 5.274866573221839 0 0 0
55 1 3.5149005141660723 17.582715473841798 3.5150245752431752 0 -1 0
41 1 0.00022298643607859394 14.06864547934971 6.685419673985247e-19 0 0 0
42 1 1.756428701649192 15.828447616187805 0 0 0 0
43 1 1.758842899643416 14.066155428231955 1.7585943024547854 0 0 0
45 1 3.5141127380874435 14.069092641366316 0 0 0 0
48 1 3.517775553213378 15.82379557079906 1.7593300355134618 0 0 0
91 1 0.0002477177046131313 14.06894286953563 3.514479171280758 0 0 0
92 1 1.758855650170635 15.826670609846367 3.515024575243175 0 0 0
93 1 1.758072201957339 14.067311169059234 5.27408659729815 0 0 0
94 1 0.0002570618236821559 15.825219639880162 5.274511999572996 0 0 0
95 1 3.516705921334038 14.066479995136984 3.516941572909221 0 0 0
98 1 3.5163683269896495 15.825202797022788 5.274585472625938 0 0 0
100 1 7.033234980902606 15.825097457345976 5.2749211956451045 0 0 0
99 1 7.033159832075001 14.066665535193737 3.5164863583287236 0 0 0
7 1 5.2754156957804765 17.582728224369017 1.7585943024547863 0 -1 0
97 1 5.2749436232055125 14.066627500806918 5.275045390099023 0 0 0
292 1 8.791526379674373 14.066755812161999 1.7582010511295503 0 0 0
96 1 5.275091128875449 15.824865202678401 3.51694157290922 0 0 0
46 1 5.272478482646116 15.827458385924993 0 0 0 0
47 1 5.274750075333696 14.066821048678737 1.7578021381972695 0 0 0
49 1 7.0325615955130365 14.067441988188016 0 0 0 0
50 1 7.03298869134371 15.824972673740534 1.7580286987653766 0 0 0
342 1 8.791612548348246 14.066734720426018 5.274851942637254 0 0 0
341 1 8.791456375006065 15.825028586873755 3.51647992331277 0 0 0
291 1 8.791579077885663 15.825105886662126 0 0 0 0
101 1 3.641326707453237e-05 3.641326706949657e-05 7.033197195350766 0 0 0
102 1 1.758288234370419 1.758288234370423 7.033197195350767 0 0 0
103 1 1.7582899410474226 3.4706590066782913e-05 8.791623238187471 0 0 0
104 1 3.470659007121476e-05 1.7582899410474253 8.79162323818747 0 0 0
105 1 3.5164507469212163 4.264487356285226e-05 7.03312043585766 0 0 0
108 1 3.516541463143139 1.7583150641453846 8.791623238187471 0 0 0
111 1 4.2644873565977016e-05 3.5164507469212154 7.03312043585766 0 0 0
113 1 1.7583150641453817 3.516541463143137 8.79162323818747 0 0 0
115 1 3.5165095109339664 3.516509510933965 7.032996390242828 0 0 0
151 1 3.641326707315735e-05 3.6413267071913486e-05 10.550049281024176 0 0 0
152 1 1.7582882343704194 1.7582882343704225 10.550049281024176 0 0 0
153 1 3.5164507469212167 4.264487356326353e-05 10.55012604051728 0 0 0
156 1 4.264487356641431e-05 3.5164507469212163 10.550126040517283 0 0 0
158 1 3.516509510933967 3.516509510933963 10.550250086132113 0 0 0
106 1 5.274726546153684 1.7582074112986503 7.033155133397281 0 0 0
107 1 5.274775060905886 1.3662209493113682e-05 8.79162323818747 0 0 0
109 1 7.032975517324563 0.00011289285094017739 7.032980097250335 0 0 0
110 1 7.033120838804847 1.758213157501998 8.791623238187471 0 0 0
117 1 5.274810664566896 3.5165401274658414 8.791623238187471 0 0 0
119 1 7.033216992438166 3.516442852970306 7.033218732365104 0 0 0
154 1 5.274726546153684 1.75820741129865 10.550091342977662 0 0 0
155 1 7.032975517324564 0.00011289285094146465 10.550266379124606 0 0 0
160 1 7.033216992438165 3.516442852970307 10.550027744009835 0 0 0
351 1 8.791405314372811 1.7582150298296777 7.0330335433049855 0 0 0
352 1 8.791556406801966 0.00010835932810320675 8.791623238187471 0 0 0
362 1 8.791578779022275 3.516439804906994 8.791623238187471 0 0 0
401 1 8.791405314372811 1.758215029829678 10.550212933069956 0 0 0
112 1 1.7582074112986463 5.274726546153686 7.033155133397281 0 0 0
114 1 1.366220949632526e-05 5.274775060905891 8.791623238187471 0 0 0
118 1 3.5165401274658423 5.274810664566898 8.79162323818747 0 0 0
121 1 0.00011289285093914928 7.03297551732456 7.032980097250336 0 0 0
123 1 1.7582131575019952 7.03312083880484 8.791623238187473 0 0 0
125 1 3.51644285297031 7.033216992438163 7.033218732365103 0 0 0
157 1 1.7582074112986454 5.274726546153687 10.55009134297766 0 0 0
161 1 0.00011289285094193046 7.0329755173245605 10.550266379124606 0 0 0
163 1 3.5164428529703073 7.033216992438164 10.550027744009837 0 0 0
122 1 1.7582150298296755 8.791405314372819 7.033033543304985 0 0 0
124 1 0.00010835932810436578 8.791556406801966 8.791623238187471 0 0 0
128 1 3.516439804906998 8.791578779022279 8.791623238187471 0 0 0
162 1 1.7582150298296748 8.791405314372813 10.550212933069956 0 0 0
116 1 5.274839976095401 5.274839976095405 7.033149623936678 0 0 0
120 1 7.033201035424909 5.27482474539093 8.791623238187471 0 0 0
127 1 5.274824745390928 7.033201035424907 8.79162323818747 0 0 0
129 1 7.033245454149696 7.033245454149694 7.0332907193585745 0 0 0
159 1 5.274839976095403 5.274839976095404 10.550096852438266 0 0 0
165 1 7.0332454541496965 7.033245454149693 10.549955757016368 0 0 0
130 1 7.033216713463873 8.791612371513516 8.791623238187471 0 0 0
372 1 8.791612371513514 7.03321671346387 8.791623238187471 0 0 0
371 1 8.791606258838272 8.791606258838275 7.033257258396342 0 0 0
411 1 8.791606258838272 8.791606258838275 10.549989217978599 0 0 0
131 1 0.00010961780782014371 10.55016580963962 7.033033543304985 0 0 0
132 1 1.7582117547865512 12.308595606687875 7.032980097250335 0 0 0
133 1 1.7582162883093901 10.550014717210468 8.79162323818747 0 0 0
134 1 0.00011149013549607124 12.308450285207595 8.791623238187471 0 0 0
135 1 3.5164459005917723 10.549963370028467 7.033244289033192 0 0 0
138 1 3.516441450827096 12.308428002420108 8.791623238187471 0 0 0
166 1 0.00010961780781527263 10.550165809639621 10.550212933069957 0 0 0
167 1 1.7582117547865523 12.308595606687877 10.550266379124608 0 0 0
168 1 3.516445900591774 10.549963370028468 10.55000218734175 0 0 0
126 1 5.274824884079069 8.791633823992907 7.033284466235631 0 0 0
136 1 5.274831182451057 12.308329803995345 7.033296762468779 0 0 0
137 1 5.274812760441518 10.549982244889813 8.791623238187471 0 0 0
139 1 7.033216513565791 10.549979189405347 7.03326121877719 0 0 0
140 1 7.033210746017712 12.308360377994727 8.791623238187471 0 0 0
164 1 5.274824884079068 8.791633823992907 10.549962010139309 0 0 0
169 1 5.274831182451056 12.308329803995344 10.549949713906164 0 0 0
170 1 7.033216513565791 10.549979189405349 10.549985257597752 0 0 0
381 1 8.791591934607085 12.308354610446647 7.0332612187771915 0 0 0
382 1 8.791592651174772 10.549978472837662 8.791623238187471 0 0 0
416 1 8.791591934607084 12.308354610446646 10.54998525759775 0 0 0
141 1 0.00011723633884554689 14.066844577858747 7.0331551333972815 0 0 0
142 1 1.7582820027639274 15.825120377091224 7.0331204358576604 0 0 0
143 1 1.758310985427995 14.066796063106546 8.791623238187471 0 0 0
144 1 9.583492113122413e-06 15.825029660869298 8.791623238187471 0 0 0
145 1 3.516427623929139 14.0667981698419 7.0330340021247775 0 0 0
148 1 3.5165562495570324 15.825014874455407 8.791623238187471 0 0 0
171 1 0.00011723633884658939 14.066844577858747 10.55009134297766 0 0 0
172 1 1.7582820027639292 15.82512037709122 10.55012604051728 0 0 0
173 1 3.5164276239291397 14.066798169841901 10.550212474250165 0 0 0
146 1 5.274772954170533 15.8251435000833 7.033034002124779 0 0 0
147 1 5.274782182582003 14.066788941430431 8.791623238187471 0 0 0
149 1 7.033241320017094 14.066739941561377 7.03329676246878 0 0 0
150 1 7.033143121592326 15.82512967318534 8.79162323818747 0 0 0
174 1 5.2747729541705315 15.825143500083298 10.550212474250161 0 0 0
175 1 7.033241320017093 14.066739941561377 10.549949713906162 0 0 0
421 1 8.791607753983966 15.825125223420665 10.550002187341752 0 0 0
391 1 8.791607753983964 15.825125223420663 7.033244289033189 0 0 0
392 1 8.791588879122619 14.066758363570914 8.791623238187471 0 0 0
176 1 1.7580366434056451 0.00028800423184442437 12.308791091832443 0 0 0
177 1 0.0002880042318491636 1.758036643405648 12.308791091832443 0 0 0
179 1 3.5163514841322794 1.7580675858138153 12.308734476801947 0 0 0
181 1 1.7580675858138106 3.5163514841322754 12.308734476801947 0 0 0
202 1 1.7588497242200598 1.7588497242200634 14.067831251049473 0 0 0
203 1 1.7564102975356686 0.0019143501018233952 15.828867875669046 0 0 0
204 1 0.0019143501018253433 1.7564102975356706 15.828867875669046 0 0 0
208 1 3.5157525554347635 1.7589521630016418 15.82597311869888 0 0 0
213 1 1.7589521630016391 3.5157525554347604 15.825973118698878 0 0 0
215 1 3.5175570494424178 3.517557049442415 14.065551735608357 0 0 0
178 1 5.274259954953197 0.0002524456801526709 12.309159879076793 0 0 0
180 1 7.032546971164808 1.7582085067576607 12.309017367441038 0 0 0
183 1 5.275027176514322 3.516350267079773 12.308388922058388 0 0 0
206 1 5.272628254476801 1.7580769299328822 14.068767305094186 0 0 0
209 1 7.0330859362644835 0.0002513662465655655 14.066751944760865 0 0 0
210 1 7.0329304153827055 1.7583043888868204 15.82522548515208 0 0 0
217 1 5.275511130948184 3.5172282100910617 15.82460352486499 0 0 0
219 1 7.032974425937272 3.5163126284141053 14.066680826400244 0 0 0
426 1 8.791534830037039 0.00011138957935875758 12.308465219442471 0 0 0
431 1 8.791542577001579 3.5164448748862234 12.308430263513307 0 0 0
451 1 8.791584702041865 1.7583168705255605 14.06681488406146 0 0 0
452 1 8.791497470242712 3.9170705915785684e-05 15.824988683482708 0 0 0
462 1 8.791503212446443 3.5165477172768873 15.824963741462597 0 0 0
182 1 0.00025244568015357795 5.274259954953199 12.309159879076791 0 0 0
184 1 3.5163502670797757 5.2750271765143255 12.308388922058388 0 0 0
186 1 1.7582085067576585 7.032546971164806 12.309017367441038 0 0 0
212 1 1.7580769299328805 5.272628254476805 14.068767305094184 0 0 0
218 1 3.5172282100910635 5.275511130948187 15.824603524864989 0 0 0
221 1 0.0002513662465695006 7.033085936264482 14.066751944760865 0 0 0
223 1 1.758304388886817 7.032930415382702 15.825225485152078 0 0 0
225 1 3.5163126284141075 7.03297442593727 14.066680826400242 0 0 0
187 1 0.00011138957936240538 8.791534830037042 12.308465219442471 0 0 0
189 1 3.516444874886225 8.791542577001579 12.308430263513307 0 0 0
222 1 1.758316870525556 8.791584702041868 14.06681488406146 0 0 0
224 1 3.917070591854952e-05 8.791497470242716 15.824988683482708 0 0 0
228 1 3.5165477172768904 8.791503212446447 15.824963741462598 0 0 0
185 1 7.0333592679699715 5.274888344666643 12.308250097065711 0 0 0
188 1 5.27488834466664 7.033359267969971 12.308250097065713 0 0 0
216 1 5.275375427834801 5.2753754278348035 14.066293866187715 0 0 0
220 1 7.033054482281903 5.274906585443084 15.82527347820885 0 0 0
227 1 5.274906585443082 7.0330544822819006 15.82527347820885 0 0 0
229 1 7.0333565032182195 7.033356503218218 14.066729238379951 0 0 0
226 1 5.274799689151618 8.791471316699333 14.066777815971088 0 0 0
230 1 7.033168590770229 8.791546707466537 15.825136713350558 0 0 0
461 1 8.791471316699331 5.274799689151621 14.066777815971088 0 0 0
472 1 8.791546707466532 7.033168590770226 15.825136713350558 0 0 0
26 1 5.274719748346648 8.791591304888051 17.58324647637494 0 0 -1
191 1 1.7582132580581298 10.550036293975394 12.308465219442473 0 0 0
192 1 0.00011614087983540799 12.30902415284763 12.309017367441038 0 0 0
194 1 3.5164736666664638 12.308336143109834 12.308325280729836 0 0 0
231 1 7.777111938307807e-06 10.549986421970567 14.06681488406146 0 0 0
232 1 1.7580732813909237 12.308485187747953 14.066751944760863 0 0 0
233 1 1.7582854769315746 10.55007365376972 15.824988683482708 0 0 0
234 1 2.0258750676574068e-05 12.308640708629735 15.825225485152078 0 0 0
235 1 3.5165425371386814 10.550114749006365 14.066766553062171 0 0 0
238 1 3.516598450271903 12.308582432668729 15.825217777609566 0 0 0
190 1 7.033242979715113 8.79163732637991 12.308359169832647 0 0 0
193 1 5.274836403586417 10.549958575664188 12.308394533737687 0 0 0
195 1 7.033249663464315 12.308321460548122 12.308354446965405 0 0 0
236 1 5.2749055888186955 12.308411291937436 14.066760118046217 0 0 0
237 1 5.274815311850434 10.55004474433806 15.825045425245392 0 0 0
239 1 7.033208958035842 10.549960792346672 14.066779883230305 0 0 0
240 1 7.033107434951138 12.3084636890613 15.825150807802045 0 0 0
441 1 8.791599137176437 10.549971986835995 12.308379903153103 0 0 0
481 1 8.791610331665762 12.308362165976597 14.066779883230305 0 0 0
482 1 8.79156432743119 10.55000679658124 15.825133573692689 0 0 0
205 1 3.5149005141660736 17.582715473841798 14.068221901131766 0 -1 0
196 1 1.7580722019573394 14.067311169059233 12.309159879076791 0 0 0
197 1 0.0002570618236812728 15.825219639880164 12.308734476801948 0 0 0
199 1 3.5163683269896495 15.825202797022788 12.308661003749004 0 0 0
241 1 0.00024771770461274787 14.068942869535631 14.068767305094186 0 0 0
242 1 1.758855650170634 15.826670609846365 14.068221901131768 0 0 0
243 1 1.7588428996434153 14.066155428231955 15.824652173920155 0 0 0
245 1 3.516705921334037 14.066479995136984 14.066304903465722 0 0 0
248 1 3.517775553213378 15.82379557079906 15.82391644086148 0 0 0
250 1 7.03298869134371 15.824972673740536 15.825217777609563 0 0 0
249 1 7.033159832075002 14.066665535193737 14.06676011804622 0 0 0
207 1 5.275415695780477 17.582728224369017 15.824652173920155 0 -1 0
247 1 5.274750075333696 14.066821048678737 15.825444338177673 0 0 0
246 1 5.275091128875449 15.824865202678403 14.066304903465722 0 0 0
198 1 5.274943623205511 14.06662750080692 12.308201086275918 0 0 0
200 1 7.0332349809026065 15.825097457345974 12.308325280729836 0 0 0
446 1 8.791612548348246 14.066734720426016 12.308394533737687 0 0 0
492 1 8.791526379674371 14.066755812162 15.82504542524539 0 0 0
491 1 8.791456375006065 15.825028586873756 14.066766553062171 0 0 0
251 1 8.791655445654104 1.7582999830989872 4.605877828769383e-19 0 0 0
253 1 10.54991567835833 2.4664538505502823e-05 0 0 0 0
254 1 12.308489597520243 1.7580321506731516 0 0 0 0
255 1 12.308640708629728 2.0258750671515486e-05 1.758020991222863 0 0 0
256 1 10.550073653769724 1.7582854769315774 1.7582577928922343 0 0 0
263 1 10.549992046126771 3.5164652373503107 7.61649068038687e-20 0 0 0
265 1 12.308582432668727 3.516598450271902 1.7580286987653746 0 0 0
303 1 10.549986421970571 7.77711193481321e-06 3.5164315923134817 0 0 0
304 1 12.308485187747952 1.7580732813909268 3.516494531614079 0 0 0
305 1 12.309024152847627 0.00011614087983437065 5.274229108933904 0 0 0
306 1 10.550036293975397 1.7582132580581353 5.274781256932469 0 0 0
313 1 10.550114749006367 3.5165425371386783 3.5164799233127706 0 0 0
315 1 12.30833614310983 3.5164736666664598 5.274921195645107 0 0 0
257 1 14.068645479349712 0.0002229864360744588 1.6410852715717059e-18 0 0 0
258 1 15.828447616187802 1.7564287016491937 2.151808548128196e-18 0 0 0
260 1 14.066155428231959 1.7588428996434202 1.758594302454785 0 0 0
267 1 14.069092641366316 3.5141127380874395 8.602788667892634e-17 0 0 0
269 1 15.823795570799057 3.5177755532133737 1.759330035513462 0 0 0
307 1 14.068942869535634 0.00024771770460918946 3.514479171280758 0 0 0
308 1 15.826670609846364 1.7588556501706378 3.5150245752431757 0 0 0
309 1 15.825219639880158 0.00025706182367800037 5.274511999572995 0 0 0
310 1 14.067311169059236 1.7580722019573427 5.274086597298151 0 0 0
317 1 14.066479995136987 3.516705921334035 3.5169415729092206 0 0 0
319 1 15.825202797022785 3.516368326989648 5.274585472625938 0 0 0
61 1 17.5827154738418 3.514900514166071 3.5150245752431757 -1 0 0
264 1 12.309009528499397 5.27412913582442 8.321165999241562e-20 0 0 0
266 1 10.550044744338063 5.274815311850437 1.75820105112955 0 0 0
273 1 10.550179944123203 7.032960782162273 0 0 0 0
275 1 12.308463689061297 7.033107434951135 1.7580956685728988 0 0 0
314 1 12.308411291937434 5.274905588818699 3.516486358328724 0 0 0
316 1 10.549958575664188 5.27483640358642 5.274851942637254 0 0 0
322 1 8.791637326379908 7.0332429797151095 5.274887306542296 0 0 0
323 1 10.549960792346676 7.033208958035838 3.5164665931446364 0 0 0
325 1 12.308321460548118 7.033249663464313 5.274892029409539 0 0 0
274 1 12.308610341850162 8.791391179889235 1.215301233892924e-16 0 0 0
276 1 10.550006796581243 8.791564327431196 1.7581129026822533 0 0 0
324 1 12.308362165976593 8.791610331665764 3.516466593144636 0 0 0
326 1 10.549971986835999 8.79159913717644 5.274866573221839 0 0 0
268 1 15.827458385924992 5.272478482646122 0 0 0 0
270 1 14.06682104867874 5.274750075333698 1.7578021381972704 0 0 0
277 1 14.067441988188019 7.032561595513036 2.4909722046530877e-16 0 0 0
279 1 15.82497267374053 7.032988691343707 1.7580286987653748 0 0 0
318 1 15.8248652026784 5.2750911288754505 3.5169415729092215 0 0 0
320 1 14.066627500806923 5.274943623205516 5.275045390099025 0 0 0
327 1 14.066665535193739 7.033159832074999 3.5164863583287236 0 0 0
329 1 15.82509745734597 7.033234980902601 5.274921195645108 0 0 0
278 1 15.825105886662122 8.791579077885666 3.104305073720844e-16 0 0 0
280 1 14.066755812162002 8.791526379674377 1.7582010511295494 0 0 0
328 1 15.825028586873753 8.791456375006073 3.51647992331277 0 0 0
330 1 14.06673472042602 8.791612548348247 5.274851942637255 0 0 0
14 1 17.58272822436902 5.27541569578048 1.7585943024547859 -1 0 0
283 1 10.550161298541415 10.550161298541413 0 0 0 0
284 1 12.309144632008845 12.309144632008849 7.318359733935597e-16 0 0 0
285 1 12.308402533242207 10.5500244165459 1.758109763024384 0 0 0
286 1 10.550024416545904 12.30840253324221 1.7581097630243856 0 0 0
321 1 8.791627198243399 8.791627198243404 3.5164657164960946 0 0 0
333 1 10.549943925769036 10.549943925769034 3.516465716496095 0 0 0
334 1 12.308214620794216 12.30821462079422 3.5165172379949916 0 0 0
335 1 12.30832814429732 10.549933797632526 5.274887306542297 0 0 0
336 1 10.549933797632528 12.308328144297324 5.274887306542295 0 0 0
287 1 14.06685137566579 10.549979819124383 0 0 0 0
288 1 15.825323450289414 12.30854879941926 0 0 0 0
289 1 15.825023406735543 10.550067911565991 1.7582827349123453 0 0 0
290 1 14.066664538569354 12.308516641730535 1.757972998166094 0 0 0
337 1 14.066771434860819 10.550099807313103 3.5164686604038518 0 0 0
338 1 15.825258495598327 12.308596698075167 3.5165656499746962 0 0 0
339 1 15.825126249126209 10.550028547010855 5.274816212861634 0 0 0
340 1 14.066682779345797 12.308211856042465 5.27499637930923 0 0 0
346 1 10.550028547010857 15.825126249126214 5.274816212861636 0 0 0
345 1 12.308211856042462 14.066682779345792 5.274996379309229 0 0 0
344 1 12.308596698075164 15.82525849559833 3.5165656499746962 0 0 0
343 1 10.550099807313105 14.066771434860813 3.5164686604038535 0 0 0
296 1 10.550067911565993 15.825023406735548 1.7582827349123442 0 0 0
295 1 12.308516641730533 14.06666453856935 1.7579729981660923 0 0 0
294 1 12.308548799419258 15.825323450289417 0 0 0 0
293 1 10.549979819124387 14.066851375665786 0 0 0 0
350 1 14.066543947498115 15.825220856932662 5.2748575543165535 0 0 0
349 1 15.825220856932658 14.06654394749811 5.274857554316556 0 0 0
348 1 15.824014074570016 15.824014074570021 3.5176947407665855 0 0 0
347 1 14.066195696177633 14.066195696177632 3.5169526101872273 0 0 0
300 1 14.06605999306425 15.824342913921376 1.7586429515099513 0 0 0
259 1 15.825818568577674 17.582618961010795 1.7572733576760622 0 -1 0
299 1 15.824342913921372 14.066059993064247 1.7586429515099518 0 0 0
298 1 15.828724110084416 15.828724110084417 0 0 0 0
297 1 14.069428598856083 14.069428598856081 1.0778627466922979e-20 0 0 0
51 1 17.582721399792373 17.582721399792373 3.5154152253254707 -1 -1 0
44 1 17.582618961010798 15.825818568577677 1.7572733576760606 -1 0 0
353 1 10.550165809639624 0.00010961780781493311 7.033033543304985 0 0 0
354 1 12.308595606687874 1.758211754786556 7.032980097250336 0 0 0
355 1 12.308450285207591 0.00011149013549424441 8.791623238187471 0 0 0
356 1 10.550014717210471 1.7582162883093926 8.791623238187471 0 0 0
363 1 10.549963370028472 3.5164459005917705 7.033244289033189 0 0 0
365 1 12.308428002420108 3.5164414508270934 8.79162323818747 0 0 0
402 1 10.550165809639623 0.00010961780781356957 10.550212933069957 0 0 0
403 1 12.308595606687872 1.7582117547865554 10.550266379124606 0 0 0
407 1 10.54996337002847 3.51644590059177 10.550002187341752 0 0 0
357 1 14.06684457785875 0.0001172363388452895 7.0331551333972815 0 0 0
358 1 15.825120377091217 1.7582820027639308 7.03312043585766 0 0 0
359 1 15.825029660869296 9.583492109777092e-06 8.791623238187471 0 0 0
360 1 14.06679606310655 1.7583109854279988 8.79162323818747 0 0 0
367 1 14.066798169841901 3.516427623929137 7.033034002124778 0 0 0
369 1 15.825014874455402 3.5165562495570306 8.79162323818747 0 0 0
404 1 14.066844577858753 0.00011723633884213835 10.550091342977659 0 0 0
405 1 15.825120377091217 1.7582820027639299 10.55012604051728 0 0 0
409 1 14.066798169841903 3.516427623929137 10.550212474250165 0 0 0
361 1 8.791633823992903 5.274824884079073 7.0332844662356315 0 0 0
364 1 12.308329803995342 5.274831182451059 7.033296762468779 0 0 0
366 1 10.549982244889817 5.274812760441522 8.79162323818747 0 0 0
373 1 10.54997918940535 7.03321651356579 7.033261218777191 0 0 0
375 1 12.308360377994724 7.033210746017709 8.791623238187471 0 0 0
406 1 8.791633823992905 5.274824884079073 10.54996201013931 0 0 0
408 1 12.308329803995344 5.274831182451059 10.549949713906162 0 0 0
412 1 10.549979189405349 7.033216513565789 10.54998525759775 0 0 0
374 1 12.308354610446642 8.791591934607089 7.033261218777191 0 0 0
376 1 10.549978472837664 8.791592651174774 8.79162323818747 0 0 0
413 1 12.308354610446644 8.791591934607089 10.54998525759775 0 0 0
368 1 15.825143500083296 5.274772954170537 7.0330340021247775 0 0 0
370 1 14.066788941430433 5.274782182582004 8.79162323818747 0 0 0
377 1 14.066739941561382 7.03324132001709 7.033296762468778 0 0 0
379 1 15.825129673185339 7.033143121592324 8.791623238187471 0 0 0
410 1 15.825143500083296 5.274772954170536 10.550212474250165 0 0 0
414 1 14.06673994156138 7.0332413200170905 10.549949713906164 0 0 0
378 1 15.825125223420663 8.791607753983968 7.033244289033189 0 0 0
380 1 14.066758363570916 8.791588879122623 8.791623238187473 0 0 0
415 1 15.825125223420663 8.79160775398397 10.550002187341754 0 0 0
383 1 10.549964865174164 10.549964865174163 7.033257258396342 0 0 0
384 1 12.30832566986274 12.308325669862741 7.0332907193585745 0 0 0
385 1 12.308354410548562 10.549958752498918 8.791623238187471 0 0 0
386 1 10.54995875249892 12.308354410548564 8.791623238187471 0 0 0
417 1 10.549964865174164 10.549964865174163 10.549989217978597 0 0 0
418 1 12.30832566986274 12.308325669862741 10.549955757016368 0 0 0
387 1 14.066746239933366 10.54993730001953 7.033284466235632 0 0 0
388 1 15.825128271042127 12.308354131574275 7.033218732365106 0 0 0
389 1 15.825131319105436 10.549992344990157 8.791623238187473 0 0 0
390 1 14.066746378621508 12.308370088587527 8.79162323818747 0 0 0
419 1 14.066746239933366 10.54993730001953 10.549962010139309 0 0 0
420 1 15.825128271042129 12.308354131574273 10.550027744009837 0 0 0
423 1 12.308354131574271 15.82512827104213 10.550027744009837 0 0 0
422 1 10.549937300019533 14.066746239933366 10.549962010139309 0 0 0
396 1 10.549992344990159 15.82513131910544 8.791623238187471 0 0 0
395 1 12.308370088587527 14.066746378621506 8.791623238187473 0 0 0
394 1 12.30835413157427 15.82512827104213 7.033218732365105 0 0 0
393 1 10.549937300019531 14.066746239933364 7.0332844662356315 0 0 0
425 1 15.825061613078466 15.825061613078473 10.550250086132113 0 0 0
424 1 14.066731147917032 14.066731147917032 10.550096852438264 0 0 0
400 1 14.066760459445538 15.825030996546596 8.791623238187473 0 0 0
399 1 15.825030996546595 14.066760459445536 8.791623238187471 0 0 0
398 1 15.825061613078468 15.825061613078473 7.032996390242827 0 0 0
397 1 14.066731147917036 14.06673114791703 7.033149623936677 0 0 0
427 1 12.309024152847625 0.0001161408798321469 12.30901736744104 0 0 0
428 1 10.550036293975397 1.7582132580581344 12.308465219442471 0 0 0
432 1 12.308336143109832 3.5164736666664598 12.308325280729836 0 0 0
453 1 10.549986421970573 7.777111935019132e-06 14.06681488406146 0 0 0
454 1 12.308485187747953 1.7580732813909257 14.066751944760863 0 0 0
455 1 12.30864070862973 2.0258750674886508e-05 15.825225485152078 0 0 0
456 1 10.550073653769722 1.7582854769315766 15.824988683482708 0 0 0
463 1 10.550114749006367 3.5165425371386783 14.066766553062171 0 0 0
465 1 12.308582432668725 3.516598450271903 15.825217777609566 0 0 0
429 1 15.825219639880157 0.0002570618236777859 12.308734476801947 0 0 0
430 1 14.067311169059236 1.7580722019573425 12.309159879076793 0 0 0
434 1 15.825202797022785 3.5163683269896495 12.308661003749004 0 0 0
457 1 14.068942869535633 0.0002477177046115814 14.068767305094182 0 0 0
458 1 15.826670609846362 1.7588556501706365 14.068221901131768 0 0 0
460 1 14.06615542823196 1.7588428996434184 15.824652173920157 0 0 0
467 1 14.066479995136987 3.5167059213340357 14.066304903465722 0 0 0
469 1 15.823795570799057 3.517775553213374 15.82391644086148 0 0 0
211 1 17.5827154738418 3.5149005141660705 14.068221901131768 -1 0 0
433 1 10.549958575664188 5.27483640358642 12.308394533737687 0 0 0
436 1 8.791637326379908 7.03324297971511 12.308359169832647 0 0 0
437 1 12.30832146054812 7.033249663464314 12.308354446965403 0 0 0
464 1 12.308411291937434 5.274905588818698 14.06676011804622 0 0 0
466 1 10.550044744338063 5.274815311850436 15.825045425245392 0 0 0
473 1 10.549960792346674 7.033208958035839 14.066779883230307 0 0 0
475 1 12.308463689061297 7.033107434951133 15.825150807802045 0 0 0
438 1 10.549971986835999 8.791599137176439 12.308379903153103 0 0 0
474 1 12.308362165976593 8.791610331665765 14.066779883230305 0 0 0
476 1 10.550006796581243 8.791564327431196 15.825133573692689 0 0 0
435 1 14.066627500806923 5.274943623205516 12.308201086275918 0 0 0
439 1 15.825097457345969 7.033234980902601 12.308325280729834 0 0 0
468 1 15.824865202678398 5.275091128875451 14.066304903465722 0 0 0
470 1 14.06682104867874 5.2747500753337 15.825444338177672 0 0 0
477 1 14.066665535193739 7.033159832074999 14.06676011804622 0 0 0
479 1 15.824972673740533 7.032988691343706 15.825217777609565 0 0 0
440 1 14.066734720426018 8.791612548348247 12.308394533737687 0 0 0
478 1 15.825028586873753 8.791456375006069 14.066766553062173 0 0 0
480 1 14.066755812162002 8.791526379674378 15.82504542524539 0 0 0
214 1 17.58272822436902 5.27541569578048 15.824652173920157 -1 0 0
442 1 12.30832814429732 10.549933797632526 12.308359169832649 0 0 0
443 1 10.549933797632528 12.308328144297324 12.308359169832647 0 0 0
471 1 8.791627198243399 8.791627198243404 14.066780759878847 0 0 0
483 1 10.549943925769037 10.549943925769034 14.066780759878847 0 0 0
484 1 12.308214620794216 12.308214620794217 14.066729238379951 0 0 0
485 1 12.308402533242207 10.550024416545899 15.825136713350556 0 0 0
486 1 10.550024416545902 12.308402533242212 15.825136713350556 0 0 0
444 1 15.825126249126212 10.550028547010855 12.308430263513305 0 0 0
445 1 14.066682779345797 12.308211856042465 12.308250097065713 0 0 0
487 1 14.066771434860817 10.550099807313103 14.06677781597109 0 0 0
488 1 15.825258495598327 12.308596698075167 14.066680826400244 0 0 0
489 1 15.825023406735541 10.550067911565987 15.824963741462598 0 0 0
490 1 14.066664538569354 12.308516641730535 15.825273478208848 0 0 0
496 1 10.550067911565991 15.825023406735546 15.824963741462597 0 0 0
495 1 12.308516641730533 14.066664538569352 15.82527347820885 0 0 0
494 1 12.308596698075164 15.825258495598332 14.066680826400244 0 0 0
493 1 10.550099807313105 14.066771434860815 14.06677781597109 0 0 0
448 1 10.550028547010859 15.825126249126214 12.308430263513305 0 0 0
447 1 12.308211856042462 14.066682779345793 12.308250097065711 0 0 0
500 1 14.06605999306425 15.824342913921376 15.82460352486499 0 0 0
499 1 15.824342913921374 14.066059993064247 15.82460352486499 0 0 0
498 1 15.824014074570018 15.82401407457002 14.065551735608356 0 0 0
497 1 14.066195696177635 14.06619569617763 14.066293866187712 0 0 0
450 1 14.066543947498113 15.825220856932663 12.308388922058386 0 0 0
459 1 15.825818568577674 17.582618961010798 15.825973118698881 0 -1 0
449 1 15.825220856932658 14.06654394749811 12.30838892205839 0 0 0
201 1 17.582721399792376 17.582721399792373 14.067831251049471 -1 -1 0
244 1 17.582618961010798 15.825818568577676 15.82597311869888 -1 0 0

Velocities

1 1.3174342038376143e-09 1.3174412579104493e-09 -2.997141755213172e-19
2 -1.3174336187955436e-09 -1.3174429351109755e-09 -3.53812584202915e-16
3 -2.8303320075260642e-09 2.830345805368669e-09 -6.3763369791107e-09
4 2.830330881844725e-09 -2.8303453423819917e-09 -6.376335083983885e-09
5 7.793246321275636e-09 1.762776693954816e-09 -2.2189775997977496e-16
8 4.255138370866167e-09 1.7453222776264838e-09 5.019216753691199e-10
11 1.762764016695899e-09 7.793257044784748e-09 -4.2700325704216154e-16
13 1.7453351758835753e-09 4.255153686009672e-09 5.01919251286023e-10
15 -8.231307979578153e-10 -8.23113665501643e-10 -7.790410546316965e-16
52 2.645910571624023e-09 2.6458956648923418e-09 1.121979765586122e-08
53 6.139052101588833e-09 -6.139034903312987e-09 -1.2473930749143003e-08
54 -6.139047229433692e-09 6.1390405221241044e-09 -1.2473926395149118e-08
58 7.435991139260724e-09 -2.3838657228289175e-09 -4.804649421596053e-09
63 -2.3838509027573074e-09 7.4360061053650495e-09 -4.804650006326636e-09
65 2.2308237736396625e-09 2.230837865946592e-09 6.939142086749095e-09
6 6.384619243450398e-09 7.482204596091685e-09 -4.2139666060981784e-16
9 -4.479549330482105e-09 -3.5299186176177035e-09 -2.8786736429808644e-17
10 -7.53429164542461e-09 -3.85791593212778e-09 4.636142035450597e-09
17 5.02799744140826e-09 8.547719173541979e-10 1.4451334802445786e-09
19 -4.870789542948159e-09 3.0523826301739326e-09 2.5533235489564644e-16
56 -3.8914763353708596e-10 1.138642352329674e-09 1.908318592362368e-09
57 3.011318523391285e-10 -8.772136022257332e-10 1.4786286365650101e-09
59 5.8055730754928665e-09 -2.8242881272609825e-10 1.7164815405776129e-09
60 3.187600536841169e-09 -6.877403510889647e-10 2.0016314963293694e-09
67 2.6538798090433215e-09 1.1809259499277474e-09 4.325301115535552e-09
69 -5.812488444217177e-09 3.77111882504025e-09 3.3992171974165596e-09
252 -2.2800965310773768e-09 1.4026258065943292e-09 3.265498412674658e-09
262 -2.536086486431753e-09 8.010545796689743e-09 -1.188577541037808e-09
301 4.120776923582848e-09 -4.409811139725649e-09 3.2902863956914063e-09
302 -6.568337635865306e-10 -1.6567433036391648e-09 -1.8654811039075805e-09
312 1.2195793841509499e-09 9.727583111887158e-09 -2.1655977499144904e-09
12 7.482218973655339e-09 6.384599761410397e-09 -1.7080130281686462e-15
18 8.54758001434402e-10 5.027982988423764e-09 1.4451355713000642e-09
21 -3.529924578871039e-09 -4.479527392290189e-09 -1.1712603384878392e-15
23 -3.857899752182736e-09 -7.534280921165841e-09 4.636139866849786e-09
25 3.052371615948768e-09 -4.870773858974594e-09 -4.3644890493319253e-16
62 1.1386543721789946e-09 -3.891636029697497e-10 1.9083165209680723e-09
64 -8.772255694389272e-10 3.011203363537451e-10 1.4786283370135762e-09
68 1.1809151608511408e-09 2.653864391728924e-09 4.325298623531406e-09
71 -2.824496645185759e-10 5.805589674944621e-09 1.7164857563351908e-09
73 -6.877329427023997e-10 3.1876155329316778e-09 2.0016394513640646e-09
75 3.771109951978539e-09 -5.812477423994775e-09 3.39921441724753e-09
24 1.4026093597722489e-09 -2.2801103631042313e-09 3.265495906129556e-09
28 8.010536224788304e-09 -2.536102822454884e-09 -1.188577832887639e-09
72 -4.4097950064840855e-09 4.120771946251168e-09 3.2902879387804237e-09
74 -1.6567616335935865e-09 -6.568571504109852e-10 -1.865482200802183e-09
78 9.727569145353528e-09 1.2195747913340955e-09 -2.165601543416233e-09
16 -2.0712163185367555e-09 -2.0712290374413554e-09 -5.523478479175612e-16
20 5.278432759564928e-09 -3.5599093377086364e-10 6.143066003572147e-09
27 -3.559793670385495e-10 5.278449648443095e-09 6.143067457812563e-09
29 -1.4433931659182696e-09 -1.4433832698778981e-09 -5.067665058997563e-16
66 1.1023939967651011e-09 1.1023853403957353e-09 2.039232524685192e-09
70 6.991645171321637e-09 -7.78561495549899e-09 2.428056739992829e-09
77 -7.785600530645283e-09 6.991656245369238e-09 2.4280542082593324e-09
79 -4.095511243416412e-09 -4.095497164903127e-09 -6.248504522753221e-09
30 -1.086284523534809e-09 -9.514419896385332e-10 3.105628407331579e-09
76 -6.732193985661858e-09 -1.0157960545184089e-08 4.251252213923965e-09
261 -2.8591682301549665e-11 -4.48187172653156e-09 -1.2186385088618992e-15
272 -9.514306407425431e-10 -1.086266499439462e-09 3.1056329562356587e-09
311 -1.0157941610086222e-08 -6.732206802283614e-09 4.251251693963538e-09
271 -5.311724181267012e-09 -5.311738327811452e-09 4.3659883585209777e-16
22 -1.2681681231520928e-09 -7.043084279407166e-09 -1.5346928859141734e-15
31 1.2681653356364485e-09 7.043083957205622e-09 -1.0027379856383344e-15
32 3.5299251737969255e-09 4.479530986434177e-09 -5.184611175743661e-16
33 -1.4026165372651988e-09 2.280111675899357e-09 3.2654982384549304e-09
34 3.857902302207805e-09 7.534274513718092e-09 4.636140166111899e-09
35 5.124807120331261e-09 -3.936435738914025e-09 -4.56017818188588e-16
38 2.185648817643974e-09 7.051766493873009e-10 3.9349227428901845e-09
81 4.409796848835217e-09 -4.120765338795572e-09 3.2902822619460413e-09
82 2.824451090175359e-10 -5.805591110683101e-09 1.7164840003442685e-09
83 1.6567646921843323e-09 6.568512353363726e-10 -1.865485984458853e-09
84 6.877200510422687e-10 -3.1876172931206658e-09 2.001635743272578e-09
85 -2.4273629748751936e-09 5.1282328234122804e-09 2.884802878463015e-09
88 7.207951382367141e-10 -4.5541316994718936e-09 -3.954366526583168e-09
36 -7.217724663823518e-10 -4.881858220248457e-09 -6.248499892259868e-16
37 -2.6840899001365704e-09 -4.653709978272448e-09 2.776558547302014e-09
39 -8.840646395180539e-10 5.185872169437252e-09 1.5855194674230542e-15
40 2.1808876114675547e-09 -2.1809054082676287e-09 -1.1413590102093758e-09
80 8.592612701406148e-10 1.7287588614673045e-09 -4.365718245376373e-09
86 -2.366879509774005e-09 1.1022437254074289e-08 -8.655484702953693e-09
87 3.902380890472519e-09 -4.129547618460388e-09 -2.795859815685909e-09
89 1.8052911724886413e-10 5.517255923235853e-09 3.1917641709349895e-09
90 7.048353932712008e-09 -7.048362763230822e-09 3.8244100882400743e-10
281 -5.18585564075289e-09 8.840488541911879e-10 -3.57435310670124e-16
282 -1.0404928867609076e-09 1.0405130302797244e-09 -6.531584999546392e-09
331 -5.517241627322736e-09 -1.8054362876264313e-10 3.191767316635599e-09
332 -7.640111109207515e-10 7.640260650306031e-10 -7.755036972790969e-10
55 -9.088325232456066e-10 3.485253336722147e-09 1.5208784572012567e-09
41 -7.482221386943409e-09 -6.384605839609849e-09 6.685419673985247e-16
42 -1.7627643731941414e-09 -7.793257021995249e-09 -8.01230830629674e-16
43 -2.759687112761043e-09 -1.86055670323911e-10 5.041919789403312e-09
45 1.464876265319487e-09 6.194350897512279e-09 -7.37360259176036e-16
48 3.6481235327688773e-09 -3.648139636549015e-09 -5.752377819657378e-09
91 -1.1386575147310547e-09 3.891718095885269e-10 1.9083200113598644e-09
92 -3.4852414671410897e-09 9.088167121306226e-10 1.5208782150628227e-09
93 8.772273830033223e-10 -3.0111516193787184e-10 1.4786313776126116e-09
94 2.383850806801519e-09 -7.436016729469963e-09 -4.8046527386677025e-09
95 1.070656194206729e-08 -3.538469786642401e-09 2.317368964698215e-10
98 5.175871573390153e-09 -5.175885639759034e-09 -5.246811846608716e-11
100 4.554107498095598e-09 -7.208132448596614e-10 -3.9543616449929216e-09
99 -1.1022450370031075e-08 2.366891857885176e-09 -8.65548250301732e-09
7 1.8607435010464923e-10 2.7597020626160195e-09 5.041916267451647e-09
97 -6.757322378018904e-09 6.7573446631404245e-09 -5.1305152151908865e-09
292 4.653725134188145e-09 2.6841075362645805e-09 2.7765584837291734e-09
96 3.5384848177745768e-09 -1.0706576301084925e-08 2.3174019699811723e-10
46 -6.194334465088252e-09 -1.4648863883747065e-09 -1.4520668935737313e-15
47 3.314846018271965e-09 -3.31483520757978e-09 4.883922527359066e-09
49 4.881847264421729e-09 7.217866575570092e-10 -1.5796721615857494e-15
50 -7.051905162760224e-10 -2.1856569385866015e-09 3.934920996626617e-09
342 4.129561884687184e-09 -3.902380002581617e-09 -2.79586012754222e-09
341 -5.128212551969006e-09 2.427351725230374e-09 2.884798039447878e-09
291 3.936448008851417e-09 -5.124821961393199e-09 -2.1110273381859673e-16
101 5.113824521294815e-09 5.113844465705372e-09 -7.284235104082953e-09
102 -5.113824302995397e-09 -5.1138411246447745e-09 -7.284240477007363e-09
103 -3.976933581409406e-09 3.976950874216697e-09 1.5492455557304145e-15
104 3.976928841193474e-09 -3.976944088568203e-09 3.128158692039206e-15
105 2.0114410394546422e-09 2.2687567424787504e-09 -3.5907015045307227e-09
108 5.3860127018336445e-09 -4.4571171333449325e-09 -1.0311370100825365e-15
111 2.2687382828223704e-09 2.011451769110923e-09 -3.590701550109722e-09
113 -4.45710492830386e-09 5.386025470288043e-09 4.488931712023285e-15
115 -9.082299448852896e-10 -9.082205018600183e-10 -5.649264947804588e-09
151 5.113827714223664e-09 5.1138357769087595e-09 7.284235930202316e-09
152 -5.113825579207379e-09 -5.113839642127848e-09 7.284236215370924e-09
153 2.0114408459687916e-09 2.268756795441262e-09 3.590702562192689e-09
156 2.2687375751484332e-09 2.011447302368987e-09 3.5906942160888927e-09
158 -9.082323401910208e-10 -9.08213509691055e-10 5.649262256704481e-09
106 -6.520576344915135e-09 -2.634361057095493e-09 3.225610516785454e-09
107 -2.0144542880918144e-09 -6.572810327060194e-10 4.47393862013276e-15
109 -4.71369358795354e-09 -4.0483209886597e-09 -4.132426407850039e-09
110 4.808657129033521e-09 -4.463835974055501e-09 -7.316628842576363e-16
117 -2.495025692958426e-09 8.221261293267274e-09 -3.769263301278069e-16
119 -3.193064151465285e-09 -1.5209315608445039e-10 1.5131712572654158e-09
154 -6.520575812978391e-09 -2.6343624964323146e-09 -3.225613427094521e-09
155 -4.713698637027164e-09 -4.048325019102662e-09 4.1324234254242e-09
160 -3.1930604229831937e-09 -1.520956350061901e-10 -1.5131658532303402e-09
351 -6.894595678249933e-09 -1.3098200329169168e-09 3.6124766039920866e-09
352 -2.318094910416673e-09 -2.0642240869163046e-10 -8.731976717041955e-16
362 7.815899983986499e-10 3.3618604820787606e-09 -6.956794637203756e-16
401 -6.894596766448542e-09 -1.3098196708337477e-09 -3.612478455638935e-09
112 -2.634348371740306e-09 -6.520584666081135e-09 3.2256082285397695e-09
114 -6.57301049083417e-10 -2.0144755048161483e-09 3.0286045618861175e-17
118 8.221253048069397e-09 -2.4950365002437828e-09 5.703573039160465e-15
121 -4.048319179893095e-09 -4.713677837785474e-09 -4.1324293818797465e-09
123 -4.463821886246498e-09 4.808682677262102e-09 -8.447107971121974e-15
125 -1.5211286343689194e-10 -3.19305001010454e-09 1.513174956532062e-09
157 -2.6343432908813264e-09 -6.520590809085298e-09 -3.225606681402617e-09
161 -4.048332244273645e-09 -4.713681911633437e-09 4.132427446571445e-09
163 -1.5210235755250788e-10 -3.1930555185512937e-09 -1.5131716937992426e-09
122 -1.309808362893913e-09 -6.8946267922140856e-09 3.612481450958833e-09
124 -2.06432870271428e-10 -2.3181038486983346e-09 5.871294784329721e-16
128 3.3618413213477466e-09 7.815710737877491e-10 -1.2424107588555096e-15
162 -1.3098071730421406e-09 -6.8946053881510685e-09 -3.612480996368287e-09
116 -4.549468141233794e-09 -4.5494842163630706e-09 2.888154306091153e-09
120 2.973792447122951e-09 2.072189086470243e-09 -9.907435121259142e-16
127 2.0721989376812694e-09 2.9738033788861103e-09 4.860160667232693e-15
129 -1.6684601326770617e-09 -1.6684488056960002e-09 5.033042433969924e-10
159 -4.549475607852122e-09 -4.549479689408057e-09 -2.8881622598738064e-09
165 -1.668462683545492e-09 -1.6684468041182328e-09 -5.033066358446654e-10
130 -1.0066376019990718e-08 3.3913218666375365e-09 4.1740767823222536e-16
372 3.3913308363297253e-09 -1.006636152347003e-08 -1.1370760889774415e-15
371 2.0025177067304216e-09 2.0025031029435328e-09 -4.712969190121888e-09
411 2.002517853437826e-09 2.0025042774929807e-09 4.712969024598153e-09
131 1.3097979828765353e-09 6.894618820986852e-09 3.612481441363254e-09
132 4.048330152437464e-09 4.713683047210217e-09 -4.132425561639933e-09
133 2.0642449513029794e-10 2.3181082564576814e-09 8.82373443941197e-15
134 4.463829128509606e-09 -4.808685666884625e-09 3.9521790223424787e-16
135 -2.7758276331987466e-09 8.257939451899726e-09 -5.270142926113892e-09
138 7.1909001205436055e-09 -7.132651891802715e-10 2.9993211792874356e-17
166 1.3098195609343843e-09 6.894613093625749e-09 -3.6124873345479524e-09
167 4.048327815914024e-09 4.713675791003534e-09 4.1324199098440135e-09
168 -2.7758364174638717e-09 8.257932847422427e-09 5.270141991482611e-09
126 -3.428482010021419e-09 -5.449511515263343e-09 -5.2037042944352465e-09
136 -1.3778892406948113e-09 1.5720591552999178e-09 6.287146083667922e-10
137 7.938343335842542e-09 7.218447468566533e-10 -1.465366234614749e-15
139 2.982001306467801e-10 1.9137372643452367e-09 9.503749048758283e-10
140 3.951145085381856e-09 -3.951163156405581e-09 -6.206390388082963e-16
164 -3.428479127449572e-09 -5.449513469762802e-09 5.203709308425037e-09
169 -1.3778865102553575e-09 1.572066120387609e-09 -6.287162755540997e-10
170 2.981982296164352e-10 1.913731077595799e-09 -9.50374582224491e-10
381 -1.9137228774240515e-09 -2.9821352607479877e-10 9.503671227114826e-10
382 -1.3887648490696941e-09 1.3887717482908586e-09 -1.7727831851357156e-15
416 -1.9137177572831706e-09 -2.9820783649628817e-10 -9.503684611447957e-10
141 2.634349794284865e-09 6.5205945750155646e-09 3.2256047119100665e-09
142 -2.268739168014516e-09 -2.0114615613990986e-09 -3.590703462253696e-09
143 6.573052423513569e-10 2.0144701591791658e-09 -1.2567209622638336e-15
144 4.457096563358032e-09 -5.386022660432692e-09 1.7727831851357156e-15
145 1.0960820005102197e-09 7.018299435919279e-09 -3.7129380212426967e-09
148 9.441880792001239e-09 -9.441899417671558e-09 -2.360287490865951e-15
171 2.6343456034158195e-09 6.520595644922602e-09 -3.2256026785469444e-09
172 -2.268746599790304e-09 -2.0114516812514045e-09 3.590703569979061e-09
173 1.0960823476471504e-09 7.0182935669434396e-09 3.7129359849213674e-09
146 -7.018284163230805e-09 -1.096100132565199e-09 -3.7129474189800455e-09
147 2.0761060245908675e-09 -2.0761033983528672e-09 -4.577373384147825e-16
149 -1.5720770822400295e-09 1.3779020085541714e-09 6.2870840782371e-10
150 7.13265289827027e-10 -7.190906950066805e-09 4.8712906952908e-15
174 -7.018277810328333e-09 -1.0960911984816033e-09 3.7129489746632603e-09
175 -1.5720752707746673e-09 1.3779015099589006e-09 -6.287095568942724e-10
421 -8.257927421844876e-09 2.77581895217043e-09 5.27013342352622e-09
391 -8.257922710265749e-09 2.775825295597678e-09 -5.270133506288088e-09
392 -7.218307888234035e-10 -7.938324328223792e-09 1.9023234990698548e-15
176 6.139057597456596e-09 -6.139037876143248e-09 1.2473928473041722e-08
177 -6.139059211912731e-09 6.139041842565707e-09 1.247392983996191e-08
179 7.4359919353751625e-09 -2.38386572387702e-09 4.804650210715276e-09
181 -2.3838466375225264e-09 7.43601046505631e-09 4.8046501370663975e-09
202 2.645912298828209e-09 2.645893961677103e-09 -1.1219796710546776e-08
203 -2.8303327667762375e-09 2.8303455990637247e-09 6.3763333591785945e-09
204 2.8303326666223835e-09 -2.8303444403975834e-09 6.37633392291885e-09
208 4.255137740856446e-09 1.745321940581778e-09 -5.019202930060476e-10
213 1.7453363249541378e-09 4.255153114323078e-09 -5.019145566490902e-10
215 2.230826647515516e-09 2.230839979372825e-09 -6.9391438015933505e-09
178 3.011336988906684e-10 -8.772204436721232e-10 -1.478632731919798e-09
180 3.187599159275886e-09 -6.877368924825274e-10 -2.0016315048999565e-09
183 2.6538806735635286e-09 1.1809225825253334e-09 -4.325296641649642e-09
206 -3.891464309927242e-10 1.1386469603825442e-09 -1.908321048199149e-09
209 5.80557679797772e-09 -2.824239657593519e-10 -1.7164893930595596e-09
210 -7.534292832877487e-09 -3.85791520106462e-09 -4.636142348506355e-09
217 5.027997821783001e-09 8.54770415648633e-10 -1.4451353414875914e-09
219 -5.812491899525134e-09 3.771119489234221e-09 -3.399219334082085e-09
426 -6.568350445963018e-10 -1.6567449300897731e-09 1.8654868984377344e-09
431 1.2195773807740115e-09 9.727583357567711e-09 2.1655983943175798e-09
451 4.120781112052999e-09 -4.4098132488788505e-09 -3.290285586814099e-09
452 -2.2800954827603916e-09 1.4026267085787374e-09 -3.2654987002421604e-09
462 -2.536086078394757e-09 8.010547026411426e-09 1.1885790380980331e-09
182 -8.772269224155395e-10 3.011245720521351e-10 -1.4786240285986905e-09
184 1.1809088909275257e-09 2.6538645581217423e-09 -4.325299761104726e-09
186 -6.877294163271871e-10 3.1876088789974967e-09 -2.0016327810874135e-09
212 1.1386550933467144e-09 -3.8916529898830436e-10 -1.908320306423913e-09
218 8.547592488596474e-10 5.02798303190373e-09 -1.4451330526105575e-09
221 -2.8244351135366404e-10 5.805588504284007e-09 -1.7164911610449555e-09
223 -3.8579005917958815e-09 -7.534274856760035e-09 -4.636138989603979e-09
225 3.7711074145476674e-09 -5.812476214651983e-09 -3.3992131755196597e-09
187 -1.656762864226569e-09 -6.568537103959818e-10 1.8654869764018124e-09
189 9.72757171861789e-09 1.2195753652555971e-09 2.1655986324834302e-09
222 -4.40979368229421e-09 4.120766462752706e-09 -3.2902830847669244e-09
224 1.4026151423079294e-09 -2.2801104662567035e-09 -3.265494559749904e-09
228 8.010531161921034e-09 -2.53610252978973e-09 1.188572679019403e-09
185 6.991652017167394e-09 -7.78561811904138e-09 -2.428053787853036e-09
188 -7.785604555990594e-09 6.991660072056082e-09 -2.4280601212349125e-09
216 1.1023931497678575e-09 1.1023810131668618e-09 -2.0392323020143508e-09
220 5.278435734812824e-09 -3.559891322009421e-10 -6.143065514572455e-09
227 -3.5597894073106567e-10 5.278446735896778e-09 -6.143067547174567e-09
229 -4.09550738419456e-09 -4.095497909160208e-09 6.248507494507111e-09
226 -6.732193689325447e-09 -1.015795499247025e-08 -4.251250980292364e-09
230 -1.0862827066719337e-09 -9.514454858526167e-10 -3.1056334577545825e-09
461 -1.0157946930834673e-08 -6.7322054820669084e-09 -4.251250885835885e-09
472 -9.514287729031556e-10 -1.0862696689790877e-09 -3.1056325094415203e-09
26 -4.481859184139754e-09 -2.8603019147011383e-11 8.377659500950939e-15
191 1.6567662370725206e-09 6.56849479945174e-10 1.865477520783515e-09
192 6.877252470481942e-10 -3.187609671832196e-09 -2.0016308909083186e-09
194 7.207940867149558e-10 -4.554130150529714e-09 3.95436726253724e-09
231 4.409789839264897e-09 -4.120767283549521e-09 -3.29028137255583e-09
232 2.8244506583743127e-10 -5.8055868862295305e-09 -1.7164840147376368e-09
233 -1.4026143542710196e-09 2.280111089969326e-09 -3.2654961095108473e-09
234 3.857899431930293e-09 7.534268466104547e-09 -4.636137129111206e-09
235 -2.4273621996198944e-09 5.128232152426578e-09 -2.884801000951326e-09
238 2.18565026171299e-09 7.051753236032378e-10 -3.93492456529699e-09
190 8.59257893696321e-10 1.7287643117560686e-09 4.365716118756219e-09
193 3.902383818623365e-09 -4.1295551551878204e-09 2.7958598649364494e-09
195 7.048350252095363e-09 -7.04835635068542e-09 -3.8244598999606617e-10
236 -2.3668832746118184e-09 1.1022439902895682e-08 8.655489485759963e-09
237 -2.684092702713244e-09 -4.653706989462246e-09 -2.776560841246352e-09
239 1.805314422276236e-10 5.517249791136235e-09 -3.1917643667447696e-09
240 2.180887082511273e-09 -2.1809042424048035e-09 1.1413617599424285e-09
441 -7.640078868062714e-10 7.640235707798362e-10 7.75506692299133e-10
481 -5.51723957386887e-09 -1.8054854349816485e-10 -3.191764737374001e-09
482 -1.0404883792377616e-09 1.040510427478972e-09 6.531580961606884e-09
205 -9.088385684602568e-10 3.4852520933450362e-09 -1.5208764112439373e-09
196 8.77224441958417e-10 -3.0111215312419125e-10 -1.4786243986281983e-09
197 2.3838519576712527e-09 -7.436020500532435e-09 4.804642332262483e-09
199 5.175870916102375e-09 -5.175883661784258e-09 5.247287865797154e-11
241 -1.1386543841734679e-09 3.891650207165189e-10 -1.9083257063358884e-09
242 -3.4852367862978016e-09 9.088211165012963e-10 -1.5208802397299516e-09
243 -2.7596853663657e-09 -1.8605601576474816e-10 -5.041914012415076e-09
245 1.0706564297182163e-08 -3.538469631313969e-09 -2.317390607226359e-10
248 3.6481244011687596e-09 -3.648138954663196e-09 5.752377939602113e-09
250 -7.051913283018792e-10 -2.18566185931936e-09 -3.934912986117481e-09
249 -1.1022454451000757e-08 2.3668939047420807e-09 8.655477767149384e-09
207 1.8606901011818808e-10 2.7597023731610206e-09 -5.041910943487882e-09
247 3.3148464835849148e-09 -3.3148340988640613e-09 -4.88392431332856e-09
246 3.5384833808085377e-09 -1.0706582653416079e-08 -2.317418403118542e-10
198 -6.757318017137568e-09 6.757340400712748e-09 5.130518013455539e-09
200 4.554104616423337e-09 -7.208087043517133e-10 3.954363759611405e-09
446 4.129563213674849e-09 -3.902374465932644e-09 2.7958594606494927e-09
492 4.653726772633227e-09 2.6841043385379423e-09 -2.7765535273128563e-09
491 -5.128209774048941e-09 2.427350681111455e-09 -2.8848032627412313e-09
251 -7.043067929740321e-09 -1.268175732446089e-09 4.605877828769383e-16
253 7.0430713817497985e-09 1.268180578213388e-09 -1.2786108764240006e-15
254 4.4795443129689386e-09 3.5299111588543495e-09 -1.1166960260240625e-15
255 7.534296027005784e-09 3.85791895053704e-09 4.636139003247693e-09
256 2.280096667814375e-09 -1.4026267109776321e-09 3.265495430548681e-09
263 -3.93644882027755e-09 5.12481830487795e-09 7.61649068038687e-17
265 7.05185040798864e-10 2.1856593833601654e-09 3.93492778969669e-09
303 -4.12078477516521e-09 4.409807130497912e-09 3.2902875035309663e-09
304 -5.805572611606603e-09 2.8243217897508953e-10 1.7164804097986225e-09
305 -3.18759508415351e-09 6.877350848046779e-10 2.001633616052701e-09
306 6.568335141014816e-10 1.6567442236152832e-09 -1.8654796207909307e-09
313 5.12822392812741e-09 -2.427345217029046e-09 2.8847985033341414e-09
315 -4.5541138167842445e-09 7.208134376708231e-10 -3.954371342224895e-09
257 -6.3846182198837275e-09 -7.482206061507967e-09 1.6410852715717058e-15
258 -7.793242487092245e-09 -1.7627750192264518e-09 2.151808548128196e-15
260 -1.860741816760032e-10 -2.759707180099424e-09 5.041921362348495e-09
267 6.19434420969371e-09 1.4648959134224945e-09 -2.756478772737779e-15
269 -3.6481219980759914e-09 3.648142934729369e-09 -5.752380668644699e-09
307 3.891482037149999e-10 -1.138637544575134e-09 1.9083192426107477e-09
308 9.08830523766872e-10 -3.485253075392555e-09 1.5208773970889252e-09
309 -7.436001662012337e-09 2.383868313935058e-09 -4.804649631349408e-09
310 -3.0112821035077867e-10 8.772120147153744e-10 1.478627664196235e-09
317 -3.5384874772632723e-09 1.0706577200140995e-08 2.31739989818771e-10
319 -5.175870642169216e-09 5.175881821618253e-09 -5.2467040462780235e-11
61 3.485238115285467e-09 -9.088200549903904e-10 1.5208768370383764e-09
264 -4.881841311414594e-09 -7.217828780984054e-10 8.321165999241562e-17
266 -4.6537248055395705e-09 -2.6841089593948066e-09 2.776560628041176e-09
273 5.1858645166632895e-09 -8.840464409031173e-10 -8.46809829976871e-16
275 -2.180888271163598e-09 2.1809044490096096e-09 -1.141366305548028e-09
314 1.1022450461189073e-08 -2.366900096289308e-09 -8.655481368714952e-09
316 -4.129559311872616e-09 3.902371937497628e-09 -2.7958584555126127e-09
322 1.7287742599723998e-09 8.592759021988525e-10 -4.365718583620526e-09
323 5.5172327576719526e-09 1.805482638770011e-10 3.1917637826139094e-09
325 -7.048343776578975e-09 7.048360346644271e-09 3.8244602011504093e-10
274 8.840585907050616e-10 -5.185877429913472e-09 -1.5376915042922784e-15
276 1.0404940793114364e-09 -1.040509194447095e-09 -6.531582298990681e-09
324 -1.8053084010505327e-10 -5.517247560389059e-09 3.1917645241722345e-09
326 7.64007318268227e-10 -7.640237656900308e-10 -7.755064416146365e-10
268 -1.4648792663367598e-09 -6.194358988384387e-09 -7.574510023093399e-16
270 -3.314847290620883e-09 3.3148339734094883e-09 4.883919408745101e-09
277 7.217669742324066e-10 4.881857869740309e-09 -2.8698072203976353e-15
279 -2.185642600392965e-09 -7.051749201619761e-10 3.93492947836863e-09
318 -1.0706563992372605e-08 3.538475020131056e-09 2.317361848976804e-10
320 6.7573204829342574e-09 -6.757338573493512e-09 -5.130520294188614e-09
327 2.366884958809257e-09 -1.1022435856493815e-08 -8.655481392347228e-09
329 -7.207916404139708e-10 4.5541288116753056e-09 -3.954375769385069e-09
278 -5.12480474452592e-09 3.93643468718941e-09 -1.4873147155401132e-16
280 2.6840909428756566e-09 4.6537096464431126e-09 2.7765618650907327e-09
328 2.4273634793347544e-09 -5.128240606101944e-09 2.884799062339859e-09
330 -3.902390621698985e-09 4.1295521492319545e-09 -2.795860729552928e-09
14 2.7596862971368442e-09 1.8605570135961123e-10 5.041919607687038e-09
283 5.311721783571758e-09 5.311735731345281e-09 -1.9838859189543123e-15
284 1.4434003476092852e-09 1.443383253385497e-09 -4.271531879610668e-15
285 1.0862855100802554e-09 9.51441253752569e-10 3.1056344204610126e-09
286 9.514240566761704e-10 1.086268919324493e-09 3.105629623571193e-09
321 -5.1356274299430175e-09 -5.135650624443586e-09 4.440703970691446e-09
333 5.135632869005705e-09 5.13564216395428e-09 4.440701578993427e-09
334 4.09551306717611e-09 4.095495674289932e-09 -6.24850597690635e-09
335 -8.592528584163405e-10 -1.728764298262286e-09 -4.365721431108538e-09
336 -1.7287779206857157e-09 -8.592693796041565e-10 -4.365715302532296e-09
287 4.481852382144541e-09 2.8607461924824912e-11 -3.522380959265099e-17
288 -3.052366938104098e-09 4.870779917982889e-09 -7.17269516042732e-16
289 -8.010527014232094e-09 2.5360979520989143e-09 -1.1885793549020647e-09
290 3.5597276707247127e-10 -5.2784465941909755e-09 6.143061537220851e-09
337 6.732186366596291e-09 1.0157955813264724e-08 4.25125728530567e-09
338 -3.771103185146376e-09 5.812475739970694e-09 3.399221328463168e-09
339 -9.727565727790681e-09 -1.2195660582908777e-09 -2.1655942499271195e-09
340 7.785599911692966e-09 -6.991661697141498e-09 2.4280557260791335e-09
346 -1.2195801254094131e-09 -9.727585830528288e-09 -2.1656052488593304e-09
345 -6.991645366831556e-09 7.785620592301818e-09 2.4280591202960978e-09
344 5.812488725787442e-09 -3.771120519859357e-09 3.3992217065889455e-09
343 1.0157943670736771e-08 6.732212021528832e-09 4.251252552168118e-09
296 2.5360830405694436e-09 -8.01054962141577e-09 -1.1885753175622804e-09
295 -5.278432883126746e-09 3.5599078443966843e-10 6.143066371802484e-09
294 4.870789881792035e-09 -3.052380885877622e-09 -1.4702225907849144e-15
293 2.858797840812903e-11 4.481870495673681e-09 -6.803865099920397e-16
350 -2.6538868757068677e-09 -1.180920577664313e-09 4.325302506985843e-09
349 -1.1809043941619233e-09 -2.6538631810367537e-09 4.325293827841033e-09
348 -2.2308210161102017e-09 -2.2308452591901343e-09 6.9391419453314405e-09
347 -1.1023938571794156e-09 -1.1023817966677757e-09 2.039230968505917e-09
300 -5.027996932673911e-09 -8.547728832072707e-10 1.4451332038766522e-09
259 -4.2551393358215615e-09 -1.745321030800962e-09 5.019179807714162e-10
299 -8.547572050013608e-10 -5.0279793499002234e-09 1.4451328902353722e-09
298 8.231306468274491e-10 8.231190787574701e-10 -2.9206543002743354e-16
297 2.071214453063465e-09 2.071225165982023e-09 1.077862746692298e-17
51 -2.6459056606086624e-09 -2.64589722336802e-09 1.1219794377153144e-08
44 -1.7453385977569375e-09 -4.255154390385128e-09 5.019227416778152e-10
353 6.894596332848325e-09 1.3098240396707936e-09 3.6124813885875706e-09
354 4.713692965440364e-09 4.048312445595941e-09 -4.132427026764872e-09
355 -4.808668704300184e-09 4.463841347195436e-09 1.1659126071576679e-15
356 2.3180918062469283e-09 2.0641569958287127e-10 4.446951054729815e-16
363 8.257918291801569e-09 -2.77581781329517e-09 -5.270134703336544e-09
365 -7.132608118645149e-10 7.1909140025443095e-09 5.243683957792331e-15
402 6.8946018718961925e-09 1.3098251119767257e-09 -3.612485358458441e-09
403 4.713699845470371e-09 4.048311764909569e-09 4.132424143293439e-09
407 8.257924972123591e-09 -2.7758152176911018e-09 5.270133882764625e-09
357 6.5205755285319116e-09 2.6343553158300554e-09 3.2256046708530073e-09
358 -2.011435611955378e-09 -2.2687538297590753e-09 -3.590702247288495e-09
359 -5.386009641631142e-09 4.457113888175574e-09 -2.3821024395666654e-15
360 2.014454597989653e-09 6.57288180686179e-10 5.389376985567903e-15
367 7.0182880319685855e-09 1.0960964860279687e-09 -3.7129437782215978e-09
369 -9.441876559803514e-09 9.44189337290143e-09 3.8459699506600136e-15
404 6.520569925660325e-09 2.6343681203908645e-09 -3.2256018394667022e-09
405 -2.0114359603948336e-09 -2.2687511284537094e-09 3.5907022553847645e-09
409 7.018283675036992e-09 1.0960948435921476e-09 3.7129369276945992e-09
361 -5.44949781727473e-09 -3.428497516476776e-09 -5.203706286417435e-09
364 1.5720744746414878e-09 -1.377898357886227e-09 6.287102498749797e-10
366 7.218302022936487e-10 7.938321591234868e-09 3.612135698265364e-15
373 1.913720359933992e-09 2.982092368510707e-10 9.503703340818347e-10
375 -3.951144062403197e-09 3.951160920635718e-09 -8.534501298149482e-16
406 -5.449501955368092e-09 -3.428498094610399e-09 5.203703700408946e-09
408 1.5720698492726397e-09 -1.3779010052164622e-09 -6.287112467656595e-10
412 1.9137261907474284e-09 2.982111559668327e-10 -9.503711218188826e-10
374 -2.981927060676759e-10 -1.913737569157723e-09 9.503709465102249e-10
376 1.3887602551863388e-09 -1.38877302120436e-09 3.092175271501945e-15
413 -2.9820093907429485e-10 -1.9137359795871925e-09 -9.50369220394969e-10
368 -1.09608284073246e-09 -7.018302726777598e-09 -3.712939383282516e-09
370 -2.076111631946325e-09 2.0761003668867334e-09 4.01245125174239e-15
377 1.3778803239212085e-09 -1.5720565337314458e-09 6.287165777198474e-10
379 -7.190900729759782e-09 7.132777006829441e-10 2.7059532244020126e-15
410 -1.0960838746560767e-09 -7.018297557159515e-09 3.7129369118212485e-09
414 1.377886960193996e-09 -1.572061178944471e-09 -6.287179076880269e-10
378 2.7758301067309344e-09 -8.257932220379249e-09 -5.270131663037371e-09
380 -7.938334677702116e-09 -7.218477386262339e-10 -5.02738693756838e-15
415 2.775829412850642e-09 -8.257941311745064e-09 5.270130352941001e-09
383 -2.0025201515789508e-09 -2.0025059831071144e-09 -4.7129682689463225e-09
384 1.6684594717815712e-09 1.6684512507694258e-09 5.033078538834506e-10
385 1.0066375770505669e-08 -3.3913173011660904e-09 -9.967149795054375e-16
386 -3.3913266094772596e-09 1.0066369259905446e-08 -1.1034915631426646e-16
417 -2.002518537122816e-09 -2.002508419709443e-09 4.712974240994684e-09
418 1.6684603305858747e-09 1.6684485137805011e-09 -5.033066616327835e-10
387 3.428483062555211e-09 5.449509758856324e-09 -5.203709342828912e-09
388 1.5211214270022342e-10 3.1930430990652376e-09 1.5131668834806495e-09
389 -3.361840128656657e-09 -7.815762209466498e-10 -5.36152966005186e-15
390 -2.0722031524197855e-09 -2.9737987544579015e-09 4.778598833015887e-15
419 3.42848125810849e-09 5.4495133663248325e-09 5.20371169877192e-09
420 1.5210125111855047e-10 3.1930543813668853e-09 -1.5131698125310813e-09
423 3.193061997257842e-09 1.5209663249659358e-10 -1.5131689057488837e-09
422 5.44949616443628e-09 3.4284879214976898e-09 5.20370788947882e-09
396 -7.815861283817711e-10 -3.361855566743515e-09 -1.024328037960691e-15
395 -2.9737932723427287e-09 -2.0721941542852325e-09 -5.9192580366881034e-15
394 3.1930697025076265e-09 1.520920138746367e-10 1.5131674358261548e-09
393 5.449501681894096e-09 3.428492435617796e-09 -5.203706334395329e-09
425 9.082392109159398e-10 9.082118105157517e-10 5.649261744080713e-09
424 4.549475913411335e-09 4.549478178730297e-09 -2.888157027585184e-09
400 2.495033105599281e-09 -8.221266820122127e-09 -8.040084358444144e-15
399 -8.221257557138706e-09 2.4950462116044023e-09 1.2642175082090963e-15
398 9.082311455320883e-10 9.0821342309775e-10 -5.649255097718044e-09
397 4.549464332850236e-09 4.54948713374853e-09 2.8881603304579074e-09
427 -3.1875906893784153e-09 6.877425646163413e-10 -2.0016414277534375e-09
428 6.568337395975837e-10 1.6567474327366714e-09 1.8654845966982675e-09
432 -4.554118254739444e-09 7.208137858104168e-10 3.954368755016958e-09
453 -4.120790369387656e-09 4.409804479719266e-09 -3.290283364837881e-09
454 -5.805578215424628e-09 2.824375962790514e-10 -1.7164808865789447e-09
455 7.534291329969956e-09 3.857914309875238e-09 -4.636136311088113e-09
456 2.2800992514239693e-09 -1.4026245441010265e-09 -3.265496800317556e-09
463 5.1282238171785295e-09 -2.4273494102969863e-09 -2.884800837308756e-09
465 7.051905774478373e-10 2.185654654239121e-09 -3.934924576077374e-09
429 -7.43599603180647e-09 2.3838697508729848e-09 4.804649428193013e-09
430 -3.0112897155942466e-10 8.7721108726082e-10 -1.478633448748369e-09
434 -5.175869335371326e-09 5.175876627111636e-09 5.2473290483065717e-11
457 3.891546565543359e-10 -1.1386484770791628e-09 -1.9083145948104622e-09
458 9.088391058126702e-10 -3.4852507100823783e-09 -1.5208821060700303e-09
460 -1.860782525066065e-10 -2.7596997869520868e-09 -5.041917999985994e-09
467 -3.538486027440657e-09 1.0706575117770375e-08 -2.3173830301393986e-10
469 -3.648122959058216e-09 3.648142423427453e-09 5.752380538504661e-09
211 3.485234924155789e-09 -9.088199674307338e-10 -1.520879858305694e-09
433 -4.129555206164333e-09 3.902373076972611e-09 2.7958601107499573e-09
436 1.7287740836536392e-09 8.592732826058374e-10 4.365719138364926e-09
437 -7.0483498071003954e-09 7.048357157913487e-09 -3.824420211575719e-10
464 1.1022448858727412e-08 -2.3668958022677906e-09 8.655476814488325e-09
466 -4.6537279480916314e-09 -2.6841064735542275e-09 -2.7765594171990747e-09
473 5.517238512357965e-09 1.8054669979765507e-10 -3.191767102684178e-09
475 -2.180889043607692e-09 2.180909679199785e-09 1.1413652047552213e-09
438 7.640084649398947e-10 -7.640198530927711e-10 7.755060457970107e-10
474 -1.805329655257597e-10 -5.5172560428807266e-09 -3.1917639163522893e-09
476 1.0404927500239095e-09 -1.0405088010283637e-09 6.531582163153268e-09
435 6.757320226245496e-09 -6.757337545810184e-09 5.130519022984183e-09
439 -7.207889713437524e-10 4.554127801140913e-09 3.9543726050930245e-09
468 -1.0706559983819558e-08 3.5384707122409288e-09 -2.317397844391815e-10
470 -3.3148466808049825e-09 3.3148293629756274e-09 -4.883915822351253e-09
477 2.366881492654735e-09 -1.1022435597316551e-08 8.655479457977166e-09
479 -2.185648908886309e-09 -7.051739051296551e-10 -3.9349187902432135e-09
440 -3.902385161554606e-09 4.129554852786285e-09 2.795861578752282e-09
478 2.427362122040015e-09 -5.128229093662218e-09 -2.884808114505767e-09
480 2.684089992416708e-09 4.6537025293254694e-09 -2.7765547501812474e-09
214 2.7596864698572627e-09 1.8605470596824062e-10 -5.041918638533579e-09
442 -8.592549550503105e-10 -1.7287649412853227e-09 4.365711856744953e-09
443 -1.7287769947123606e-09 -8.59268787077165e-10 4.365714802962475e-09
471 -5.135627924115327e-09 -5.1356467770287936e-09 -4.440703133477195e-09
483 5.135624095479382e-09 5.1356424374282764e-09 -4.4407021352371364e-09
484 4.095511575063605e-09 4.09550335090291e-09 6.248507192246378e-09
485 1.0862843394196406e-09 9.514477085784895e-10 -3.105626344581997e-09
486 9.51428491033028e-10 1.086266091027639e-09 -3.105627207884228e-09
444 -9.72757795015919e-09 -1.2195701963842395e-09 2.1656082162920776e-09
445 7.785601059259535e-09 -6.991662956404844e-09 -2.4280614674166084e-09
487 6.732196345520348e-09 1.015795596469261e-08 -4.251259023945603e-09
488 -3.771102423497308e-09 5.812470562856064e-09 -3.399217193068563e-09
489 -8.010522521102317e-09 2.536106655288895e-09 1.1885732125321791e-09
490 3.5597294717698764e-10 -5.278446748628021e-09 -6.143060883939625e-09
496 2.5360874062579403e-09 -8.010542357562612e-09 1.1885766111662488e-09
495 -5.2784312182938225e-09 3.5598649641538774e-10 -6.143067839776111e-09
494 5.812490558542995e-09 -3.771124742213896e-09 -3.399219126577693e-09
493 1.01579449253587e-08 6.73220907283745e-09 -4.251257435718008e-09
448 -1.2195856890459518e-09 -9.727586814075115e-09 2.1656070480303575e-09
447 -6.991646652639116e-09 7.785616474599061e-09 -2.428053463927286e-09
500 -5.0279934915063134e-09 -8.547719608486563e-10 -1.4451387771510843e-09
499 -8.547631518613284e-10 -5.027979836875848e-09 -1.4451348918131396e-09
498 -2.2308290847925338e-09 -2.2308360637769467e-09 -6.939135900716514e-09
497 -1.1023997432142834e-09 -1.1023753717097339e-09 -2.0392238105623705e-09
450 -2.653881326679223e-09 -1.1809251236201418e-09 -4.325295223180159e-09
459 -4.255138336232125e-09 -1.7453312538406676e-09 -5.019262479622847e-10
449 -1.1809043773696604e-09 -2.6538622382711357e-09 -4.3253062942970784e-09
201 -2.645914949606855e-09 -2.6458956469006316e-09 -1.1219789870098532e-08
244 -1.745338844393299e-09 -4.255147635097646e-09 -5.019197262671741e-10
