LAMMPS data file via write_data, version 29 Aug 2024, timestep = 30, units = metal

500 atoms
3 atom types

0 17.659739165311926 xlo xhi
0 17.659739165311926 ylo yhi
0 17.659739165311926 zlo zhi

Masses

1 54.9546
2 55.845
3 55.845

Atoms # atomic

1 2 0.002025244378053313 0.0020252443780527235 0 0 0 0
2 3 1.763948672153138 1.7639486721531383 0 0 0 0
3 1 1.762867329242243 0.0031065872889489937 1.759518828509731 0 0 0
4 1 0.00310658728894793 1.7628673292422432 1.7595188285097312 0 0 0
5 1 3.5274692763613262 0.003066839340668863 0 0 0 0
8 1 3.529989284234876 1.766630805201832 1.7638310281899279 0 0 0
21 1 0.003066839340667426 3.5274692763613262 0 0 0 0
23 1 1.7666308052018316 3.5299892842348757 1.7638310281899283 0 0 0
25 1 3.526501779808111 3.5265017798081115 3.7462144938449537e-19 0 0 0
52 1 1.766497801100974 1.7664978011009742 3.5308237384141252 0 0 0
53 1 1.7656762829342063 0.00029763359698502343 5.297557535226198 0 0 0
54 1 0.00029763359698643273 1.7656762829342068 5.297557535226199 0 0 0
58 1 3.531600516995037 1.7656444586760922 5.29745330372486 0 0 0
73 1 1.7656444586760924 3.531600516995036 5.297453303724861 0 0 0
75 1 3.5329068572528164 3.5329068572528177 3.5330720194504774 0 0 0
6 1 5.296084619049779 1.7657587151451195 1.0745239621369917e-18 0 0 0
9 1 7.063830559915527 0.0003003162354894756 9.02746321931418e-19 0 0 0
12 1 7.0636227947201675 1.7659710717745152 1.7656788981310552 0 0 0
27 1 5.298436975530106 3.5325203110841623 1.7662513580893129 0 0 0
29 1 7.063737620346836 3.531544899819004 1.0873159140671938e-19 0 0 0
56 1 5.295020213556993 1.765657824833823 3.5292567606804655 0 0 0
57 1 5.296981819493214 0.0003149271829124088 5.296768463991374 0 0 0
59 1 7.0636622945008884 0.00031255594483804104 3.531765811845933 0 0 0
62 1 7.062927572838862 1.7658278838175778 5.296972222384231 0 0 0
77 1 5.297938071863606 3.531560773373017 5.297734696842877 0 0 0
79 1 7.063451905177003 3.5315276494043197 3.53181857910705 0 0 0
11 1 8.829754747833533 2.6003458679029137e-05 1.7659312233617703 0 0 0
31 1 8.829758325533996 3.531867224010575 1.7659619178926598 0 0 0
60 1 8.829866002090485 1.7659824314678547 3.531735782214531 0 0 0
61 1 8.829746582886461 0.00013653323807430245 5.297700184059864 0 0 0
81 1 8.829749436959801 3.531693791614116 5.297721098005869 0 0 0
10 1 8.829965820046045 1.765962624198945 1.703157028421218e-18 0 0 0
13 1 10.595747261797074 1.1292332247054089e-05 4.2335828935269156e-16 0 0 0
14 1 12.36188252192759 1.7656736002957034 0 0 0 0
15 1 12.36209028712295 2.84475667695398e-06 1.7656788981310552 0 0 0
16 1 10.595958334009586 1.7659479130725104 1.76593122336177 0 0 0
33 1 10.59585008281061 3.5317765048660728 1.405737681563003e-16 0 0 0
35 1 12.362173538609529 3.5318866267754876 1.7656280317825221 0 0 0
64 1 12.362050787342229 1.7656613605863536 3.5317658118459327 0 0 0
65 1 12.362785509004256 0.00014603271361373108 5.296972222384231 0 0 0
66 1 10.595966498956656 1.7658373832931171 5.297700184059864 0 0 0
83 1 10.596061105444173 3.5318383263850466 3.5317659859976476 0 0 0
85 1 12.361929209373182 3.5317230306509955 5.297832504281449 0 0 0
71 1 17.65918958477984 3.529685955554955 3.529812653940473 -1 0 0
17 1 14.12962846279334 0.00021520138607368158 4.873124544838965e-20 0 0 0
18 1 15.898243805481792 1.7629070771905233 1.123809399743752e-16 0 0 0
20 1 14.127199534991203 1.7665119632129656 1.7662623978944219 0 0 0
37 1 14.13068634941004 3.528912148895471 0 0 0 0
39 1 15.892572238426341 3.533140843416779 1.7669946698933225 0 0 0
67 1 14.130692868286125 0.0003160916973693735 3.5292567606804655 0 0 0
68 1 15.896027126288164 1.7665234970632784 3.5298126539404735 0 0 0
69 1 15.894112564848081 0.00032945785509928073 5.297453303724861 0 0 0
70 1 14.128731262349904 1.7656589893482793 5.296768463991374 0 0 0
87 1 14.12771236488318 3.531968592573203 3.5322321825926863 0 0 0
89 1 15.894149149859283 3.531563931983836 5.297383237225483 0 0 0
22 1 1.7657587151451202 5.29608461904978 1.0123123585841425e-18 0 0 0
28 1 3.5325203110841614 5.298436975530106 1.7662513580893124 0 0 0
41 1 0.0003003162354880714 7.063830559915528 1.0848793517947745e-18 0 0 0
42 1 1.7659710717745145 7.063622794720168 1.765678898131055 0 0 0
43 1 3.531544899819003 7.063737620346835 3.7614430080475753e-19 0 0 0
72 1 1.7656578248338235 5.295020213556993 3.5292567606804655 0 0 0
74 1 0.00031492718291087075 5.2969818194932135 5.296768463991375 0 0 0
78 1 3.5315607733730174 5.297938071863605 5.297734696842877 0 0 0
91 1 0.0003125559448379128 7.063662294500889 3.531765811845933 0 0 0
92 1 1.765827883817578 7.062927572838863 5.296972222384231 0 0 0
93 1 3.5315276494043197 7.063451905177005 3.53181857910705 0 0 0
252 1 2.600345868186244e-05 8.829754747833531 1.7659312233617697 0 0 0
254 1 3.531867224010574 8.829758325533996 1.7659619178926604 0 0 0
301 1 1.7659824314678543 8.829866002090485 3.531735782214531 0 0 0
302 1 0.00013653323807503166 8.829746582886463 5.297700184059864 0 0 0
304 1 3.531693791614115 8.829749436959801 5.29772109800587 0 0 0
26 1 5.294413676562504 5.294413676562505 1.4239545639407458e-18 0 0 0
32 1 7.063550370103504 5.297801252299497 1.765536334321295 0 0 0
44 1 5.297801252299497 7.063550370103504 1.7655363343212953 0 0 0
45 1 7.062781063768985 7.062781063768985 4.556371449424432e-19 0 0 0
76 1 5.298348252625333 5.298348252625332 3.5322658004554865 0 0 0
82 1 7.063943559214428 5.297801268141919 5.297931405023643 0 0 0
94 1 5.297801268141919 7.063943559214428 5.297931405023643 0 0 0
95 1 7.063942300149101 7.0639423001491 3.5317758565620916 0 0 0
46 1 8.829755113590771 7.0637233671955295 1.7657085062738855 0 0 0
80 1 8.829660978896252 5.297707134853112 3.5317298210196233 0 0 0
256 1 7.0637233671955295 8.829755113590771 1.7657085062738855 0 0 0
303 1 5.297707134853111 8.829660978896252 3.5317298210196233 0 0 0
255 1 8.829592543491518 8.829592543491518 0 0 0 0
305 1 8.82986846221867 8.82986846221867 3.531716477286135 0 0 0
30 1 8.829870719820361 5.297664235328073 0 0 0 0
34 1 12.362692789338515 5.296902226608509 0 0 0 0
36 1 10.595973539786959 5.297745542361372 1.76584236258494 0 0 0
47 1 10.596137148673632 7.06349157652853 0 0 0 0
48 1 12.36206986850596 7.063643213337157 1.7656959625452984 0 0 0
84 1 12.362017728552289 5.297825700224966 3.5317448001605523 0 0 0
86 1 10.595859697801133 5.297747082117554 5.2977704407282635 0 0 0
96 1 8.82987905021427 7.063820372757218 5.297813311541743 0 0 0
97 1 10.595861140315622 7.063779976841769 3.5317226321237354 0 0 0
98 1 12.361886168767809 7.06382691307531 5.297818262536795 0 0 0
257 1 12.362221505314588 8.829575933169485 0 0 0 0
258 1 10.595918814613462 8.829794267229657 1.7657095577338857 0 0 0
307 1 12.361933105001349 8.829851941527496 3.531722632123736 0 0 0
308 1 10.595874512548797 8.829838569294322 5.297788372317173 0 0 0
100 1 15.893990051192123 7.063783872469937 5.29783250428145 0 0 0
99 1 14.127887381618152 7.063695353290829 3.531744800160552 0 0 0
90 1 14.127854875315801 5.297858206527316 5.297974720354346 0 0 0
88 1 15.893744489269915 5.298000716959936 3.532232182592687 0 0 0
50 1 15.89382645506763 7.063539543233589 1.7656280317825226 0 0 0
24 1 17.659201118630154 5.298513546851914 1.7662623978944219 -1 0 0
38 1 15.896800932947649 5.295026732433079 0 0 0 0
40 1 14.128104005494043 5.297609076349076 1.7653218699039528 0 0 0
49 1 14.128810855234608 7.063020292504603 1.6255633427331387e-15 0 0 0
259 1 15.893936576977046 8.829862999032507 3.473985149166142e-16 0 0 0
260 1 14.127967539481746 8.829739542056158 1.7658423625849409 0 0 0
309 1 15.893874755458071 8.829651976398944 3.5317659859976476 0 0 0
310 1 14.127965999725564 8.829853384041984 5.2977704407282635 0 0 0
101 1 2.526295100836995e-05 2.5262951008509843e-05 7.06386291697693 0 0 0
102 1 1.7659486535801834 1.7659486535801827 7.06386291697693 0 0 0
103 1 1.765948784671417 2.5131859775200244e-05 8.829869582655963 0 0 0
104 1 2.5131859775639817e-05 1.7659487846714164 8.829869582655963 0 0 0
105 1 3.5317547475276023 3.1399871785045556e-05 7.063754908810185 0 0 0
108 1 3.5318514977023887 1.7659780376830612 8.829869582655963 0 0 0
121 1 3.1399871784544967e-05 3.5317547475276023 7.063754908810184 0 0 0
123 1 1.7659780376830618 3.531851497702389 8.829869582655963 0 0 0
125 1 3.5317917939335364 3.531791793933536 7.063535786130882 0 0 0
151 1 2.5262951007743183e-05 2.5262951009322137e-05 10.595876248334996 0 0 0
152 1 1.7659486535801832 1.7659486535801832 10.595876248334996 0 0 0
153 1 3.5317547475276023 3.139987178479536e-05 10.595984256501742 0 0 0
161 1 3.139987178524818e-05 3.5317547475276023 10.595984256501742 0 0 0
163 1 3.531791793933536 3.531791793933537 10.596203379181043 0 0 0
106 1 5.297634854007159 1.765825538665573 7.06373854625058 0 0 0
109 1 7.063470645641545 0.00013866092979610963 7.063469443956033 0 0 0
112 1 7.063683535702968 1.7658296701666445 8.829869582655963 0 0 0
127 1 5.2977320113356905 3.5318236724686143 8.829869582655963 0 0 0
129 1 7.063776757482853 3.5316842110145856 7.063776303011503 0 0 0
154 1 5.297634854007159 1.7658255386655728 10.596000619061346 0 0 0
155 1 7.063470645641545 0.00013866092979593242 10.596269721355894 0 0 0
165 1 7.063776757482853 3.531684211014585 10.595962862300423 0 0 0
110 1 8.829584926972412 1.7658333730613998 7.063553343727048 0 0 0
111 1 8.829778478264505 0.0001380588501193895 8.829869582655963 0 0 0
131 1 8.829806873289936 3.531675918822817 8.829869582655963 0 0 0
156 1 8.829584926972412 1.7658333730613982 10.596185821584879 0 0 0
113 1 10.596128154870705 0.00014054346979212997 7.063553343727048 0 0 0
114 1 12.362242436201573 1.765835255601396 7.063469443956033 0 0 0
115 1 12.362029546140148 0.00014424636454633783 8.829869582655963 0 0 0
116 1 10.595934603578613 1.765835857681073 8.829869582655963 0 0 0
133 1 10.595867849982364 3.5316864379824753 7.063820386639048 0 0 0
135 1 12.362020625709048 3.531684444322152 8.829869582655963 0 0 0
157 1 10.596128154870705 0.00014054346979386651 10.596185821584879 0 0 0
158 1 12.362242436201571 1.7658352556013954 10.596269721355894 0 0 0
167 1 10.595867849982364 3.531686437982476 10.595918778672878 0 0 0
117 1 14.12807822783596 0.00014837786561959458 7.063738546250581 0 0 0
118 1 15.893958334315515 1.7659425166594076 7.063754908810185 0 0 0
120 1 14.127999251482109 1.7659747469143594 8.829869582655963 0 0 0
137 1 14.12804957507722 3.531674057947732 7.0635308463893045 0 0 0
139 1 15.893842553784735 3.531870528058383 8.829869582655963 0 0 0
159 1 14.12807822783596 0.0001483778656171898 10.596000619061346 0 0 0
160 1 15.893958334315517 1.765942516659407 10.595984256501744 0 0 0
169 1 14.12804957507722 3.5316740579477326 10.59620831892262 0 0 0
122 1 1.765825538665574 5.297634854007159 7.06373854625058 0 0 0
128 1 3.531823672468614 5.29773201133569 8.829869582655963 0 0 0
141 1 0.0001386609297953932 7.063470645641545 7.063469443956033 0 0 0
142 1 1.7658296701666447 7.063683535702969 8.829869582655963 0 0 0
143 1 3.531684211014585 7.063776757482853 7.063776303011504 0 0 0
162 1 1.7658255386655741 5.297634854007159 10.596000619061346 0 0 0
171 1 0.00013866092979585812 7.063470645641545 10.596269721355894 0 0 0
172 1 3.531684211014585 7.063776757482853 10.595962862300423 0 0 0
351 1 1.765833373061399 8.829584926972412 7.063553343727048 0 0 0
352 1 0.0001380588501185024 8.829778478264503 8.829869582655963 0 0 0
354 1 3.5316759188228164 8.829806873289936 8.829869582655963 0 0 0
401 1 1.7658333730613998 8.829584926972412 10.596185821584879 0 0 0
126 1 5.297748947907332 5.297748947907332 7.063689685653714 0 0 0
132 1 7.063766748592578 5.2977282101165715 8.829869582655963 0 0 0
144 1 5.2977282101165715 7.063766748592578 8.829869582655963 0 0 0
145 1 7.06382163614631 7.06382163614631 7.063882112926098 0 0 0
164 1 5.297748947907332 5.297748947907332 10.59604947965821 0 0 0
173 1 7.06382163614631 7.063821636146311 10.595857052385828 0 0 0
146 1 8.829852593307184 7.063786766043368 8.829869582655963 0 0 0
356 1 7.063786766043367 8.829852593307184 8.829869582655963 0 0 0
355 1 8.829846119953201 8.829846119953201 7.063845587753293 0 0 0
403 1 8.829846119953201 8.829846119953201 10.595893577558632 0 0 0
130 1 8.829874650211861 5.297726365027687 7.063874333909645 0 0 0
134 1 12.36189860458328 5.297734985911828 7.063883975849332 0 0 0
136 1 10.59588796800191 5.297710063813813 8.829869582655963 0 0 0
147 1 10.595883241865147 7.063787836411979 7.063849851183782 0 0 0
148 1 12.36193311099592 7.0637799708471976 8.829869582655963 0 0 0
166 1 8.829874650211861 5.297726365027687 10.595864831402281 0 0 0
168 1 12.361898604583281 5.297734985911828 10.595855189462595 0 0 0
174 1 10.595883241865145 7.063787836411978 10.595889314128144 0 0 0
357 1 12.36192524543114 8.82982983997797 7.063849851183782 0 0 0
358 1 10.59588336457413 8.829829717268987 8.829869582655963 0 0 0
404 1 12.36192524543114 8.829829839977972 10.595889314128144 0 0 0
175 1 14.12797809593129 7.063814477259838 10.595855189462595 0 0 0
170 1 15.894039023895385 5.297663506765898 10.59620831892262 0 0 0
124 1 17.65973833492876 5.297713830361009 8.829869582655963 -1 0 0
138 1 15.894039023895386 5.297663506765898 7.0635308463893045 0 0 0
140 1 14.128034343882174 5.297678737960943 8.829869582655963 0 0 0
149 1 14.12797809593129 7.063814477259837 7.063883975849332 0 0 0
150 1 15.894028637520966 7.063692456134067 8.829869582655963 0 0 0
359 1 15.894026643860643 8.829845231860753 7.0638203866390485 0 0 0
360 1 14.128003018029304 8.82982511384121 8.829869582655963 0 0 0
405 1 15.894026643860643 8.829845231860753 10.59591877867288 0 0 0
176 1 1.765676282934206 0.00029763359698493805 12.362181630085727 0 0 0
177 1 0.00029763359698522585 1.7656762829342063 12.362181630085725 0 0 0
179 1 3.5316005169950366 1.765644458676092 12.362285861587067 0 0 0
186 1 1.765644458676092 3.531600516995037 12.362285861587065 0 0 0
202 1 1.7664978011009747 1.7664978011009738 14.128915426897802 0 0 0
203 1 1.7628673292422437 0.003106587288948365 15.900220336802194 0 0 0
204 1 0.00310658728894833 1.7628673292422439 15.900220336802194 0 0 0
208 1 3.5299892842348766 1.7666308052018322 15.895908137121998 0 0 0
223 1 1.766630805201832 3.5299892842348766 15.895908137122 0 0 0
225 1 3.5329068572528173 3.532906857252817 14.126667145861449 0 0 0
178 1 5.296981819493214 0.00031492718291167984 12.36297070132055 0 0 0
181 1 7.062927572838862 1.7658278838175772 12.362766942927694 0 0 0
188 1 5.297938071863606 3.5315607733730174 12.362004468469049 0 0 0
206 1 5.295020213556992 1.7656578248338237 14.13048240463146 0 0 0
209 1 7.063662294500889 0.0003125559448375615 14.127973353465993 0 0 0
212 1 7.0636227947201675 1.7659710717745147 15.894060267180873 0 0 0
227 1 5.298436975530106 3.5325203110841628 15.893487807222613 0 0 0
229 1 7.063451905177004 3.5315276494043197 14.127920586204876 0 0 0
180 1 8.829746582886463 0.0001365332380745133 12.362038981252063 0 0 0
190 1 8.829749436959803 3.531693791614115 12.362018067306055 0 0 0
210 1 8.829866002090485 1.7659824314678545 14.128003383097395 0 0 0
211 1 8.829754747833531 2.6003458681700706e-05 15.893807941950156 0 0 0
231 1 8.829758325533996 3.5318672240105746 15.893777247419267 0 0 0
182 1 12.362785509004258 0.0001460327136132089 12.362766942927694 0 0 0
183 1 10.595966498956654 1.7658373832931173 12.362038981252063 0 0 0
192 1 12.361929209373182 3.531723030650995 12.361906661030476 0 0 0
214 1 12.362050787342229 1.7656613605863531 14.127973353465993 0 0 0
215 1 12.36209028712295 2.8447566764805208e-06 15.89406026718087 0 0 0
216 1 10.595958334009586 1.7659479130725104 15.893807941950156 0 0 0
233 1 10.596061105444173 3.531838326385046 14.12797317931428 0 0 0
235 1 12.362173538609529 3.531886626775488 15.894111133529403 0 0 0
221 1 17.65918958477984 3.5296859555549553 14.129926511371453 -1 0 0
184 1 15.894112564848081 0.0003294578550999477 12.362285861587065 0 0 0
185 1 14.128731262349904 1.7656589893482795 12.36297070132055 0 0 0
194 1 15.894149149859283 3.5315639319838343 12.362355928086444 0 0 0
217 1 14.130692868286125 0.00031609169736946773 14.13048240463146 0 0 0
218 1 15.896027126288164 1.76652349706328 14.129926511371451 0 0 0
220 1 14.127199534991203 1.7665119632129653 15.893476767417503 0 0 0
237 1 14.12771236488318 3.5319685925732025 14.12750698271924 0 0 0
239 1 15.89257223842634 3.5331408434167795 15.892744495418603 0 0 0
187 1 0.00031492718291276935 5.296981819493214 12.36297070132055 0 0 0
189 1 3.5315607733730165 5.297938071863606 12.362004468469049 0 0 0
196 1 1.7658278838175785 7.062927572838862 12.362766942927694 0 0 0
222 1 1.7656578248338235 5.295020213556992 14.13048240463146 0 0 0
228 1 3.5325203110841623 5.298436975530106 15.893487807222614 0 0 0
241 1 0.00031255594483847846 7.0636622945008884 14.127973353465993 0 0 0
242 1 1.7659710717745147 7.063622794720168 15.894060267180873 0 0 0
243 1 3.5315276494043193 7.063451905177004 14.127920586204876 0 0 0
426 1 0.00013653323807453973 8.829746582886463 12.362038981252063 0 0 0
427 1 3.531693791614115 8.829749436959803 12.362018067306055 0 0 0
451 1 1.765982431467855 8.829866002090485 14.128003383097395 0 0 0
452 1 2.6003458681441602e-05 8.829754747833531 15.893807941950156 0 0 0
454 1 3.531867224010574 8.829758325533996 15.893777247419266 0 0 0
191 1 7.063943559214427 5.29780126814192 12.361807760288281 0 0 0
197 1 5.29780126814192 7.063943559214428 12.361807760288281 0 0 0
226 1 5.298348252625333 5.298348252625333 14.12747336485644 0 0 0
232 1 7.063550370103503 5.297801252299497 15.894202830990631 0 0 0
244 1 5.2978012522994975 7.063550370103503 15.894202830990631 0 0 0
245 1 7.0639423001491 7.063942300149101 14.127963308749834 0 0 0
230 1 8.829660978896252 5.297707134853112 14.128009344292302 0 0 0
246 1 8.829755113590771 7.0637233671955295 15.894030659038041 0 0 0
453 1 5.297707134853112 8.829660978896252 14.128009344292302 0 0 0
456 1 7.0637233671955295 8.829755113590771 15.894030659038041 0 0 0
455 1 8.82986846221867 8.82986846221867 14.12802268802579 0 0 0
193 1 10.595859697801131 5.297747082117553 12.361968724583662 0 0 0
198 1 8.829879050214268 7.063820372757219 12.361925853770185 0 0 0
199 1 12.361886168767809 7.06382691307531 12.361920902775129 0 0 0
234 1 12.362017728552289 5.297825700224966 14.127994365151375 0 0 0
236 1 10.595973539786959 5.297745542361371 15.893896802726985 0 0 0
247 1 10.595861140315622 7.063779976841769 14.12801653318819 0 0 0
248 1 12.36206986850596 7.063643213337158 15.894043202766627 0 0 0
429 1 10.595874512548797 8.829838569294322 12.361950792994753 0 0 0
457 1 12.36193310500135 8.829851941527496 14.12801653318819 0 0 0
458 1 10.595918814613462 8.829794267229657 15.89402960757804 0 0 0
250 1 15.893826455067632 7.063539543233589 15.894111133529403 0 0 0
249 1 14.127887381618152 7.063695353290829 14.127994365151375 0 0 0
240 1 14.128104005494041 5.297609076349074 15.89441729540797 0 0 0
238 1 15.893744489269915 5.298000716959935 14.127506982719241 0 0 0
200 1 15.893990051192121 7.063783872469937 12.361906661030476 0 0 0
224 1 17.659201118630154 5.298513546851915 15.893476767417503 -1 0 0
195 1 14.127854875315801 5.297858206527316 12.36176444495758 0 0 0
430 1 14.127965999725564 8.829853384041984 12.361968724583662 0 0 0
459 1 15.893874755458071 8.829651976398944 14.127973179314278 0 0 0
460 1 14.127967539481746 8.829739542056158 15.893896802726983 0 0 0
251 1 1.7659626241989443 8.829965820046045 0 0 0 0
261 1 1.1292332246842275e-05 10.595747261797074 0 0 0 0
262 1 1.765673600295703 12.36188252192759 8.988853226960105e-17 0 0 0
263 1 1.76594791307251 10.595958334009586 1.7659312233617699 0 0 0
264 1 2.8447566768428654e-06 12.36209028712295 1.7656788981310552 0 0 0
265 1 3.5317765048660728 10.59585008281061 0 0 0 0
268 1 3.5318866267754876 12.362173538609529 1.7656280317825226 0 0 0
312 1 1.7656613605863523 12.362050787342229 3.5317658118459336 0 0 0
313 1 1.7658373832931176 10.595966498956656 5.297700184059864 0 0 0
314 1 0.00014603271361378592 12.362785509004256 5.29697222238423 0 0 0
315 1 3.531838326385046 10.596061105444173 3.531765985997648 0 0 0
318 1 3.531723030650995 12.36192920937318 5.29783250428145 0 0 0
253 1 5.297664235328074 8.829870719820363 0 0 0 0
266 1 5.29690222660851 12.362692789338515 0 0 0 0
267 1 5.297745542361373 10.595973539786959 1.76584236258494 0 0 0
269 1 7.063491576528529 10.596137148673632 5.8645728494066e-17 0 0 0
272 1 7.063643213337156 12.36206986850596 1.7656959625452988 0 0 0
306 1 7.063820372757219 8.829879050214268 5.297813311541742 0 0 0
316 1 5.2978257002249665 12.362017728552289 3.5317448001605523 0 0 0
317 1 5.297747082117554 10.595859697801133 5.2977704407282635 0 0 0
319 1 7.063779976841768 10.59586114031562 3.5317226321237363 0 0 0
322 1 7.06382691307531 12.361886168767807 5.297818262536795 0 0 0
270 1 8.829575933169487 12.362221505314588 1.9311085677363358e-16 0 0 0
271 1 8.829794267229657 10.595918814613462 1.7657095577338862 0 0 0
320 1 8.829851941527497 12.36193310500135 3.5317226321237363 0 0 0
321 1 8.82983856929432 10.595874512548797 5.297788372317173 0 0 0
273 1 10.5961205383516 10.5961205383516 1.6630917954561275e-16 0 0 0
274 1 12.362932018074133 12.362932018074133 2.0552456305603577e-19 0 0 0
275 1 12.361989714647589 10.595957968252346 1.7657085062738858 0 0 0
276 1 10.595957968252346 12.36198971464759 1.765708506273886 0 0 0
323 1 10.595844619624447 10.595844619624447 3.5317164772861345 0 0 0
324 1 12.361770781694018 12.361770781694018 3.5317758565620916 0 0 0
325 1 12.361892709085902 10.595834031628849 5.297813311541744 0 0 0
326 1 10.595834031628849 12.3618927090859 5.297813311541744 0 0 0
311 1 17.659730650375263 10.595847079752634 3.531735782214531 -1 0 0
277 1 14.128048846515044 10.595842362022756 0 0 0 0
278 1 15.894168182024115 12.36197546149628 7.688112168242612e-16 0 0 0
279 1 15.893845857832543 10.595954756309121 1.76596191789266 0 0 0
280 1 14.127911829543622 12.362162711739614 1.7655363343212953 0 0 0
327 1 14.128005946990006 10.596052102946866 3.5317298210196237 0 0 0
328 1 15.894185432438798 12.362261176666113 3.5318185791070493 0 0 0
329 1 15.894019290229002 10.595963644883316 5.29772109800587 0 0 0
330 1 14.127911813701198 12.361769522628691 5.297931405023644 0 0 0
281 1 0.00021520138607269583 14.12962846279334 5.523877719788099e-16 0 0 0
282 1 1.7629070771905226 15.898243805481792 0 0 0 0
283 1 1.766511963212965 14.127199534991203 1.766262397894422 0 0 0
285 1 3.528912148895471 14.13068634941004 0 0 0 0
288 1 3.5331408434167786 15.89257223842634 1.7669946698933232 0 0 0
331 1 0.00031609169736903416 14.130692868286125 3.529256760680465 0 0 0
332 1 1.7665234970632786 15.896027126288164 3.5298126539404735 0 0 0
333 1 1.765658989348279 14.128731262349904 5.296768463991374 0 0 0
334 1 0.0003294578550997226 15.894112564848081 5.2974533037248595 0 0 0
335 1 3.531968592573203 14.127712364883182 3.5322321825926863 0 0 0
338 1 3.5315639319838352 15.894149149859283 5.297383237225483 0 0 0
55 1 3.5296859555549553 17.659189584779842 3.529812653940474 0 -1 0
341 1 8.829853384041984 14.127965999725564 5.2977704407282635 0 0 0
340 1 8.829651976398944 15.893874755458071 3.5317659859976462 0 0 0
286 1 5.2950267324330795 15.896800932947647 1.9240029788715336e-16 0 0 0
287 1 5.297609076349075 14.128104005494041 1.765321869903954 0 0 0
289 1 7.063020292504603 14.128810855234608 4.672109644523947e-19 0 0 0
292 1 7.063539543233589 15.893826455067632 1.7656280317825228 0 0 0
336 1 5.298000716959936 15.893744489269915 3.532232182592686 0 0 0
337 1 5.297858206527316 14.127854875315801 5.297974720354346 0 0 0
339 1 7.063695353290829 14.127887381618152 3.5317448001605527 0 0 0
342 1 7.063783872469937 15.893990051192121 5.297832504281449 0 0 0
290 1 8.829862999032509 15.893936576977046 3.7780487419100387e-16 0 0 0
291 1 8.82973954205616 14.127967539481746 1.7658423625849407 0 0 0
7 1 5.298513546851915 17.65920111863015 1.766262397894422 0 -1 0
346 1 10.595963644883316 15.894019290229004 5.297721098005869 0 0 0
345 1 12.361769522628691 14.127911813701198 5.297931405023643 0 0 0
344 1 12.362261176666113 15.894185432438798 3.5318185791070498 0 0 0
343 1 10.596052102946866 14.128005946990005 3.5317298210196233 0 0 0
296 1 10.595954756309121 15.893845857832545 1.7659619178926602 0 0 0
295 1 12.362162711739614 14.127911829543622 1.765536334321295 0 0 0
294 1 12.361975461496282 15.894168182024115 4.782989000986447e-16 0 0 0
293 1 10.595842362022756 14.128048846515044 6.895043565012079e-16 0 0 0
63 1 10.595847079752632 17.659730650375263 3.531735782214531 0 -1 0
350 1 14.127775009979514 15.894152308470101 5.297734696842877 0 0 0
349 1 15.8941523084701 14.127775009979512 5.297734696842877 0 0 0
348 1 15.892806224590302 15.892806224590302 3.5330720194504783 0 0 0
347 1 14.127364829217784 14.127364829217784 3.532265800455486 0 0 0
300 1 14.127276106313012 15.893192770758956 1.7662513580893129 0 0 0
299 1 15.893192770758956 14.127276106313012 1.7662513580893127 0 0 0
298 1 15.899211302035006 15.899211302035006 6.846739985498745e-19 0 0 0
297 1 14.131299405280615 14.131299405280615 2.0044396045139182e-16 0 0 0
284 1 17.659082276641286 15.895723797608241 1.763831028189928 -1 0 0
51 1 17.659215280742142 17.659215280742142 3.5308237384141252 -1 -1 0
19 1 15.895723797608241 17.659082276641286 1.763831028189928 0 -1 0
361 1 0.00014054346979220202 10.596128154870705 7.063553343727048 0 0 0
362 1 1.765835255601396 12.362242436201573 7.063469443956033 0 0 0
363 1 1.7658358576810738 10.595934603578614 8.829869582655963 0 0 0
364 1 0.00014424636454790036 12.362029546140148 8.829869582655963 0 0 0
365 1 3.5316864379824753 10.595867849982366 7.0638203866390485 0 0 0
368 1 3.5316844443221513 12.362020625709048 8.829869582655963 0 0 0
406 1 0.00014054346979178804 10.596128154870705 10.596185821584879 0 0 0
407 1 1.7658352556013952 12.362242436201573 10.596269721355894 0 0 0
408 1 3.531686437982475 10.595867849982366 10.595918778672878 0 0 0
353 1 5.297726365027688 8.829874650211861 7.063874333909645 0 0 0
366 1 5.297734985911828 12.36189860458328 7.063883975849332 0 0 0
367 1 5.297710063813814 10.59588796800191 8.829869582655963 0 0 0
369 1 7.063787836411978 10.595883241865147 7.063849851183782 0 0 0
372 1 7.0637799708471976 12.361933110995919 8.829869582655963 0 0 0
402 1 5.297726365027688 8.829874650211861 10.595864831402281 0 0 0
409 1 5.297734985911829 12.36189860458328 10.595855189462595 0 0 0
410 1 7.0637878364119775 10.595883241865147 10.595889314128142 0 0 0
370 1 8.829829839977972 12.36192524543114 7.063849851183782 0 0 0
371 1 8.829829717268987 10.595883364574131 8.829869582655963 0 0 0
411 1 8.829829839977972 12.36192524543114 10.595889314128144 0 0 0
373 1 10.595866961889918 10.595866961889916 7.063845587753294 0 0 0
374 1 12.361891445696807 12.361891445696807 7.063882112926098 0 0 0
375 1 12.361926315799751 10.595860488535934 8.829869582655963 0 0 0
376 1 10.595860488535934 12.361926315799751 8.829869582655963 0 0 0
412 1 10.595866961889916 10.595866961889918 10.595893577558632 0 0 0
413 1 12.361891445696807 12.361891445696807 10.595857052385826 0 0 0
377 1 14.12798671681543 10.595838431631257 7.063874333909645 0 0 0
378 1 15.894028870828533 12.361936324360265 7.063776303011503 0 0 0
379 1 15.8940371630203 10.59590620855318 8.829869582655963 0 0 0
380 1 14.127984871726547 12.36194633325054 8.829869582655963 0 0 0
414 1 14.12798671681543 10.595838431631256 10.595864831402281 0 0 0
415 1 15.894028870828535 12.361936324360265 10.595962862300423 0 0 0
381 1 0.0001483778656196998 14.12807822783596 7.06373854625058 0 0 0
382 1 1.765942516659407 15.893958334315517 7.063754908810184 0 0 0
383 1 1.7659747469143587 14.127999251482109 8.829869582655963 0 0 0
385 1 3.5316740579477326 14.12804957507722 7.0635308463893045 0 0 0
388 1 3.5318705280583833 15.893842553784735 8.829869582655963 0 0 0
416 1 0.00014837786561822702 14.128078227835958 10.596000619061346 0 0 0
417 1 1.7659425166594072 15.893958334315515 10.595984256501742 0 0 0
418 1 3.5316740579477317 14.12804957507722 10.59620831892262 0 0 0
421 1 8.829845231860753 15.894026643860641 10.59591877867288 0 0 0
386 1 5.297663506765898 15.894039023895385 7.063530846389305 0 0 0
387 1 5.297678737960943 14.128034343882174 8.829869582655963 0 0 0
389 1 7.063814477259838 14.12797809593129 7.063883975849332 0 0 0
392 1 7.063692456134067 15.894028637520966 8.829869582655963 0 0 0
419 1 5.297663506765898 15.894039023895386 10.59620831892262 0 0 0
420 1 7.063814477259839 14.12797809593129 10.595855189462593 0 0 0
390 1 8.829845231860753 15.894026643860641 7.063820386639048 0 0 0
391 1 8.82982511384121 14.128003018029304 8.829869582655963 0 0 0
107 1 5.297713830361009 17.65973833492876 8.829869582655963 0 -1 0
423 1 12.361936324360265 15.894028870828533 10.595962862300423 0 0 0
422 1 10.595838431631256 14.12798671681543 10.595864831402281 0 0 0
396 1 10.595906208553181 15.8940371630203 8.829869582655961 0 0 0
395 1 12.36194633325054 14.127984871726547 8.829869582655963 0 0 0
394 1 12.361936324360263 15.894028870828535 7.063776303011503 0 0 0
393 1 10.595838431631256 14.12798671681543 7.063874333909645 0 0 0
425 1 15.893921287909581 15.893921287909581 10.596203379181043 0 0 0
424 1 14.127964133935787 14.127964133935787 10.59604947965821 0 0 0
400 1 14.127981070507428 15.893889409374506 8.829869582655963 0 0 0
399 1 15.893889409374506 14.127981070507428 8.829869582655965 0 0 0
398 1 15.893921287909581 15.893921287909583 7.063535786130882 0 0 0
397 1 14.127964133935787 14.127964133935786 7.0636896856537135 0 0 0
384 1 17.659735044160055 15.89386158414073 8.829869582655963 -1 0 0
119 1 15.893861584140728 17.659735044160055 8.829869582655963 0 -1 0
431 1 1.7658373832931173 10.595966498956656 12.362038981252063 0 0 0
432 1 0.00014603271361404263 12.362785509004256 12.362766942927694 0 0 0
434 1 3.5317230306509955 12.36192920937318 12.361906661030476 0 0 0
462 1 1.7656613605863527 12.362050787342229 14.127973353465993 0 0 0
463 1 1.7659479130725104 10.595958334009586 15.893807941950156 0 0 0
464 1 2.8447566765086727e-06 12.362090287122948 15.89406026718087 0 0 0
465 1 3.5318383263850466 10.596061105444173 14.127973179314278 0 0 0
468 1 3.531886626775488 12.362173538609529 15.894111133529403 0 0 0
428 1 7.063820372757218 8.829879050214268 12.361925853770185 0 0 0
433 1 5.297747082117554 10.595859697801133 12.361968724583663 0 0 0
436 1 7.063826913075309 12.361886168767807 12.361920902775129 0 0 0
466 1 5.297825700224966 12.36201772855229 14.127994365151373 0 0 0
467 1 5.297745542361372 10.595973539786959 15.893896802726983 0 0 0
469 1 7.063779976841768 10.595861140315622 14.12801653318819 0 0 0
472 1 7.063643213337157 12.36206986850596 15.894043202766627 0 0 0
435 1 8.82983856929432 10.595874512548797 12.361950792994753 0 0 0
470 1 8.829851941527497 12.36193310500135 14.12801653318819 0 0 0
471 1 8.829794267229655 10.595918814613462 15.89402960757804 0 0 0
437 1 12.3618927090859 10.595834031628849 12.361925853770183 0 0 0
438 1 10.595834031628849 12.3618927090859 12.361925853770183 0 0 0
473 1 10.59584461962445 10.595844619624447 14.12802268802579 0 0 0
474 1 12.361770781694018 12.361770781694018 14.127963308749834 0 0 0
475 1 12.36198971464759 10.595957968252346 15.894030659038041 0 0 0
476 1 10.595957968252346 12.361989714647589 15.894030659038041 0 0 0
461 1 17.659730650375263 10.595847079752634 14.128003383097395 -1 0 0
439 1 15.894019290229004 10.595963644883316 12.362018067306055 0 0 0
440 1 14.127911813701198 12.361769522628691 12.361807760288281 0 0 0
477 1 14.128005946990006 10.596052102946867 14.128009344292302 0 0 0
478 1 15.894185432438798 12.362261176666113 14.127920586204876 0 0 0
479 1 15.893845857832543 10.595954756309123 15.893777247419266 0 0 0
480 1 14.127911829543622 12.362162711739614 15.894202830990631 0 0 0
441 1 1.7656589893482793 14.128731262349904 12.36297070132055 0 0 0
442 1 0.0003294578551005177 15.894112564848081 12.362285861587065 0 0 0
444 1 3.5315639319838352 15.894149149859283 12.362355928086444 0 0 0
481 1 0.00031609169736856996 14.130692868286125 14.13048240463146 0 0 0
482 1 1.7665234970632788 15.896027126288164 14.129926511371453 0 0 0
483 1 1.766511963212965 14.127199534991203 15.893476767417503 0 0 0
485 1 3.531968592573203 14.127712364883182 14.12750698271924 0 0 0
488 1 3.5331408434167773 15.89257223842634 15.892744495418603 0 0 0
205 1 3.529685955554954 17.65918958477984 14.129926511371451 0 -1 0
491 1 8.82973954205616 14.127967539481746 15.893896802726985 0 0 0
490 1 8.829651976398944 15.893874755458071 14.127973179314278 0 0 0
443 1 5.297858206527316 14.127854875315803 12.36176444495758 0 0 0
446 1 7.063783872469937 15.893990051192121 12.361906661030476 0 0 0
486 1 5.298000716959936 15.893744489269915 14.12750698271924 0 0 0
487 1 5.297609076349075 14.128104005494041 15.89441729540797 0 0 0
489 1 7.063695353290829 14.127887381618152 14.127994365151375 0 0 0
492 1 7.06353954323359 15.89382645506763 15.894111133529403 0 0 0
445 1 8.829853384041986 14.127965999725564 12.361968724583663 0 0 0
207 1 5.298513546851915 17.659201118630154 15.893476767417503 0 -1 0
496 1 10.595954756309123 15.893845857832545 15.893777247419266 0 0 0
495 1 12.362162711739614 14.127911829543622 15.894202830990631 0 0 0
494 1 12.362261176666113 15.894185432438798 14.127920586204876 0 0 0
493 1 10.596052102946867 14.128005946990006 14.128009344292302 0 0 0
448 1 10.595963644883316 15.894019290229002 12.362018067306057 0 0 0
447 1 12.361769522628691 14.127911813701198 12.361807760288283 0 0 0
213 1 10.595847079752632 17.659730650375263 14.128003383097395 0 -1 0
500 1 14.127276106313014 15.893192770758956 15.893487807222613 0 0 0
499 1 15.893192770758956 14.127276106313014 15.893487807222613 0 0 0
498 1 15.8928062245903 15.892806224590302 14.126667145861449 0 0 0
497 1 14.127364829217784 14.127364829217784 14.12747336485644 0 0 0
450 1 14.127775009979512 15.894152308470101 12.362004468469047 0 0 0
449 1 15.894152308470101 14.127775009979512 12.362004468469047 0 0 0
484 1 17.659082276641286 15.895723797608241 15.895908137121998 -1 0 0
201 1 17.659215280742146 17.659215280742142 14.1289154268978 -1 -1 0
219 1 15.895723797608241 17.659082276641286 15.895908137122 0 -1 0

Velocities

1 -4.21909622515374e-09 -4.219092096291258e-09 -8.137989150842566e-16
2 4.219094748162283e-09 4.219094876589807e-09 -5.21727451038733e-16
3 -7.997164994413592e-10 7.997159499965667e-10 3.4456249921363292e-09
4 7.997172121358239e-10 -7.997178017838938e-10 3.4456237592358193e-09
5 9.065360420060628e-10 5.302560613834507e-09 -7.044712326818398e-16
8 3.2151333926789934e-09 4.370167009283542e-10 1.5992798621621778e-09
21 5.3025681019995115e-09 9.065357975884099e-10 -9.60005535333276e-16
23 4.370164950388422e-10 3.2151329090213822e-09 1.5992784355549673e-09
25 4.074109414720845e-09 4.074107137144262e-09 3.7462144938449537e-16
52 -2.99122602286105e-09 -2.991224922753184e-09 -1.1017959066543934e-08
53 6.21604549006956e-10 -6.216043921532598e-10 -1.2512379288761883e-09
54 -6.216075849635475e-10 6.216022537652954e-10 -1.2512403093975284e-09
58 4.730660853960401e-09 -1.457303435311423e-09 4.8919116582404545e-12
73 -1.4573044157231672e-09 4.7306629597593444e-09 4.889140068655577e-12
75 4.480608670245849e-09 4.480606457238165e-09 1.7431096892157055e-09
6 -7.0026998679011085e-09 -1.872496969698072e-09 1.0745239621369917e-15
9 -5.672222358479516e-09 -4.284038351046594e-09 9.02746321931418e-16
12 5.375021610523437e-09 -8.188136861027943e-10 2.9385496840055946e-09
27 -3.395514747475412e-09 5.313959791473967e-09 8.333873271698247e-10
29 4.584063946965701e-09 6.480654309594958e-09 1.0873159140671939e-16
56 3.891209847725119e-11 -6.469026165085956e-10 7.652135532718429e-09
57 3.632423625612486e-10 2.9051284990414273e-10 -3.913748675116245e-09
59 6.570176620292899e-10 1.4476190660709262e-09 9.30156692851039e-09
62 2.7131150486302624e-09 -7.862471210670863e-10 1.3217667146271533e-09
77 1.6484671922337999e-09 1.0657785244899794e-09 3.759953008372295e-09
79 2.680498067770865e-10 -1.6757022559054788e-09 3.172194817585102e-09
11 -3.888837886761101e-10 -2.196097868657535e-09 -1.3093285582394526e-09
31 -4.477814388956529e-09 -5.1848514651815076e-09 1.677358204539872e-09
60 -2.272062029707933e-09 3.2406367632831697e-09 1.9399715925597325e-09
61 1.240105000521967e-09 3.5243854397667975e-09 2.8764472469419644e-09
81 -1.2788051919897802e-09 -5.242082262480434e-09 -3.114656054652597e-09
10 -9.87562268355695e-09 1.881604251042587e-09 1.703157028421218e-15
13 9.875621441200485e-09 -1.8816051671900016e-09 -9.210205389745643e-16
14 5.672224869287637e-09 4.284037042263926e-09 -1.0438785106116825e-15
15 -5.3750184210634225e-09 8.188128186866253e-10 2.9385503144660824e-09
16 3.8887946233493687e-10 2.1961060652530196e-09 -1.3093274861520526e-09
33 4.217809723092445e-10 6.270306199278673e-09 -3.776671522250197e-17
35 -4.085367344811048e-10 1.4396146605271498e-09 -6.052673776504635e-10
64 -6.570185148260852e-10 -1.4476209982648083e-09 9.301568370041544e-09
65 -2.7131130755335428e-09 7.862485550611672e-10 1.3217657174010246e-09
66 -1.240104493989462e-09 -3.524383924225064e-09 2.876447093438541e-09
83 2.092454662108454e-09 5.242045530085896e-09 6.558208463739138e-10
85 -1.1952966322104138e-09 6.422626966281876e-09 -2.550816263079186e-09
71 -1.1409854285984784e-09 2.2425336756929024e-09 -3.96628843330172e-09
17 7.0026956422929875e-09 1.872496144921743e-09 4.8731245448389644e-17
18 -9.065353590072008e-10 -5.302564184007377e-09 -1.011173343054085e-15
20 1.455605716994564e-09 -9.517120675699608e-10 2.0048998098760298e-09
37 -2.2823148108552997e-09 1.0539684631076255e-09 -5.518813547030127e-16
39 1.477678555940332e-09 -1.477684285821086e-09 -6.356451495581099e-10
67 -3.8913530768980514e-11 6.469023937560324e-10 7.652136847476822e-09
68 -2.2425346582366385e-09 1.1409902042605324e-09 -3.966289715790078e-09
69 -4.7306602058348364e-09 1.4573070325910477e-09 4.890647082421069e-12
70 -3.632411198068193e-10 -2.9051376604909635e-10 -3.913749399942512e-09
87 4.4920787533359624e-09 -3.1864154965349827e-09 -1.106317757742339e-09
89 -1.0786491765826245e-09 1.0786457136184949e-09 -4.44008064773126e-09
22 -1.8725022113526603e-09 -7.002700804759302e-09 1.0123123585841424e-15
28 5.313960982309453e-09 -3.3955133973076097e-09 8.333895969486363e-10
41 -4.284036811139238e-09 -5.672227899222124e-09 1.0848793517947744e-15
42 -8.188114006073827e-10 5.3750192153827235e-09 2.9385503458368215e-09
43 6.4806568484928456e-09 4.584069466388389e-09 3.7614430080475754e-16
72 -6.469046250379333e-10 3.8912708429213574e-11 7.652138213132074e-09
74 2.905169043413032e-10 3.632441728193467e-10 -3.913751589802854e-09
78 1.0657781441964492e-09 1.6484693311663622e-09 3.759952413056957e-09
91 1.4476190855634243e-09 6.570147722664348e-10 9.301567596128453e-09
92 -7.862487340713107e-10 2.7131118430280227e-09 1.3217666470125502e-09
93 -1.6757019581118835e-09 2.680452388319663e-10 3.172194950682316e-09
252 -2.1961070130757436e-09 -3.8887800671383764e-10 -1.3093257476648714e-09
254 -5.184849444966814e-09 -4.477813667124956e-09 1.6773555357362143e-09
301 3.24063672064333e-09 -2.2720604188357006e-09 1.9399723367010788e-09
302 3.5243840265606795e-09 1.2401036476207651e-09 2.876446966737303e-09
304 -5.242080437495292e-09 -1.278803885992402e-09 -3.11465560784799e-09
26 2.120075268113691e-09 2.12007275347673e-09 1.4239545639407457e-15
32 -2.3362244072886583e-09 -4.0775343627790865e-10 -2.8989490010168427e-09
44 -4.077537724979231e-10 -2.3362236782727657e-09 -2.898949782544137e-09
45 -9.696074567125965e-10 -9.696071305939649e-10 4.556371449424432e-16
76 -1.4484193871207282e-09 -1.4484157156065582e-09 1.4165601234524484e-09
82 -5.392912019456165e-10 3.34215769942873e-10 1.0313801229691333e-09
94 3.342151301097104e-10 -5.39291828102419e-10 1.0313796817961026e-09
95 1.136672193202046e-09 1.1366738698824587e-09 3.2292328106512963e-09
46 8.016592398522257e-10 -5.1804982887108e-10 -8.812571157924656e-11
80 -1.916836532004349e-09 -2.4907042184045525e-09 5.894230431458816e-10
256 -5.180491471693186e-10 8.016583614501996e-10 -8.812552883707614e-11
303 -2.4907021863720244e-09 -1.916837122635729e-09 5.894235545855256e-10
255 -5.956025759728239e-09 -5.956025119335905e-09 -5.275157319788179e-16
305 2.116264665166822e-09 2.116263370370572e-09 -4.341375852576134e-09
30 -5.995296936832496e-10 9.294141593956e-09 -4.284090374392243e-16
34 -2.9858944590125237e-09 2.1398317794693154e-09 -7.763948637011965e-16
36 1.5438506004445488e-09 -1.9678077910836417e-09 4.853913880675886e-09
47 -7.705321934175834e-11 -6.484452735354316e-09 -6.467930694708529e-16
48 2.1143917161329062e-10 -2.1143890807783864e-10 -3.6223224341101945e-09
84 -4.0870031494451014e-09 3.833590532857067e-09 3.851454466810817e-09
86 3.929355258113268e-09 -2.1492972384284393e-09 -6.719353204218984e-09
96 -3.5894311179634128e-09 -2.9944728054396683e-09 -4.466745387468368e-09
97 1.1216188801674653e-09 -1.7512107666045108e-09 -4.548023114647422e-09
98 9.145165598853356e-10 -9.145201192826472e-10 6.652964924769848e-10
257 6.48445139411542e-09 7.70537282937337e-11 -2.5423246009886083e-16
258 -4.6235372428385697e-10 4.62350346201113e-10 -1.123069573824673e-09
307 1.751212604143313e-09 -1.1216174545062119e-09 -4.5480236893531066e-09
308 4.448830741926259e-09 -4.4488322104765e-09 -3.0966000570402792e-09
100 -6.422631035340871e-09 1.1952926731012914e-09 -2.5508187297939162e-09
99 -3.8335887543678265e-09 4.087003431652371e-09 3.851456700366071e-09
90 -3.881116801023518e-09 3.8811199417522875e-09 5.4387863461597235e-09
88 3.186415952781268e-09 -4.492073289040496e-09 -1.1063168918490214e-09
50 -1.439610347202787e-09 4.0853515315218997e-10 -6.052664950057804e-10
24 9.517107000945952e-10 -1.4556015446862427e-09 2.004898970480327e-09
38 -1.0539711469809686e-09 2.2823171523916434e-09 -1.896254588510462e-15
40 1.8506203614649765e-09 -1.850623526521297e-09 -9.66906526321938e-09
49 -2.1398307618898092e-09 2.9858930623653328e-09 -4.225608120943487e-15
259 -6.270309632394915e-09 -4.2177737813549197e-10 -1.6861010925142817e-15
260 1.9678069740720704e-09 -1.5438493542685748e-09 4.853912723404877e-09
309 -5.242045122692208e-09 -2.0924541969827444e-09 6.558210664638666e-10
310 2.149297763925203e-09 -3.9293536780376535e-09 -6.71935239850239e-09
101 -2.220123030535405e-10 -2.2201149046002263e-10 -1.0364609865260673e-08
102 2.2201330204407218e-10 2.2201409575423242e-10 -1.0364609480283834e-08
103 2.2045313784013887e-09 -2.204531946120398e-09 2.5695292113703037e-16
104 -2.2045364293949794e-09 2.2045329304915563e-09 -1.020310451575658e-15
105 3.0860223231563108e-09 -1.475821818850953e-09 -9.170931295273309e-11
108 -6.457449119754641e-09 1.7330283060378908e-09 -8.64992991145227e-17
121 -1.4758199035990907e-09 3.086020368424228e-09 -9.170579821165511e-11
123 1.733025670895793e-09 -6.457451383625562e-09 -1.4326986161826556e-15
125 -4.797851942293817e-10 -4.797858741664795e-10 -4.800030295970823e-11
151 -2.2201110426490245e-10 -2.2201372844246987e-10 1.0364609994398474e-08
152 2.2201425230335842e-10 2.2201334102906855e-10 1.0364610423842573e-08
153 3.086020977564796e-09 -1.475821357008486e-09 9.170945488248545e-11
161 -1.4758215726442472e-09 3.0860223079277966e-09 9.170777304537692e-11
163 -4.797832437636621e-10 -4.797874204744218e-10 4.800394847609806e-11
106 3.661840309683587e-09 -2.7489827995024366e-09 1.1118978742824324e-09
109 -4.975674476643221e-09 3.4362527797210903e-10 -1.653244167225694e-09
112 -2.814519689871453e-09 -5.234487864579924e-09 -6.060948652643462e-16
127 -6.171654805527896e-09 -1.5588449077984269e-09 -1.0781920412659728e-15
129 9.5150297661021e-10 -1.6692680131255075e-09 4.4184909159061525e-09
154 3.661839078721144e-09 -2.7489814130985036e-09 -1.1118968265606552e-09
155 -4.975673505673156e-09 3.4362518050961813e-10 1.6532439016404062e-09
165 9.515034875292619e-10 -1.6692673448935454e-09 -4.418488737446822e-09
110 -2.3447216774915113e-09 -2.826254234689482e-09 -1.1504567168134087e-09
111 -4.3582695948969755e-09 -1.1087719257000281e-09 -1.4802115804948353e-16
131 3.3528366018957126e-09 2.672855487460559e-09 1.267017920150351e-16
156 -2.344722226327163e-09 -2.82625067243544e-09 1.150455060560204e-09
113 2.3447209166749417e-09 2.8262564714536482e-09 -1.1504562675722397e-09
114 4.975673114604911e-09 -3.436260869107835e-10 -1.6532437131114005e-09
115 2.8145203743426028e-09 5.234491215138273e-09 2.1358407573862251e-16
116 4.3582699299140266e-09 1.1087695914733711e-09 -9.69142643854849e-16
133 2.576601242970214e-10 1.8338359130751973e-09 -5.678000105499236e-10
135 2.8696252998074223e-09 9.05524461780782e-11 2.2357481386491285e-16
157 2.3447223610233712e-09 2.8262463353545947e-09 1.1504557741683796e-09
158 4.975676914423775e-09 -3.436241522803392e-10 1.6532433914851804e-09
167 2.576601584158625e-10 1.833833566342123e-09 5.677994646836834e-10
117 -3.661841409791453e-09 2.7489825247800404e-09 1.1118963736646428e-09
118 -3.086019125777469e-09 1.4758200024702192e-09 -9.170859020744903e-11
120 6.681011555807067e-10 3.628246521191721e-09 3.325298361284488e-15
137 -7.671674070254449e-10 3.769570822051172e-09 8.815348927847358e-11
139 -1.6078404179177587e-11 1.6080370484931427e-11 7.8457305171907325e-16
159 -3.66183969079677e-09 2.748989328880186e-09 -1.1118992972347994e-09
160 -3.0860236982911433e-09 1.4758210316512802e-09 9.170373901196464e-11
169 -7.671675574514271e-10 3.769567380898897e-09 -8.815447763343474e-11
122 -2.7489850606322253e-09 3.6618403961815477e-09 1.1118970799631314e-09
128 -1.5588430998692208e-09 -6.1716525063316175e-09 -9.625261221225362e-16
141 3.436280995112205e-10 -4.975674725781713e-09 -1.6532446252994011e-09
142 -5.234488868443581e-09 -2.8145214661253496e-09 -6.091405681048705e-19
143 -1.6692664643285062e-09 9.51502939949792e-10 4.418489663737706e-09
162 -2.748985201952837e-09 3.6618405076569487e-09 -1.1118990584516968e-09
171 3.4362650112636983e-10 -4.9756751235505046e-09 1.6532449201234362e-09
172 -1.6692656801123729e-09 9.515028095558096e-10 -4.418489577756236e-09
351 -2.8262534354970565e-09 -2.3447202581939873e-09 -1.150455114164574e-09
352 -1.1087680028347695e-09 -4.358265060454586e-09 7.723902403569758e-16
354 2.672857705950508e-09 3.352838513987956e-09 -2.144185209846275e-16
401 -2.8262555017018637e-09 -2.3447198561612123e-09 1.1504548695946359e-09
126 2.9281808390418026e-10 2.9281850177461e-10 2.3659615355937534e-09
132 -4.811772430483877e-09 -4.95999458316027e-09 8.223397669415752e-18
144 -4.959995796568281e-09 -4.811773061553505e-09 -1.4619373634516893e-16
145 2.003617708360019e-09 2.003616893443279e-09 -2.952627394009298e-09
164 2.928178812037333e-10 2.9281851804075613e-10 -2.365959558608409e-09
173 2.00361756989388e-09 2.003615351708501e-09 2.95262626542411e-09
146 -9.84111970694992e-09 3.068654021793472e-09 -4.0203277494921456e-16
356 3.068657503640959e-09 -9.841118888264996e-09 -7.754359431975002e-16
355 -5.708120921509047e-09 -5.7081193295201724e-09 2.527612259540126e-09
403 -5.7081211520687525e-09 -5.708118578830565e-09 -2.527610009298725e-09
130 8.933977807186558e-10 -6.3185384855049166e-09 -6.243924635590584e-09
134 -2.387770072625939e-09 -1.687452449992635e-09 -1.5165974780462189e-09
136 3.6889891124544236e-09 -7.68434004581095e-09 4.566146549410158e-16
147 -1.6118883572021307e-09 2.4766999698408417e-10 -4.35967075038712e-09
148 1.910601248494483e-09 -1.91060007068603e-09 2.276980084432522e-15
166 8.933948839001347e-10 -6.318538235122713e-09 6.243924088204021e-09
168 -2.3877734860248243e-09 -1.6874512896228317e-09 1.5165950918746117e-09
174 -1.6118846500216025e-09 2.4767173851696833e-10 4.359668972914942e-09
357 -2.476693199243427e-10 1.6118887834938898e-09 -4.3596703550548914e-09
358 5.952886342253137e-10 -5.952864553295016e-10 9.892442826023098e-16
404 -2.476719124068957e-10 1.6118850850969305e-09 4.3596673605198585e-09
175 1.6874514596912793e-09 2.3877719707930145e-09 1.5165927780838572e-09
170 -3.769567283927187e-09 7.671661826211648e-10 -8.81539647370764e-11
124 -3.628249622803769e-09 -6.68102682696111e-10 5.872115076530952e-16
138 -3.769571267706502e-09 7.671661874942894e-10 8.815374971045586e-11
140 3.5142245377278803e-09 -3.514225773369523e-09 -4.431497632962933e-16
149 1.6874519628413884e-09 2.3877719476456733e-09 -1.5165968477519927e-09
150 -9.055417289125082e-11 -2.869622350128097e-09 8.418322651209311e-16
359 -1.8338380252701172e-09 -2.5765921975899747e-10 -5.678005384463685e-10
360 7.68434250034287e-09 -3.6889942221904742e-09 3.825402767698587e-16
405 -1.8338371514579723e-09 -2.5765961143638273e-10 5.677958482924218e-10
176 6.216051971325205e-10 -6.216046489060092e-10 1.2512344299727652e-09
177 -6.216029603683544e-10 6.216046952006925e-10 1.251240877116538e-09
179 4.7306600854106014e-09 -1.4573038222400196e-09 -4.8949311900465126e-12
186 -1.457303840694471e-09 4.73065876217169e-09 -4.8893496130110055e-12
202 -2.9912266685500525e-09 -2.991222136544226e-09 1.1017958339230096e-08
203 -7.997169867538137e-10 7.997171146733329e-10 -3.4456223021715806e-09
204 7.997158842093854e-10 -7.99718259857601e-10 -3.4456238566983104e-09
208 3.2151314464748783e-09 4.370156209221269e-10 -1.599278135857808e-09
223 4.370159870156084e-10 3.2151318427208177e-09 -1.5992814325265624e-09
225 4.480606701503533e-09 4.480609965887838e-09 -1.7431088794584984e-09
178 3.6324250088077235e-10 2.90514594480269e-10 3.913750795483553e-09
181 2.713115675435907e-09 -7.862456298909757e-10 -1.3217637054727468e-09
188 1.648466739088428e-09 1.0657789013581754e-09 -3.759955695106338e-09
206 3.891558874087204e-11 -6.469057215369091e-10 -7.652136185715871e-09
209 6.570150841464056e-10 1.4476237442704892e-09 -9.3015681419184e-09
212 5.375020587167282e-09 -8.188109985746078e-10 -2.938553005039972e-09
227 -3.3955139997553647e-09 5.313958865580303e-09 -8.333857449271991e-10
229 2.680490925597704e-10 -1.675702402099215e-09 -3.1721975498851202e-09
180 1.2401012847645016e-09 3.5243838218894487e-09 -2.876447290800085e-09
190 -1.278810933762967e-09 -5.242081215962661e-09 3.114657625085093e-09
210 -2.2720631164147064e-09 3.2406373590226455e-09 -1.9399721843397945e-09
211 -3.888790519990525e-10 -2.1961066597742142e-09 1.3093276372189136e-09
231 -4.477814728247826e-09 -5.184850163371971e-09 -1.6773591477940415e-09
182 -2.7131196740826544e-09 7.862488768004113e-10 -1.3217643577987338e-09
183 -1.2400989509316444e-09 -3.524384655193746e-09 -2.876446223623881e-09
192 -1.1952982915951537e-09 6.4226282718509516e-09 2.5508182366445093e-09
214 -6.570178634936099e-10 -1.447620171439717e-09 -9.301568611512985e-09
215 -5.375016890902315e-09 8.18813057469728e-10 -2.9385486161821785e-09
216 3.8888066273863024e-10 2.196106074999269e-09 1.30932756899517e-09
233 2.0924549408039458e-09 5.242046416994564e-09 -6.558231266246339e-10
235 -4.0853674057251044e-10 1.439611577057594e-09 6.052701760422334e-10
221 -1.140984811539083e-09 2.242532674874949e-09 3.966289505728192e-09
184 -4.730659942686111e-09 1.4573032973410843e-09 -4.889324029107145e-12
185 -3.632421011322745e-10 -2.905145347844933e-10 3.913749152553216e-09
194 -1.0786485354015006e-09 1.0786511640732642e-09 4.4400801623217745e-09
217 -3.891250931639037e-11 6.469038453380061e-10 -7.652135601137317e-09
218 -2.242534547373055e-09 1.1409854078876992e-09 3.966293608899059e-09
220 1.455604473129524e-09 -9.517108437185198e-10 -2.0049002606400503e-09
237 4.492076832411181e-09 -3.186415390775331e-09 1.1063154137694329e-09
239 1.477683022653904e-09 -1.4776863516475595e-09 6.356487130304333e-10
187 2.9051257700670745e-10 3.632424588500732e-10 3.913750936804165e-09
189 1.0657816967042425e-09 1.6484671130221777e-09 -3.759954350733104e-09
196 -7.862487535638089e-10 2.7131160287374363e-09 -1.3217643724816688e-09
222 -6.469034085842188e-10 3.8913797572549345e-11 -7.652134782452394e-09
228 5.313959174380247e-09 -3.395514120052894e-09 -8.333913107656247e-10
241 1.4476190611978015e-09 6.570169261874837e-10 -9.3015689752227e-09
242 -8.188117124873537e-10 5.375018983909308e-09 -2.938552526255485e-09
243 -1.6757010917236393e-09 2.6804780057262544e-10 -3.1721969017595556e-09
426 3.5243862145936002e-09 1.2401016575585293e-09 -2.8764460603361374e-09
427 -5.242079758763983e-09 -1.2788087724148305e-09 3.114656467502078e-09
451 3.2406353902803295e-09 -2.272061624629455e-09 -1.939973601200756e-09
452 -2.1961068084045128e-09 -3.888773561517109e-10 1.3093259852296928e-09
454 -5.1848478173432156e-09 -4.477814275656383e-09 -1.6773545797125489e-09
191 -5.392886916376338e-10 3.342126886743134e-10 -1.0313787574252904e-09
197 3.342113899809281e-10 -5.392912623342656e-10 -1.0313785058288208e-09
226 -1.448419424833311e-09 -1.448417672031921e-09 -1.4165611651580701e-09
232 -2.3362210742383287e-09 -4.0775364417151696e-10 2.8989489285291767e-09
244 -4.0775594002231816e-10 -2.3362207047539747e-09 2.8989499468599217e-09
245 1.136674417142465e-09 1.136671662608816e-09 -3.2292316112273437e-09
230 -1.9168374754896233e-09 -2.490704274995139e-09 -5.894227544541819e-10
246 8.016595564317091e-10 -5.180498045054573e-10 8.812566044951013e-11
453 -2.4907050763802324e-09 -1.9168379149084006e-09 -5.894234968539903e-10
456 -5.180497315388643e-10 8.016589257047222e-10 8.81254721870033e-11
455 2.1162641543310626e-09 2.1162645466175887e-09 4.3413769915054085e-09
193 3.929359567094452e-09 -2.1492957680380608e-09 6.7193580351846365e-09
198 -3.5894286759188753e-09 -2.99447400788315e-09 4.466744158222701e-09
199 9.145158046158714e-10 -9.14520953071953e-10 -6.652948638668052e-10
234 -4.087005523642593e-09 3.8335901066107e-09 -3.851460252825532e-09
236 1.5438501321094627e-09 -1.9678055115035564e-09 -4.85391412981304e-09
247 1.1216195080017531e-09 -1.751211929259186e-09 4.5480236098192175e-09
248 2.1143925194843406e-10 -2.1144060148861797e-10 3.6223250643791675e-09
429 4.448830001477173e-09 -4.4488324818802995e-09 3.096599412951461e-09
457 1.7512103254200288e-09 -1.121616971214369e-09 4.548023120281377e-09
458 -4.623535696587855e-10 4.623521614019346e-10 1.12306992971505e-09
250 -1.4396157527161885e-09 4.085344483765527e-10 6.052687335973681e-10
249 -3.8335879192591535e-09 4.087002565610561e-09 -3.851458643417408e-09
240 1.8506235578920364e-09 -1.850617596842437e-09 9.669071477366886e-09
238 3.1864153801891344e-09 -4.49207192060621e-09 1.106311424203282e-09
200 -6.422627031764487e-09 1.1952916942123984e-09 2.5508206784345936e-09
224 9.51711701521689e-10 -1.4556046674453651e-09 -2.004898580630363e-09
195 -3.88111643858488e-09 3.8811184926068754e-09 -5.438781698769348e-09
430 2.14929774040444e-09 -3.9293519534741525e-09 6.719357724884624e-09
459 -5.242045447242779e-09 -2.0924530724692913e-09 -6.55820183043481e-10
460 1.9678096293158065e-09 -1.543849152794658e-09 -4.85391083872396e-09
251 1.881606789940475e-09 -9.875622408834554e-09 -1.9987424890941065e-17
261 -1.8816064536948816e-09 9.875620047196571e-09 -2.2172716679017287e-16
262 4.284037693174781e-09 5.672225388953843e-09 -6.603083758256797e-16
263 2.196106747490456e-09 3.888805255100868e-10 -1.3093266991424387e-09
264 8.188120219307622e-10 -5.375018713450895e-09 2.9385491424796292e-09
265 6.270307822029146e-09 4.217810197938924e-10 -7.577710594806262e-16
268 1.4396130335126924e-09 -4.085377295122228e-10 -6.052670484099865e-10
312 -1.4476155513298482e-09 -6.570165948150146e-10 9.301566018758951e-09
313 -3.5243848598649767e-09 -1.2401044224475678e-09 2.876447573441309e-09
314 7.862463706059064e-10 -2.7131137277089403e-09 1.3217687875325064e-09
315 5.2420458858239876e-09 2.0924549779683613e-09 6.558196405339085e-10
318 6.422628018876777e-09 -1.195291665887362e-09 -2.5508192947717932e-09
253 9.294137435926197e-09 -5.995338073321641e-10 -9.941174071471488e-16
266 2.1398290477682507e-09 -2.985894930599455e-09 -1.190869810645022e-15
267 -1.9678111548572013e-09 1.543850669276469e-09 4.853915230531385e-09
269 -6.484449590361563e-09 -7.705184488536805e-11 -3.5451981063703464e-16
272 -2.114340294710287e-10 2.1143911396735065e-10 -3.622322554720027e-09
306 -2.9944741552951673e-09 -3.5894290213015772e-09 -4.466743919439599e-09
316 3.833588137168484e-09 -4.087004118560827e-09 3.851456128489181e-09
317 -2.149298224958358e-09 3.9293530397108964e-09 -6.719352319056242e-09
319 -1.7512086797988254e-09 1.1216223015203985e-09 -4.548025434195218e-09
322 -9.145195465663813e-10 9.145212686067673e-10 6.652967771773296e-10
270 7.70492274083469e-11 6.484450533311162e-09 2.279022995561442e-16
271 4.6234982039858885e-10 -4.623523056921067e-10 -1.1230693785951209e-09
320 -1.1216229867847622e-09 1.7512075860869355e-09 -4.5480251561986915e-09
321 -4.44882885411197e-09 4.448830262444963e-09 -3.0965998194754577e-09
273 5.956024495480785e-09 5.9560246478611054e-09 -1.3413275309669249e-15
274 9.696074504599827e-10 9.696073016833174e-10 2.0552456305603576e-16
275 5.180520691842038e-10 -8.016568139676986e-10 -8.81253880700215e-11
276 -8.016560317843637e-10 5.180469878394703e-10 -8.812660214275713e-11
323 -2.1162618285371956e-09 -2.116261357157574e-09 -4.341372732394556e-09
324 -1.1366745480794311e-09 -1.136676133700586e-09 3.229233319828566e-09
325 2.994470772039222e-09 3.5894287343038683e-09 -4.4667484135114655e-09
326 3.589430092170696e-09 2.994471711423208e-09 -4.466747434789817e-09
311 -3.2406358727196595e-09 2.2720576122205333e-09 1.9399718980437274e-09
277 -9.294138892990435e-09 5.995291361377175e-10 -1.8517873270388065e-16
278 -6.480654793252568e-09 -4.584062647059729e-09 -1.22315426075458e-15
279 5.1848507418270835e-09 4.477813638495349e-09 1.6773570285940052e-09
280 4.0775224427250296e-10 2.3362223385356034e-09 -2.8989500075544517e-09
327 2.490702667305428e-09 1.916837546378357e-09 5.894227186769145e-10
328 1.6757001747767278e-09 -2.680461593956498e-10 3.172197423488452e-09
329 5.242081473034258e-09 1.2788059473240846e-09 -3.1146563674462786e-09
330 -3.3421374005093395e-10 5.392908345941525e-10 1.031377334168353e-09
281 1.872496522588895e-09 7.002695467469644e-09 -1.496049235265562e-15
282 -5.302562350189697e-09 -9.06535611191396e-10 -6.140136926497095e-16
283 -9.517112775598537e-10 1.4556033906867345e-09 2.0048993207361538e-09
285 1.0539681494002331e-09 -2.282315511366953e-09 -5.594954630883646e-16
288 -1.4776845779039882e-09 1.4776851206482344e-09 -6.356481154635359e-10
331 6.469016938535196e-10 -3.8913125081362156e-11 7.652137574752759e-09
332 1.1409903595913773e-09 -2.242533112237877e-09 -3.9662908872590006e-09
333 -2.905124308129711e-10 -3.6324103940026434e-10 -3.913749220246044e-09
334 1.4573044230328542e-09 -4.730661903205029e-09 4.89382557790544e-12
335 -3.186416422428646e-09 4.49207262812298e-09 -1.1063149541728743e-09
338 1.0786483744587103e-09 -1.0786471167737936e-09 -4.440080864889873e-09
55 2.242532756499785e-09 -1.1409940324044326e-09 -3.966291800969852e-09
341 -3.929353328023936e-09 2.149297527586991e-09 -6.719353622170018e-09
340 -2.0924547227492887e-09 -5.2420476009089286e-09 6.558249329122389e-10
286 2.2823125676071177e-09 -1.0539685592395845e-09 -2.7997364595751434e-15
287 -1.8506201566236146e-09 1.850623968147614e-09 -9.669067517478246e-09
289 2.9858956179594126e-09 -2.139831291451873e-09 4.672109644523947e-16
292 4.085361588432679e-10 -1.439618026333359e-09 -6.05268048314229e-10
336 -4.492074305540845e-09 3.186415626218422e-09 -1.1063141995540423e-09
337 3.8811189137228825e-09 -3.8811184406300536e-09 5.438786156172707e-09
339 4.087004419853598e-09 -3.833588958684959e-09 3.851453968185769e-09
342 1.1952927714774931e-09 -6.422627665575248e-09 -2.5508175797365236e-09
290 -4.217825509571963e-10 -6.27030939117525e-09 -2.0832607429186573e-15
291 -1.5438549719640972e-09 1.967808329117161e-09 4.853912585417473e-09
7 -1.4556057262066253e-09 9.517171057553897e-10 2.004899670134038e-09
346 1.2788051956446236e-09 5.24207662914846e-09 -3.1146562249073857e-09
345 5.392907094068428e-10 -3.3421176410184246e-10 1.0313806006196606e-09
344 -2.680468428646639e-10 1.6757001686427894e-09 3.1721962780394697e-09
343 1.916838766980206e-09 2.4907091967188695e-09 5.894245964282634e-10
296 4.477817878587215e-09 5.184845175157931e-09 1.6773568906236664e-09
295 2.3362223718812904e-09 4.0775380553904006e-10 -2.8989486547064325e-09
294 -4.584066285151772e-09 -6.480655110005664e-09 -1.0891433357715085e-15
293 5.995326294796518e-10 -9.294137172614478e-09 -1.237879222719994e-15
63 2.272063092991111e-09 -3.2406332690733713e-09 1.9399733145180273e-09
350 -1.6484722684802529e-09 -1.0657786464328477e-09 3.759952576611199e-09
349 -1.0657740964573742e-09 -1.6484680032399237e-09 3.759951249598472e-09
348 -4.4806113233575935e-09 -4.48061122018441e-09 1.7431062318623315e-09
347 1.4484188932207517e-09 1.4484189663176198e-09 1.416561499685251e-09
300 3.3955162666642556e-09 -5.313958562193975e-09 8.333883061888442e-10
299 -5.3139588430077775e-09 3.3955158658497618e-09 8.33388381713203e-10
298 -4.0741087617221565e-09 -4.074109266090547e-09 6.846739985498745e-16
297 -2.1200744961743574e-09 -2.1200754637560787e-09 -9.849802986255756e-16
284 -4.3701605721905883e-10 -3.2151320878998966e-09 1.5992803293729937e-09
51 2.9912284753734064e-09 2.991230404389526e-09 -1.1017959297458178e-08
19 -3.2151326693245685e-09 -4.3701484122219976e-10 1.5992790615230436e-09
361 2.826255360381252e-09 2.344722758106879e-09 -1.1504549664479863e-09
362 -3.436268373719634e-10 4.9756741994842625e-09 -1.6532450239819031e-09
363 1.1087658732793434e-09 4.358265115886378e-09 5.482265112943835e-18
364 5.234488705193909e-09 2.8145200699751672e-09 -1.5216331391259666e-15
365 1.8338368383597202e-09 2.576552843763166e-10 -5.678005033446433e-10
368 9.055469150663008e-11 2.8696274403703576e-09 8.042465372205443e-16
406 2.826256373991157e-09 2.3447211451026545e-09 1.1504536488769375e-09
407 -3.4362434720532097e-10 4.9756735507495575e-09 1.653243814533305e-09
408 1.8338381965742458e-09 2.5765665933670525e-10 5.678000751383463e-10
353 -6.318541380140896e-09 8.933979196027054e-10 -6.243925538336906e-09
366 -1.687451474310653e-09 -2.3877689555472026e-09 -1.5165970039965486e-09
367 -7.684344707868288e-09 3.6889883025624335e-09 5.904856382066588e-17
369 2.4767208389967046e-10 -1.611889350908329e-09 -4.359671607447899e-09
372 -1.910599710005282e-09 1.9106069587780425e-09 -4.525972420243202e-16
402 -6.318542181769884e-09 8.933984897582772e-10 6.243925020567424e-09
409 -1.687454428337838e-09 -2.3877676763520098e-09 1.516594773019218e-09
410 2.4767450584256927e-10 -1.611890192740594e-09 4.359673164411191e-09
370 1.6118855093633362e-09 -2.476703076457739e-10 -4.359670853636446e-09
371 -5.952874677211257e-10 5.952841405953427e-10 -4.2000242170830825e-16
411 1.611884436971366e-09 -2.4766999089267847e-10 4.359668599207204e-09
373 5.7081183293113595e-09 5.708120167088454e-09 2.5276111393306213e-09
374 -2.0036162377034575e-09 -2.0036151848039856e-09 -2.9526255651408845e-09
375 -3.0686593624560077e-09 9.841119964921545e-09 -1.8227906893510409e-16
376 9.841121717302401e-09 -3.0686554910405225e-09 -7.678786443084902e-16
412 5.708121110647194e-09 5.70811715062436e-09 -2.5276118690810218e-09
413 -2.003614861949446e-09 -2.003614205305952e-09 2.952629582651359e-09
377 6.318541434963548e-09 -8.933999136243551e-10 -6.2439250022932065e-09
378 1.6692674326097874e-09 -9.515053006361628e-10 4.418492396554215e-09
379 -2.6728558322341206e-09 -3.3528322508046348e-09 5.311705753874471e-16
380 4.959997606962008e-09 4.811773227436194e-09 4.783657023898562e-16
414 6.3185429133477066e-09 -8.933950451445071e-10 6.243925672347831e-09
415 1.6692605755905547e-09 -9.515082857295167e-10 -4.418490540502904e-09
381 2.748980557865146e-09 -3.661838759877697e-09 1.1118979595621117e-09
382 1.475820944011181e-09 -3.086023510980419e-09 -9.17078382234177e-11
383 3.628248601884177e-09 6.681017665486966e-10 -3.021337217800158e-16
385 3.769568001354389e-09 -7.671676303992453e-10 8.815374999896483e-11
388 1.608062388740776e-11 -1.607995536202905e-11 3.873036489369483e-16
416 2.7489882574019268e-09 -3.661835499300521e-09 -1.11189846149394e-09
417 1.4758202861393674e-09 -3.086020491775193e-09 9.170950422287147e-11
418 3.7695712573511126e-09 -7.671682561356586e-10 -8.815409204745514e-11
421 -2.5765687825581733e-10 -1.8338322508459592e-09 5.677961406798945e-10
386 7.67166393992942e-10 -3.7695669479861636e-09 8.815134482349299e-11
387 -3.514225304017197e-09 3.514222480256418e-09 1.3139162054022058e-15
389 2.387771019708206e-09 1.6874487616917046e-09 -1.5165964225029727e-09
392 -2.8696212567207774e-09 -9.055262080108328e-11 2.558390386040456e-16
419 7.671658488127284e-10 -3.769570579317119e-09 -8.815432679857075e-11
420 2.3877695788309557e-09 1.6874497395163862e-09 1.5165980574676845e-09
390 -2.5765963427915407e-10 -1.8338338946879248e-09 -5.677985041452987e-10
391 -3.68899320648992e-09 7.684340993612259e-09 5.3604816141105635e-17
107 -6.681030927107689e-10 -3.6282512074538086e-09 -9.892442826023098e-16
423 -9.515092172283963e-10 1.6692656360638956e-09 -4.418489714508293e-09
422 -8.933945002779552e-10 6.318541957925002e-09 6.2439249836077895e-09
396 -3.352836375295421e-09 -2.672855134387457e-09 5.516376984757707e-15
395 4.811772792649026e-09 4.959996110561357e-09 -1.803565285034067e-15
394 -9.515003132977613e-10 1.6692617508511383e-09 4.418489889940777e-09
393 -8.933949731458888e-10 6.318541107376792e-09 -6.243926518649903e-09
425 4.797867205833603e-10 4.797861103767962e-10 4.800353445042202e-11
424 -2.9282102597698167e-10 -2.9282141445637894e-10 -2.3659600060417867e-09
400 6.171652113693973e-09 1.558840786353343e-09 -2.997580735644068e-15
399 1.5588421496099345e-09 6.1716535403011834e-09 -6.098715367865964e-15
398 4.797863680432564e-10 4.797807048633948e-10 -4.800074123634698e-11
397 -2.9282144514183506e-10 -2.9281580267275274e-10 2.3659651194722857e-09
384 -1.7330254613514378e-09 6.457446844614619e-09 -1.111072396223284e-15
119 6.4574514095140365e-09 -1.73302115350934e-09 7.431514930879421e-17
431 -3.5243854884980427e-09 -1.2401037590934891e-09 -2.876447439734954e-09
432 7.862472465500434e-10 -2.713114322230135e-09 -1.3217635001923754e-09
434 6.422627204069176e-09 -1.195291843575718e-09 2.5508182618282182e-09
462 -1.4476170364145532e-09 -6.570157785666534e-10 -9.301567823337884e-09
463 2.1961067182517087e-09 3.8888015393434024e-10 1.3093270548805304e-09
464 8.188122802063631e-10 -5.375014347131303e-09 -2.9385481532353468e-09
465 5.242044974549698e-09 2.0924558160535792e-09 -6.558191071134094e-10
468 1.4396121831524593e-09 -4.0853713224989575e-10 6.052685462866435e-10
428 -2.994472919958095e-09 -3.589426657836173e-09 4.46674289060118e-09
433 -2.1492977888618953e-09 3.929353446259667e-09 6.719352678402481e-09
436 -9.145170978212974e-10 9.14522706178508e-10 -6.652950481318271e-10
466 3.833589501702843e-09 -4.08700606304534e-09 -3.851456327983425e-09
467 -1.967808561416248e-09 1.5438515001442116e-09 -4.853911553650204e-09
469 -1.751209355944856e-09 1.1216195433319062e-09 4.5480245277940535e-09
472 -2.1143737873585907e-10 2.11440073972886e-10 3.6223242109732317e-09
435 -4.448830396455888e-09 4.448829899397185e-09 3.0966000874973076e-09
470 -1.1216210232389164e-09 1.7512089749274307e-09 4.548023832764665e-09
471 4.6235436306437546e-10 -4.623531877276493e-10 1.123069317376494e-09
437 2.994474562758454e-09 3.589430079070456e-09 4.466747493100081e-09
438 3.589430522833078e-09 2.994473592449282e-09 4.466747994970712e-09
473 -2.116265297687909e-09 -2.1162624779762193e-09 4.341376011093664e-09
474 -1.1366746780485537e-09 -1.1366749430539645e-09 -3.2292320936592378e-09
475 5.180486425394856e-10 -8.016577201508464e-10 8.81258205599711e-11
476 -8.016560805487728e-10 5.180501553704245e-10 8.81252160814657e-11
461 -3.240635151497227e-09 2.2720578315111375e-09 -1.939973562215759e-09
439 5.242077224887936e-09 1.2788074287539463e-09 3.1146566610520324e-09
440 -3.3421226897646197e-10 5.39291018554604e-10 -1.0313810016304968e-09
477 2.4907034585028835e-09 1.916833364932927e-09 -5.894254762562664e-10
478 1.6757011296045684e-09 -2.6804422918147465e-10 -3.172199090706187e-09
479 5.184849701414993e-09 4.477809228317636e-09 -1.6773546928444967e-09
480 4.0775303128211694e-10 2.3362245296142267e-09 2.8989498863354786e-09
441 -2.9051278655106287e-10 -3.632417502673073e-10 3.913751143911958e-09
442 1.4573026309413026e-09 -4.730661346145979e-09 -4.891006475356251e-12
444 1.078646922153382e-09 -1.0786480079165527e-09 4.440079042645863e-09
481 6.469029072615313e-10 -3.891338823008758e-11 -7.652136195658513e-09
482 1.1409889689234604e-09 -2.24253693276752e-09 3.96628941801195e-09
483 -9.517121181738377e-10 1.455602618296494e-09 -2.0048996478446385e-09
485 -3.1864172356313047e-09 4.4920734845746185e-09 1.1063148664566325e-09
488 -1.4776798655925534e-09 1.4776852397352155e-09 6.356494647098943e-10
205 2.242536260276333e-09 -1.1409871390651938e-09 3.9662939308298486e-09
491 -1.5438515825586709e-09 1.967808926625762e-09 -4.853914784374436e-09
490 -2.092452759794582e-09 -5.242047588981016e-09 -6.558184250638014e-10
443 3.881119526265179e-09 -3.881120821125815e-09 -5.4387854901249195e-09
446 1.1952932132813508e-09 -6.4226283397766685e-09 2.550818046455387e-09
486 -4.492074630887939e-09 3.1864160708043354e-09 1.1063173816068125e-09
487 -1.8506208158195951e-09 1.8506243762717949e-09 9.669069848658457e-09
489 4.087004915842624e-09 -3.833589282814366e-09 -3.851458775444463e-09
492 4.0853434226950053e-10 -1.4396130673580651e-09 6.052701894433259e-10
445 -3.92935690783241e-09 2.1492954349833166e-09 6.719354143405921e-09
207 -1.4556059224188925e-09 9.51707492234996e-10 -2.004901260284932e-09
496 4.47781114208799e-09 5.1848472723527634e-09 -1.6773549462469731e-09
495 2.3362233217539152e-09 4.077528479544518e-10 2.8989498822355794e-09
494 -2.680443300804939e-10 1.675701980420454e-09 -3.1721977644498287e-09
493 1.9168343482203156e-09 2.4907030050001097e-09 -5.894215298517996e-10
448 1.2788085373072826e-09 5.242083015303223e-09 3.1146517138392787e-09
447 5.392920026771091e-10 -3.3421398084616355e-10 -1.0313842037813523e-09
213 2.272062418986827e-09 -3.240634383980111e-09 -1.9399744247588037e-09
500 3.3955109488670962e-09 -5.313957979855592e-09 -8.333860292123289e-10
499 -5.313957532137275e-09 3.3955106126215025e-09 -8.333859926638948e-10
498 -4.480605987590788e-09 -4.4806089163386385e-09 -1.74311143057251e-09
497 1.448418905403563e-09 1.4484183121006497e-09 -1.4165618347125633e-09
450 -1.6484673873988093e-09 -1.0657815042158229e-09 -3.759949781481365e-09
449 -1.0657806410636378e-09 -1.6484678034418174e-09 -3.759949386846615e-09
484 -4.3701593980721435e-10 -3.215131225356852e-09 -1.5992787328155646e-09
201 2.991219591554932e-09 2.991228989375617e-09 1.1017962550218842e-08
219 -3.2151290227045576e-09 -4.3701468893705774e-10 -1.5992830303022726e-09
