LAMMPS data file via write_data, version 29 Aug 2024, timestep = 31, units = metal

500 atoms
3 atom types

0 17.69158481447471 xlo xhi
0 17.69158481447471 ylo yhi
0 17.69158481447471 zlo zhi

Masses

1 54.695
2 55.845
3 55.845

Atoms # atomic

1 2 0.0021788981223260758 0.0021788981223254283 1.0642776578567955e-15 0 0 0
2 3 1.7669795833251465 1.766979583325146 3.6811788631333605e-16 0 0 0
3 1 1.7654596846200348 0.003698796827436979 1.7614251386054203 0 0 0
4 1 0.003698796827435508 1.7654596846200348 1.7614251386054203 0 0 0
5 1 3.5327723645019526 0.003654907796771203 1.9377762296520984e-16 0 0 0
8 1 3.5360592397765007 1.7699948394063463 1.766687847688807 0 0 0
21 1 0.003654907796770952 3.532772364501953 8.588324238374014e-17 0 0 0
23 1 1.7699948394063465 3.5360592397765007 1.7666878476888077 0 0 0
25 1 3.53189367502896 3.5318936750289605 2.893642029985401e-16 0 0 0
52 1 1.7698083380562646 1.7698083380562644 3.53669793967965 0 0 0
53 1 1.7687660502485436 0.00039243119892824264 5.306946206221096 0 0 0
54 1 0.00039243119892826806 1.768766050248544 5.306946206221097 0 0 0
58 1 3.537864399830744 1.7687569487258903 5.306858378734656 0 0 0
73 1 1.7687569487258903 3.537864399830744 5.306858378734655 0 0 0
75 1 3.5395415163329536 3.5395415163329536 3.539717102212362 0 0 0
6 1 5.304986594694844 1.768880770045687 1.3015072994927254e-16 0 0 0
9 1 7.076520461776137 0.00039632886945600675 2.8824595622250986e-16 0 0 0
12 1 7.076253188769533 1.7691521718076169 1.76876614816865 0 0 0
27 1 5.308113210118697 3.5390466168821875 1.7695226473651728 0 0 0
29 1 7.076393824368369 3.537793104073238 0 0 0 0
56 1 5.304011035084857 1.7687775536134522 3.535105534638273 0 0 0
57 1 5.306321682114008 0.000381215420179993 5.306061337103592 0 0 0
59 1 7.076349793232748 0.0003781402499049656 3.53808788158165 0 0 0
62 1 7.07545864535822 1.7689770569548744 5.306319078282974 0 0 0
77 1 5.307515531673941 3.5378517589272285 5.307269737413903 0 0 0
79 1 7.076095675568355 3.5378058102904215 3.538164786018738 0 0 0
11 1 8.845643061380374 3.8840770522876746e-05 1.7690991103787386 0 0 0
31 1 8.845647035199928 3.5382066179591565 1.7691378152512518 0 0 0
60 1 8.845779036784466 1.7691690096206185 3.5380395440879413 0 0 0
61 1 8.845648509453797 0.00016802782413754088 5.3071976367341 0 0 0
81 1 8.845651687712689 3.538001378309147 5.307231549720008 0 0 0
10 1 8.845914116373022 1.7691462300161351 6.303926968076643e-19 0 0 0
13 1 10.614829179549156 1.2251431337219552e-05 4.30319983474137e-16 0 0 0
14 1 12.384222834146046 1.7687621525780186 3.417159837835437e-16 0 0 0
15 1 12.384490107152647 6.3096398547065784e-06 1.7687661481686507 0 0 0
16 1 10.615100234541808 1.769119640676948 1.7690991103787383 0 0 0
33 1 10.614967424672228 3.538096192757557 4.369906655540507e-19 0 0 0
35 1 12.384544902125953 3.5382398368610395 1.7687318237974 0 0 0
64 1 12.384393502689433 1.7687803411975682 3.538087881581649 0 0 0
65 1 12.38528465056396 0.00018142449259613754 5.306319078282974 0 0 0
66 1 10.615094786468383 1.7689904536233358 5.3071976367341 0 0 0
83 1 10.615222231616364 3.5381797900435488 3.538084634297533 0 0 0
85 1 12.384231601401602 3.538042509753835 5.307377689581691 0 0 0
71 1 17.690900028425983 3.5356174775326683 3.535739801533418 -1 0 0
17 1 14.155756701227336 0.0002777114017834983 7.824825853093191e-19 0 0 0
18 1 15.927970931420226 1.7655035736507 9.331814629626912e-16 0 0 0
20 1 14.15258567595188 1.769826045350676 1.7695021526442745 0 0 0
37 1 14.156777419789266 3.5346405600891586 9.208898649044454e-17 0 0 0
39 1 15.920976376708602 3.5397669192135783 1.7704124745269565 0 0 0
67 1 14.156732260837323 0.0003809278340195869 3.535105534638273 0 0 0
68 1 15.925125818389512 1.7698432674961966 3.535739801533417 0 0 0
69 1 15.922878896091436 0.0004015327215808492 5.306858378734655 0 0 0
70 1 14.154421613808175 1.7687772660272925 5.306061337103591 0 0 0
87 1 14.153139902516129 3.5383738474693684 3.5386908698208 0 0 0
89 1 15.922892633246608 3.537850662675573 5.306822489670011 0 0 0
22 1 1.7688807700456872 5.304986594694845 7.342912594487423e-16 0 0 0
28 1 3.539046616882187 5.308113210118697 1.7695226473651724 0 0 0
41 1 0.0003963288694536077 7.076520461776135 0 0 0 0
42 1 1.7691521718076164 7.076253188769532 1.76876614816865 0 0 0
43 1 3.537793104073237 7.076393824368368 1.2020454530421531e-16 0 0 0
72 1 1.7687775536134522 5.304011035084857 3.535105534638274 0 0 0
74 1 0.0003812154201790582 5.306321682114008 5.306061337103591 0 0 0
78 1 3.5378517589272285 5.307515531673941 5.307269737413903 0 0 0
91 1 0.00037814024990465 7.076349793232748 3.53808788158165 0 0 0
92 1 1.7689770569548744 7.075458645358219 5.306319078282974 0 0 0
93 1 3.537805810290421 7.076095675568355 3.5381647860187395 0 0 0
252 1 3.884077052365287e-05 8.845643061380374 1.7690991103787386 0 0 0
254 1 3.538206617959157 8.84564703519993 1.7691378152512514 0 0 0
301 1 1.7691690096206187 8.845779036784466 3.538039544087941 0 0 0
302 1 0.0001680278241371523 8.845648509453797 5.3071976367341005 0 0 0
304 1 3.5380013783091466 8.845651687712689 5.307231549720008 0 0 0
26 1 5.303273227814987 5.303273227814987 3.077966169146878e-16 0 0 0
32 1 7.076230119900587 5.307340355033994 1.7686304109484312 0 0 0
44 1 5.307340355033994 7.076230119900587 1.768630410948432 0 0 0
45 1 7.075271422884942 7.07527142288494 7.050605696334265e-19 0 0 0
76 1 5.308047325088832 5.3080473250888325 3.538747528626466 0 0 0
82 1 7.076712657364021 5.307334346185528 5.307508333231088 0 0 0
94 1 5.307334346185528 7.076712657364021 5.3075083332310875 0 0 0
95 1 7.076714587813328 7.076714587813329 3.5381146591978827 0 0 0
30 1 8.845785089604316 5.3071421524965015 2.470384797680713e-16 0 0 0
46 1 8.845660364414593 7.076427667637423 1.7688292211744137 0 0 0
80 1 8.845532572460725 5.307207370283508 3.538048214643248 0 0 0
253 1 5.3071421524965 8.845785089604318 2.304314301810321e-16 0 0 0
256 1 7.076427667637423 8.845660364414593 1.7688292211744143 0 0 0
303 1 5.307207370283508 8.845532572460723 3.5380482146432484 0 0 0
255 1 8.845448183510365 8.845448183510365 5.532766970040082e-19 0 0 0
34 1 12.385189127505413 5.306216636366016 0 0 0 0
36 1 10.615103849039063 5.307255262376301 1.7689966495372251 0 0 0
47 1 10.615318410123468 7.076122914134596 2.7113006280174296e-19 0 0 0
48 1 12.384413368744992 7.076329927177188 1.7688162044997662 0 0 0
84 1 12.38434995552738 5.307365838472629 3.538067284030565 0 0 0
86 1 10.61496913036866 5.307258379203245 5.307289946264812 0 0 0
96 1 8.845810604345548 7.076544813655472 5.307349205426964 0 0 0
97 1 10.614967826672956 7.076494552333043 3.538039468044459 0 0 0
98 1 12.384190416429746 7.076552879492436 5.3073528748761785 0 0 0
257 1 12.384620381787585 8.845424885798712 1.0355788143114717e-15 0 0 0
258 1 10.615043392750694 8.845699903171486 1.7688250886070427 0 0 0
307 1 12.384248743589138 8.845775469249224 3.5380394680444587 0 0 0
308 1 10.614988560794641 8.845754735127539 5.3073165044494415 0 0 0
100 1 15.922700786168345 7.076511694520579 5.307377689581692 0 0 0
99 1 14.153377457449551 7.076393340394802 3.538067284030565 0 0 0
90 1 14.153332186143981 5.307411109778199 5.307563597050673 0 0 0
88 1 15.922369448452812 5.307603393406052 3.538690869820801 0 0 0
50 1 15.922503459061142 7.076198393796229 1.7687318237973997 0 0 0
24 1 17.690917250571506 5.308157619970301 1.769502152644275 -1 0 0
38 1 15.926102735833023 5.303965876132914 1.9724131477377494e-16 0 0 0
40 1 14.153644255364059 5.307099040558123 1.7683639767308748 0 0 0
49 1 14.154526659556165 7.075554168416768 0 0 0 0
259 1 15.922647103164623 8.845775871249954 0 0 0 0
260 1 14.15348803354588 8.84563944688312 1.7689966495372245 0 0 0
309 1 15.922563505878632 8.845521064305817 3.5380846342975327 0 0 0
310 1 14.153484916718936 8.84577416555352 5.307289946264812 0 0 0
101 1 3.795722763810172e-05 3.795722763883184e-05 7.076586972134404 0 0 0
102 1 1.7691205242198338 1.7691205242198333 7.076586972134405 0 0 0
103 1 1.7691265927493403 3.188869813141152e-05 8.845792407237354 0 0 0
104 1 3.188869813021767e-05 1.7691265927493411 8.845792407237354 0 0 0
105 1 3.5380591775287185 4.667983038052935e-05 7.076439536106744 0 0 0
108 1 3.538189695993473 1.7691628362480223 8.845792407237354 0 0 0
121 1 4.667983038065766e-05 3.5380591775287185 7.076439536106744 0 0 0
123 1 1.769162836248022 3.538189695993473 8.845792407237354 0 0 0
125 1 3.538112374019139 3.5381123740191396 7.076171747882299 0 0 0
151 1 3.7957227638214894e-05 3.795722763885062e-05 10.614997842340305 0 0 0
152 1 1.7691205242198333 1.7691205242198333 10.614997842340305 0 0 0
153 1 3.538059177528718 4.66798303803428e-05 10.615145278367965 0 0 0
161 1 4.667983038125903e-05 3.5380591775287185 10.615145278367965 0 0 0
163 1 3.5381123740191387 3.5381123740191396 10.615413066592408 0 0 0
106 1 5.30710870756405 1.7689735226970515 7.0764317230580875 0 0 0
107 1 5.307199129971891 5.11823943076993e-07 8.845792407237354 0 0 0
109 1 7.076101252092054 0.00017108917650206974 7.076106472094682 0 0 0
112 1 7.076358508888988 1.768973506328806 8.845792407237354 0 0 0
127 1 5.307227261196172 3.5381577673534967 8.845792407237354 0 0 0
129 1 7.0764952874109674 3.537988881231087 7.076502862912012 0 0 0
154 1 5.30710870756405 1.768973522697051 10.615153091416621 0 0 0
155 1 7.076101252092054 0.00017108917650231995 10.615478342380028 0 0 0
165 1 7.0764952874109674 3.537988881231087 10.615081951562697 0 0 0
110 1 8.845436360075652 1.7689788616786588 7.076211269422308 0 0 0
111 1 8.845675918164106 0.00017604655951100783 8.845792407237356 0 0 0
131 1 8.845717587148252 3.537971434396494 8.845792407237354 0 0 0
156 1 8.845436360075652 1.7689788616786575 10.615373545052401 0 0 0
113 1 10.61530693584653 0.00017961976881358834 7.076211269422308 0 0 0
114 1 12.384642043830127 1.7689873922709705 7.076106472094682 0 0 0
115 1 12.384384787033193 0.00018497511866600447 8.845792407237354 0 0 0
116 1 10.615067377758075 1.76898243488796 8.845792407237354 0 0 0
133 1 10.614978197192194 3.5379864852609386 7.076549071148945 0 0 0
135 1 12.384367541367475 3.5379823275603313 8.845792407237354 0 0 0
157 1 10.61530693584653 0.00017961976881307627 10.6153735450524 0 0 0
158 1 12.384642043830127 1.7689873922709711 10.615478342380028 0 0 0
167 1 10.614978197192194 3.537986485260938 10.615035743325762 0 0 0
117 1 14.15363458835813 0.00018495875042016385 7.0764317230580875 0 0 0
118 1 15.92268411839346 1.7691118016170913 7.076439536106743 0 0 0
120 1 14.153544165950292 1.7691579696235302 8.845792407237354 0 0 0
137 1 14.153591450300114 3.537973769168347 7.076182841252994 0 0 0
139 1 15.922531770247204 3.538211525674976 8.845792407237354 0 0 0
159 1 14.15363458835813 0.00018495875042133218 10.615153091416621 0 0 0
160 1 15.922684118393462 1.7691118016170917 10.615145278367965 0 0 0
169 1 14.153591450300114 3.537973769168347 10.615401973221717 0 0 0
122 1 1.768973522697051 5.30710870756405 7.076431723058088 0 0 0
124 1 5.118239417416031e-07 5.307199129971891 8.845792407237354 0 0 0
128 1 3.5381577673534967 5.307227261196173 8.845792407237354 0 0 0
141 1 0.00017108917650095434 7.076101252092055 7.076106472094682 0 0 0
142 1 1.7689735063288061 7.076358508888988 8.845792407237354 0 0 0
143 1 3.537988881231087 7.0764952874109674 7.076502862912013 0 0 0
162 1 1.7689735226970507 5.307108707564051 10.615153091416623 0 0 0
171 1 0.00017108917650173096 7.076101252092054 10.615478342380028 0 0 0
172 1 3.537988881231087 7.0764952874109674 10.615081951562697 0 0 0
351 1 1.768978861678657 8.845436360075652 7.076211269422308 0 0 0
352 1 0.0001760465595117735 8.845675918164105 8.845792407237354 0 0 0
354 1 3.537971434396494 8.845717587148252 8.845792407237354 0 0 0
401 1 1.7689788616786586 8.845436360075652 10.615373545052401 0 0 0
126 1 5.307260451855268 5.307260451855268 7.076383073154415 0 0 0
132 1 7.076473398793555 5.3072335637890795 8.845792407237354 0 0 0
144 1 5.307233563789079 7.076473398793554 8.845792407237354 0 0 0
145 1 7.07654557492551 7.076545574925509 7.076626057196551 0 0 0
164 1 5.307260451855268 5.307260451855268 10.615201741320293 0 0 0
173 1 7.07654557492551 7.07654557492551 10.614958757278158 0 0 0
146 1 8.845774496079 7.076499667735555 8.845792407237354 0 0 0
356 1 7.076499667735554 8.845774496079 8.845792407237354 0 0 0
355 1 8.845764573581787 8.845764573581787 7.0765763955793926 0 0 0
403 1 8.845764573581787 8.845764573581786 10.615008418895314 0 0 0
130 1 8.845807330080932 5.307232523848002 7.076618563169245 0 0 0
134 1 12.384205409625956 5.307242569381944 7.07663026975084 0 0 0
136 1 10.61500795819102 5.307209499125201 8.845792407237354 0 0 0
147 1 10.615001828957505 7.076500276084437 7.07658183686569 0 0 0
148 1 12.384253475659401 7.076489820262778 8.845792407237354 0 0 0
166 1 8.845807330080932 5.307232523848004 10.614966251305464 0 0 0
168 1 12.384205409625956 5.307242569381943 10.614954544723869 0 0 0
174 1 10.615001828957505 7.076500276084437 10.615002977609018 0 0 0
357 1 12.384243019837742 8.845741466964677 7.07658183686569 0 0 0
358 1 10.615000978142751 8.845742317779429 8.845792407237354 0 0 0
404 1 12.384243019837744 8.845741466964677 10.615002977609018 0 0 0
175 1 14.153500726540237 7.076537886296224 10.614954544723869 0 0 0
138 1 15.922769526753834 5.307151845622067 7.076182841252994 0 0 0
140 1 14.153576873811637 5.3071664221105435 8.845792407237356 0 0 0
149 1 14.153500726540237 7.076537886296225 7.07663026975084 0 0 0
150 1 15.922760968361851 7.076375754554706 8.845792407237354 0 0 0
170 1 15.922769526753834 5.307151845622067 10.615401973221717 0 0 0
359 1 15.922756810661241 8.845765098729988 7.076549071148946 0 0 0
360 1 14.153533796796976 8.845735337731162 8.845792407237354 0 0 0
405 1 15.922756810661241 8.845765098729988 10.615035743325762 0 0 0
176 1 1.7687660502485443 0.000392431198928031 12.384638608253614 0 0 0
177 1 0.00039243119892742667 1.7687660502485436 12.384638608253612 0 0 0
179 1 3.537864399830744 1.7687569487258894 12.384726435740054 0 0 0
186 1 1.7687569487258903 3.5378643998307444 12.384726435740054 0 0 0
202 1 1.7698083380562644 1.769808338056264 14.154886874795059 0 0 0
203 1 1.7654596846200348 0.0036987968274372774 15.93015967586929 0 0 0
204 1 0.003698796827437573 1.7654596846200352 15.93015967586929 0 0 0
208 1 3.5360592397765007 1.7699948394063465 15.924896966785901 0 0 0
223 1 1.769994839406346 3.5360592397765007 15.924896966785901 0 0 0
225 1 3.5395415163329544 3.5395415163329544 14.151867712262348 0 0 0
178 1 5.306321682114006 0.0003812154201802291 12.38552347737112 0 0 0
181 1 7.07545864535822 1.768977056954875 12.385265736191736 0 0 0
188 1 5.307515531673941 3.537851758927228 12.384315077060807 0 0 0
206 1 5.304011035084857 1.768777553613453 14.156479279836434 0 0 0
209 1 7.076349793232748 0.0003781402499031222 14.15349693289306 0 0 0
212 1 7.076253188769534 1.7691521718076166 15.922818666306059 0 0 0
227 1 5.308113210118697 3.5390466168821875 15.922062167109535 0 0 0
229 1 7.076095675568355 3.537805810290421 14.15342002845597 0 0 0
180 1 8.845648509453797 0.00016802782413755874 12.38438717774061 0 0 0
190 1 8.845651687712689 3.5380013783091475 12.384353264754703 0 0 0
210 1 8.845779036784466 1.7691690096206187 14.153545270386768 0 0 0
211 1 8.845643061380372 3.8840770523140376e-05 15.92248570409597 0 0 0
231 1 8.84564703519993 3.538206617959157 15.922446999223457 0 0 0
182 1 12.38528465056396 0.00018142449259778338 12.385265736191736 0 0 0
183 1 10.615094786468385 1.7689904536233352 12.38438717774061 0 0 0
192 1 12.384231601401602 3.538042509753835 12.384207124893019 0 0 0
214 1 12.38439350268943 1.7687803411975664 14.153496932893061 0 0 0
215 1 12.384490107152647 6.30963985592144e-06 15.922818666306059 0 0 0
216 1 10.615100234541808 1.7691196406769485 15.922485704095969 0 0 0
233 1 10.615222231616364 3.538179790043549 14.153500180177176 0 0 0
235 1 12.384544902125953 3.53823983686104 15.922852990677308 0 0 0
221 1 17.690900028425983 3.535617477532668 14.155845012941292 -1 0 0
184 1 15.922878896091438 0.0004015327215836217 12.384726435740054 0 0 0
185 1 14.154421613808173 1.7687772660272936 12.385523477371118 0 0 0
194 1 15.922892633246606 3.537850662675573 12.384762324804699 0 0 0
217 1 14.156732260837323 0.0003809278340192175 14.156479279836436 0 0 0
218 1 15.925125818389512 1.769843267496196 14.155845012941292 0 0 0
220 1 14.15258567595188 1.7698260453506753 15.922082661830435 0 0 0
237 1 14.153139902516129 3.538373847469369 14.15289394465391 0 0 0
239 1 15.9209763767086 3.539766919213579 15.921172339947752 0 0 0
187 1 0.00038121542018047555 5.306321682114007 12.385523477371118 0 0 0
189 1 3.5378517589272285 5.307515531673942 12.384315077060807 0 0 0
196 1 1.7689770569548744 7.07545864535822 12.385265736191736 0 0 0
222 1 1.7687775536134527 5.304011035084857 14.156479279836434 0 0 0
228 1 3.5390466168821875 5.308113210118697 15.922062167109535 0 0 0
241 1 0.0003781402499044278 7.076349793232748 14.153496932893061 0 0 0
242 1 1.7691521718076164 7.076253188769533 15.922818666306059 0 0 0
243 1 3.5378058102904215 7.076095675568354 14.15342002845597 0 0 0
426 1 0.00016802782413691752 8.845648509453799 12.38438717774061 0 0 0
427 1 3.5380013783091466 8.845651687712689 12.384353264754703 0 0 0
451 1 1.769169009620619 8.845779036784466 14.153545270386768 0 0 0
452 1 3.884077052350758e-05 8.845643061380374 15.922485704095969 0 0 0
454 1 3.538206617959156 8.84564703519993 15.922446999223457 0 0 0
191 1 7.076712657364021 5.307334346185528 12.384076481243621 0 0 0
197 1 5.307334346185528 7.076712657364021 12.384076481243621 0 0 0
226 1 5.308047325088831 5.308047325088832 14.152837285848243 0 0 0
232 1 7.076230119900587 5.307340355033994 15.922954403526278 0 0 0
244 1 5.307340355033993 7.076230119900587 15.922954403526276 0 0 0
245 1 7.076714587813329 7.0767145878133295 14.153470155276825 0 0 0
230 1 8.845532572460725 5.307207370283507 14.15353659983146 0 0 0
246 1 8.845660364414593 7.076427667637424 15.922755593300296 0 0 0
453 1 5.307207370283508 8.845532572460725 14.15353659983146 0 0 0
456 1 7.076427667637423 8.845660364414593 15.922755593300295 0 0 0
193 1 10.61496913036866 5.307258379203245 12.384294868209897 0 0 0
198 1 8.845810604345546 7.076544813655473 12.384235609047744 0 0 0
199 1 12.384190416429746 7.076552879492436 12.38423193959853 0 0 0
234 1 12.384349955527378 5.307365838472628 14.153517530444145 0 0 0
236 1 10.615103849039063 5.3072552623763 15.922588164937483 0 0 0
247 1 10.614967826672956 7.076494552333043 14.153545346430251 0 0 0
248 1 12.384413368744992 7.076329927177188 15.922768609974943 0 0 0
429 1 10.614988560794641 8.845754735127539 12.384268310025266 0 0 0
457 1 12.384248743589136 8.845775469249224 14.153545346430251 0 0 0
458 1 10.615043392750694 8.845699903171486 15.922759725867667 0 0 0
250 1 15.922503459061142 7.076198393796229 15.922852990677308 0 0 0
249 1 14.153377457449551 7.0763933403948025 14.153517530444145 0 0 0
240 1 14.153644255364059 5.307099040558122 15.923220837743834 0 0 0
238 1 15.922369448452812 5.307603393406052 14.15289394465391 0 0 0
200 1 15.922700786168344 7.076511694520579 12.384207124893017 0 0 0
224 1 17.690917250571506 5.308157619970301 15.922082661830434 -1 0 0
195 1 14.153332186143981 5.307411109778198 12.384021217424035 0 0 0
430 1 14.153484916718936 8.84577416555352 12.384294868209897 0 0 0
459 1 15.922563505878632 8.845521064305817 14.153500180177176 0 0 0
460 1 14.15348803354588 8.84563944688312 15.922588164937483 0 0 0
251 1 1.7691462300161365 8.845914116373024 1.9760974949686856e-19 0 0 0
261 1 1.2251431337109808e-05 10.614829179549156 6.11512197414843e-17 0 0 0
262 1 1.7687621525780175 12.384222834146046 2.41703892684969e-16 0 0 0
263 1 1.7691196406769485 10.615100234541808 1.7690991103787381 0 0 0
264 1 6.309639854829164e-06 12.384490107152647 1.76876614816865 0 0 0
265 1 3.538096192757557 10.614967424672226 1.1509983804088336e-16 0 0 0
268 1 3.5382398368610395 12.384544902125953 1.7687318237974008 0 0 0
312 1 1.7687803411975673 12.384393502689433 3.53808788158165 0 0 0
313 1 1.7689904536233354 10.615094786468385 5.3071976367341005 0 0 0
314 1 0.00018142449259817472 12.385284650563962 5.306319078282974 0 0 0
315 1 3.5381797900435488 10.615222231616364 3.5380846342975336 0 0 0
318 1 3.538042509753834 12.3842316014016 5.307377689581692 0 0 0
266 1 5.306216636366016 12.385189127505413 3.903237201393975e-16 0 0 0
267 1 5.3072552623763 10.615103849039063 1.7689966495372247 0 0 0
269 1 7.076122914134597 10.615318410123468 1.2951559397436398e-16 0 0 0
272 1 7.076329927177186 12.384413368744992 1.7688162044997668 0 0 0
306 1 7.076544813655472 8.845810604345546 5.307349205426965 0 0 0
316 1 5.307365838472628 12.384349955527378 3.538067284030565 0 0 0
317 1 5.307258379203244 10.61496913036866 5.307289946264812 0 0 0
319 1 7.076494552333043 10.614967826672958 3.5380394680444582 0 0 0
322 1 7.076552879492436 12.384190416429746 5.307352874876178 0 0 0
270 1 8.845424885798712 12.384620381787583 1.0552003775714627e-15 0 0 0
271 1 8.845699903171486 10.615043392750694 1.7688250886070418 0 0 0
320 1 8.845775469249224 12.384248743589136 3.5380394680444582 0 0 0
321 1 8.845754735127539 10.614988560794643 5.3073165044494415 0 0 0
273 1 10.615295112411813 10.615295112411815 3.3029392818638247e-16 0 0 0
274 1 12.38547187303724 12.385471873037242 7.357615064403243e-16 0 0 0
275 1 12.384315628284757 10.615082931507587 1.7688292211744137 0 0 0
276 1 10.615082931507587 12.384315628284757 1.7688292211744134 0 0 0
305 1 8.845798728395389 8.845798728395389 3.5380328561569585 0 0 0
323 1 10.614944567526791 10.614944567526791 3.5380328561569585 0 0 0
324 1 12.384028708108852 12.384028708108852 3.5381146591978827 0 0 0
325 1 12.384198482266708 10.614932691576634 5.307349205426965 0 0 0
326 1 10.614932691576634 12.384198482266708 5.307349205426964 0 0 0
311 1 17.69157428630156 10.614964259137714 3.5380395440879404 -1 0 0
277 1 14.15360114342568 10.614958206317862 2.7190403624943577e-16 0 0 0
278 1 15.922950191848942 12.384349471553813 6.6099428403133735e-19 0 0 0
279 1 15.922536677963024 10.61509626072225 1.769137815251252 0 0 0
280 1 14.153402940888187 12.384513176021596 1.7686304109484312 0 0 0
327 1 14.153535925638673 10.615210723461457 3.538048214643248 0 0 0
328 1 15.92293748563176 12.384647620353826 3.5381647860187386 0 0 0
329 1 15.922741917613033 10.615091608209491 5.307231549720007 0 0 0
330 1 14.153408949736653 12.38403063855816 5.3075083332310875 0 0 0
281 1 0.0002777114017841128 14.155756701227334 2.502151165837715e-16 0 0 0
282 1 1.7655035736507003 15.927970931420226 3.7652555894871006e-16 0 0 0
283 1 1.769826045350676 14.15258567595188 1.769502152644274 0 0 0
285 1 3.5346405600891586 14.156777419789266 1.167194060279346e-16 0 0 0
288 1 3.5397669192135797 15.9209763767086 1.7704124745269567 0 0 0
331 1 0.00038092783401958027 14.156732260837323 3.535105534638274 0 0 0
332 1 1.7698432674961957 15.925125818389512 3.535739801533418 0 0 0
333 1 1.768777266027292 14.154421613808173 5.306061337103591 0 0 0
334 1 0.00040153272158231117 15.922878896091436 5.306858378734655 0 0 0
335 1 3.5383738474693684 14.153139902516129 3.5386908698207997 0 0 0
338 1 3.5378506626755724 15.922892633246608 5.306822489670011 0 0 0
55 1 3.5356174775326674 17.690900028425986 3.5357398015334174 0 -1 0
341 1 8.84577416555352 14.153484916718938 5.307289946264812 0 0 0
340 1 8.845521064305816 15.922563505878632 3.5380846342975323 0 0 0
286 1 5.303965876132913 15.926102735833021 3.6659124097550557e-16 0 0 0
287 1 5.307099040558122 14.153644255364059 1.7683639767308754 0 0 0
289 1 7.075554168416767 14.154526659556167 4.1339972261347347e-16 0 0 0
292 1 7.076198393796228 15.922503459061142 1.7687318237974006 0 0 0
336 1 5.307603393406052 15.922369448452812 3.5386908698208 0 0 0
337 1 5.307411109778199 14.153332186143981 5.307563597050674 0 0 0
339 1 7.076393340394801 14.153377457449553 3.5380672840305647 0 0 0
342 1 7.07651169452058 15.922700786168345 5.307377689581691 0 0 0
290 1 8.845775871249952 15.922647103164623 5.997911095839913e-19 0 0 0
291 1 8.84563944688312 14.15348803354588 1.7689966495372242 0 0 0
7 1 5.308157619970301 17.690917250571506 1.7695021526442742 0 -1 0
346 1 10.615091608209491 15.922741917613035 5.307231549720007 0 0 0
345 1 12.38403063855816 14.153408949736653 5.307508333231088 0 0 0
344 1 12.384647620353824 15.92293748563176 3.538164786018739 0 0 0
343 1 10.615210723461455 14.153535925638673 3.5380482146432475 0 0 0
296 1 10.615096260722252 15.922536677963024 1.7691378152512518 0 0 0
295 1 12.384513176021594 14.153402940888185 1.7686304109484308 0 0 0
294 1 12.384349471553813 15.922950191848944 0 0 0 0
293 1 10.614958206317862 14.15360114342568 4.5208425916170334e-17 0 0 0
63 1 10.614964259137714 17.69157428630156 3.538039544087941 0 -1 0
350 1 14.153227764248237 15.922891536994952 5.307269737413903 0 0 0
349 1 15.922891536994952 14.153227764248237 5.307269737413902 0 0 0
348 1 15.921201779589225 15.921201779589227 3.5397171022123604 0 0 0
347 1 14.152695970833348 14.152695970833348 3.5387475286264656 0 0 0
300 1 14.152630085803482 15.921696679039993 1.7695226473651724 0 0 0
299 1 15.921696679039993 14.152630085803482 1.7695226473651726 0 0 0
298 1 15.928849620893219 15.92884962089322 8.745023818510325e-16 0 0 0
297 1 14.157470068107193 14.157470068107193 4.246378509784922e-16 0 0 0
284 1 17.690748456515834 15.92468405614568 1.766687847688808 -1 0 0
51 1 17.690934957865917 17.690934957865917 3.5366979396796503 -1 -1 0
19 1 15.92468405614568 17.690748456515834 1.7666878476888073 0 -1 0
361 1 0.00017961976881467607 10.615306935846528 7.076211269422309 0 0 0
362 1 1.7689873922709711 12.384642043830125 7.076106472094682 0 0 0
363 1 1.7689824348879606 10.615067377758077 8.845792407237354 0 0 0
364 1 0.00018497511866535292 12.384384787033193 8.845792407237354 0 0 0
365 1 3.5379864852609377 10.614978197192194 7.076549071148945 0 0 0
368 1 3.53798232756033 12.384367541367473 8.845792407237354 0 0 0
406 1 0.00017961976881271944 10.61530693584653 10.615373545052401 0 0 0
407 1 1.7689873922709707 12.384642043830125 10.615478342380026 0 0 0
408 1 3.5379864852609373 10.614978197192194 10.615035743325762 0 0 0
353 1 5.307232523848004 8.845807330080932 7.076618563169246 0 0 0
366 1 5.307242569381943 12.384205409625956 7.07663026975084 0 0 0
367 1 5.307209499125201 10.615007958191018 8.845792407237354 0 0 0
369 1 7.076500276084437 10.615001828957505 7.076581836865689 0 0 0
372 1 7.076489820262777 12.384253475659403 8.845792407237354 0 0 0
402 1 5.307232523848003 8.845807330080932 10.614966251305464 0 0 0
409 1 5.307242569381943 12.384205409625956 10.614954544723867 0 0 0
410 1 7.076500276084436 10.615001828957505 10.615002977609018 0 0 0
370 1 8.845741466964675 12.384243019837744 7.07658183686569 0 0 0
371 1 8.845742317779427 10.615000978142753 8.845792407237354 0 0 0
411 1 8.845741466964677 12.384243019837744 10.615002977609018 0 0 0
373 1 10.614978722340394 10.614978722340394 7.0765763955793926 0 0 0
374 1 12.384197720996672 12.38419772099667 7.07662605719655 0 0 0
375 1 12.384243628186628 10.61496879984318 8.845792407237354 0 0 0
376 1 10.61496879984318 12.384243628186628 8.845792407237354 0 0 0
412 1 10.614978722340393 10.614978722340394 10.615008418895316 0 0 0
413 1 12.384197720996672 12.384197720996672 10.614958757278158 0 0 0
377 1 14.153510772074176 10.61493596584125 7.076618563169246 0 0 0
378 1 15.922754414691093 12.384248008511214 7.076502862912013 0 0 0
379 1 15.922771861525685 10.615025708773928 8.845792407237354 0 0 0
380 1 14.1535097321331 12.384269897128625 8.845792407237354 0 0 0
414 1 14.153510772074176 10.61493596584125 10.614966251305463 0 0 0
415 1 15.922754414691095 12.384248008511214 10.615081951562697 0 0 0
381 1 0.00018495875042029937 14.15363458835813 7.0764317230580875 0 0 0
382 1 1.7691118016170913 15.92268411839346 7.076439536106743 0 0 0
383 1 1.7691579696235287 14.153544165950292 8.845792407237354 0 0 0
385 1 3.5379737691683464 14.153591450300114 7.076182841252994 0 0 0
388 1 3.538211525674977 15.922531770247204 8.845792407237354 0 0 0
416 1 0.00018495875042019185 14.15363458835813 10.615153091416621 0 0 0
417 1 1.7691118016170915 15.92268411839346 10.615145278367965 0 0 0
418 1 3.5379737691683473 14.153591450300116 10.615401973221717 0 0 0
421 1 8.845765098729988 15.922756810661243 10.61503574332576 0 0 0
386 1 5.307151845622067 15.922769526753834 7.076182841252994 0 0 0
387 1 5.3071664221105435 14.153576873811637 8.845792407237356 0 0 0
389 1 7.076537886296224 14.153500726540237 7.07663026975084 0 0 0
392 1 7.076375754554707 15.922760968361851 8.845792407237354 0 0 0
419 1 5.307151845622066 15.922769526753832 10.615401973221717 0 0 0
420 1 7.076537886296224 14.153500726540237 10.614954544723867 0 0 0
390 1 8.845765098729988 15.922756810661241 7.076549071148946 0 0 0
391 1 8.845735337731162 14.153533796796978 8.845792407237356 0 0 0
423 1 12.384248008511214 15.922754414691093 10.615081951562697 0 0 0
422 1 10.614935965841248 14.153510772074178 10.614966251305464 0 0 0
396 1 10.615025708773928 15.922771861525685 8.845792407237356 0 0 0
395 1 12.384269897128627 14.1535097321331 8.845792407237354 0 0 0
394 1 12.384248008511214 15.922754414691093 7.076502862912012 0 0 0
393 1 10.61493596584125 14.153510772074178 7.076618563169245 0 0 0
425 1 15.92263092190304 15.922630921903039 10.615413066592408 0 0 0
424 1 14.153482844066911 14.153482844066911 10.615201741320293 0 0 0
400 1 14.153516034726008 15.922585528568684 8.845792407237354 0 0 0
399 1 15.922585528568685 14.153516034726007 8.845792407237356 0 0 0
398 1 15.922630921903039 15.92263092190304 7.076171747882299 0 0 0
397 1 14.153482844066911 14.153482844066913 7.076383073154416 0 0 0
384 1 17.691580459674157 15.922553599928706 8.845792407237356 -1 0 0
119 1 15.922553599928706 17.691580459674157 8.845792407237354 0 -1 0
431 1 1.7689904536233354 10.615094786468383 12.384387177740608 0 0 0
432 1 0.00018142449259737466 12.385284650563962 12.385265736191736 0 0 0
434 1 3.5380425097538346 12.384231601401602 12.384207124893019 0 0 0
462 1 1.7687803411975676 12.384393502689433 14.153496932893061 0 0 0
463 1 1.769119640676949 10.615100234541808 15.92248570409597 0 0 0
464 1 6.3096398553858235e-06 12.384490107152647 15.92281866630606 0 0 0
465 1 3.5381797900435497 10.615222231616364 14.153500180177176 0 0 0
468 1 3.5382398368610395 12.384544902125953 15.922852990677308 0 0 0
428 1 7.076544813655473 8.845810604345546 12.384235609047744 0 0 0
433 1 5.307258379203245 10.61496913036866 12.384294868209897 0 0 0
436 1 7.076552879492435 12.384190416429744 12.38423193959853 0 0 0
466 1 5.307365838472629 12.384349955527378 14.153517530444145 0 0 0
467 1 5.307255262376299 10.615103849039063 15.922588164937483 0 0 0
469 1 7.076494552333043 10.614967826672958 14.153545346430251 0 0 0
472 1 7.076329927177187 12.384413368744992 15.922768609974943 0 0 0
435 1 8.845754735127539 10.614988560794643 12.384268310025268 0 0 0
470 1 8.845775469249224 12.384248743589136 14.153545346430251 0 0 0
471 1 8.845699903171488 10.615043392750694 15.922759725867667 0 0 0
437 1 12.384198482266706 10.614932691576634 12.384235609047744 0 0 0
438 1 10.614932691576634 12.384198482266708 12.384235609047744 0 0 0
455 1 8.845798728395389 8.845798728395389 14.15355195831775 0 0 0
473 1 10.614944567526793 10.614944567526791 14.15355195831775 0 0 0
474 1 12.384028708108852 12.384028708108852 14.153470155276825 0 0 0
475 1 12.384315628284757 10.615082931507587 15.922755593300295 0 0 0
476 1 10.615082931507587 12.384315628284757 15.922755593300296 0 0 0
461 1 17.69157428630156 10.614964259137714 14.153545270386768 -1 0 0
439 1 15.922741917613035 10.615091608209491 12.384353264754703 0 0 0
440 1 14.153408949736653 12.38403063855816 12.384076481243623 0 0 0
477 1 14.153535925638673 10.615210723461457 14.153536599831462 0 0 0
478 1 15.922937485631758 12.384647620353826 14.15342002845597 0 0 0
479 1 15.922536677963022 10.61509626072225 15.922446999223457 0 0 0
480 1 14.153402940888187 12.384513176021594 15.922954403526276 0 0 0
441 1 1.7687772660272916 14.154421613808173 12.385523477371118 0 0 0
442 1 0.00040153272158286775 15.922878896091436 12.384726435740054 0 0 0
444 1 3.5378506626755732 15.922892633246608 12.384762324804697 0 0 0
481 1 0.00038092783401962797 14.156732260837323 14.156479279836434 0 0 0
482 1 1.7698432674961955 15.925125818389512 14.155845012941292 0 0 0
483 1 1.7698260453506764 14.15258567595188 15.922082661830434 0 0 0
485 1 3.538373847469367 14.153139902516129 14.15289394465391 0 0 0
488 1 3.5397669192135788 15.9209763767086 15.921172339947754 0 0 0
205 1 3.5356174775326683 17.690900028425986 14.155845012941292 0 -1 0
491 1 8.84563944688312 14.15348803354588 15.922588164937483 0 0 0
490 1 8.845521064305814 15.922563505878632 14.153500180177176 0 0 0
443 1 5.307411109778198 14.153332186143983 12.384021217424035 0 0 0
446 1 7.076511694520579 15.922700786168345 12.384207124893019 0 0 0
486 1 5.307603393406053 15.922369448452812 14.152893944653908 0 0 0
487 1 5.307099040558122 14.153644255364059 15.923220837743834 0 0 0
489 1 7.0763933403948025 14.153377457449553 14.153517530444145 0 0 0
492 1 7.076198393796229 15.922503459061142 15.922852990677306 0 0 0
445 1 8.84577416555352 14.153484916718938 12.384294868209897 0 0 0
207 1 5.308157619970301 17.690917250571506 15.922082661830435 0 -1 0
496 1 10.61509626072225 15.922536677963024 15.922446999223459 0 0 0
495 1 12.384513176021594 14.153402940888187 15.922954403526276 0 0 0
494 1 12.384647620353826 15.92293748563176 14.15342002845597 0 0 0
493 1 10.615210723461455 14.153535925638673 14.153536599831462 0 0 0
448 1 10.615091608209493 15.922741917613033 12.384353264754703 0 0 0
447 1 12.38403063855816 14.153408949736654 12.384076481243623 0 0 0
213 1 10.614964259137716 17.691574286301563 14.153545270386768 0 -1 0
500 1 14.152630085803482 15.921696679039993 15.922062167109535 0 0 0
499 1 15.921696679039993 14.152630085803482 15.922062167109537 0 0 0
498 1 15.921201779589227 15.921201779589227 14.15186771226235 0 0 0
497 1 14.152695970833348 14.152695970833348 14.152837285848243 0 0 0
450 1 14.153227764248237 15.92289153699495 12.384315077060807 0 0 0
449 1 15.922891536994952 14.153227764248237 12.384315077060807 0 0 0
484 1 17.690748456515834 15.92468405614568 15.9248969667859 -1 0 0
201 1 17.690934957865917 17.690934957865917 14.154886874795059 -1 -1 0
219 1 15.92468405614568 17.690748456515834 15.924896966785901 0 -1 0

Velocities

1 -3.6846860307002323e-09 -3.684685714202063e-09 -7.091612035553766e-16
2 3.684682319039883e-09 3.6846841992218342e-09 9.025892395824467e-16
3 1.7183124079556635e-10 -1.7183215241684973e-10 -7.254767417024609e-09
4 -1.7182584604175466e-10 1.7183092835336079e-10 -7.2547681122926715e-09
5 -7.500573449067623e-09 3.869932788533801e-09 8.277722592730337e-16
8 -6.271500210386188e-10 3.374510780324014e-09 -9.345689974706654e-10
21 3.869933485025927e-09 -7.500572765428165e-09 -5.385879351366452e-17
23 3.3745083346451634e-09 -6.271507117164425e-10 -9.34568946059999e-10
25 4.151306114506607e-11 4.151279368719374e-11 -3.9629055454656564e-16
52 2.831130574200904e-09 2.8311336172227373e-09 -2.991304674341309e-09
53 9.154965386484954e-10 -9.15497265436192e-10 -1.8010563034354348e-09
54 -9.154982939555386e-10 9.154957797291323e-10 -1.8010589621013327e-09
58 -8.193711687445151e-09 1.228879288269739e-10 7.189882333046321e-11
73 1.2288699700864292e-10 -8.19371128717639e-09 7.189976096309574e-11
75 4.227278288183017e-11 4.2272398525894635e-11 5.6104853465531494e-09
6 3.742825521734888e-10 1.6894060635917693e-09 -1.9585015823150735e-16
9 8.833452111558794e-10 -3.751930662914563e-09 5.107404907631027e-16
12 -3.2495384540668395e-09 -5.338471739658584e-10 -3.1151650754018546e-12
27 3.790193803855584e-09 -5.969832446961038e-09 -2.2526830555108558e-09
29 2.4889588776968645e-09 -2.2981421309591447e-09 -4.201597925810306e-16
56 6.437774061465179e-09 2.268404139650749e-09 1.0526964542671109e-09
57 -7.494910799820377e-10 -2.61516535152763e-09 1.5651057564260073e-09
59 2.007606358050366e-09 1.2239447400997311e-09 1.3026439191387214e-09
62 -2.5739559983394862e-09 6.551799041187762e-10 3.46777049690771e-09
77 2.621327936014174e-09 2.8368736206969896e-10 5.7090858582601885e-09
79 -4.4141754349054147e-10 1.0000687143283421e-10 9.081894442187666e-10
11 -6.662638675587459e-10 -2.4292221398777212e-09 -3.775026312409029e-09
31 -7.706908659119134e-10 -7.28902079569708e-10 -9.629826651547187e-10
60 4.737087026714587e-09 -3.767468867312271e-09 -1.3473741630945803e-09
61 -1.8615854522188462e-09 1.3382792520255145e-09 3.8755174741567255e-10
81 -2.482958288962142e-09 -2.7080720283664753e-09 -4.8631347821034365e-09
10 4.1643611788143836e-09 -2.6725476152167967e-09 6.303926968076643e-16
13 -4.164354838380678e-09 2.6725497597760293e-09 -6.756830458987003e-16
14 -8.833486896521205e-10 3.751921720132023e-09 -2.385844977959411e-16
15 3.249537726973127e-09 5.338480185696658e-10 -3.11684999879439e-12
16 6.662596213829141e-10 2.4292243456401284e-09 -3.775026559669854e-09
33 -6.4215723248881024e-09 -5.824884409241723e-10 4.3699066555405074e-16
35 4.713709130212712e-09 -2.2143067383722954e-09 1.6655615042073209e-09
64 -2.007606348257858e-09 -1.223948079344929e-09 1.3026468437324122e-09
65 2.5739568594864546e-09 -6.551752794738174e-10 3.4677697248069156e-09
66 1.861588254458187e-09 -1.3382824615199825e-09 3.8755058455535805e-10
83 -4.623423550044417e-09 8.157427111283821e-10 1.1853780392991124e-10
85 4.384346171764156e-09 2.728600855894652e-10 2.467528635126666e-10
71 1.5634343580434249e-09 -2.772889269237921e-09 2.728047202045039e-11
17 -3.7428388211846956e-10 -1.6894026472305718e-09 7.824825853093191e-16
18 7.500573750799274e-09 -3.869931815403328e-09 -1.7283776463930524e-15
20 -5.842636450581318e-09 -1.7163498078531633e-09 -1.1318948970489869e-09
37 -4.48477125550456e-09 -7.832999559685809e-09 3.4396184039408477e-16
39 4.916772045830935e-09 -4.916770657436923e-09 -7.765861155985766e-09
67 -6.4377737925746504e-09 -2.268404285163463e-09 1.0526954210672183e-09
68 2.772889430814302e-09 -1.5634318101552726e-09 2.728468841292871e-11
69 8.193714363247937e-09 -1.2288680360661166e-10 7.189853842968616e-11
70 7.49485352829841e-10 2.6151636755350918e-09 1.565107512065514e-09
87 -1.4406284286175436e-09 4.618464726880546e-09 -2.343581413996992e-09
89 1.9910749571061707e-09 -1.991074716271679e-09 -1.0182381521371922e-09
22 1.6894037176740928e-09 3.7427978150578157e-10 -1.3840056618010643e-15
28 -5.969831162639787e-09 3.79019408122722e-09 -2.252681105799591e-09
41 -3.751922466585441e-09 8.833518308912275e-10 -7.319899663902587e-16
42 -5.338463244657971e-10 -3.2495348039095152e-09 -3.114941071783377e-12
43 -2.2981388933112163e-09 2.4889616844744446e-09 -4.639200623108831e-16
72 2.2684030164216567e-09 6.437772562390844e-09 1.0526948746845734e-09
74 -2.6151637098088692e-09 -7.494907276926208e-10 1.565109086211161e-09
78 2.836871578086644e-10 2.6213275326121123e-09 5.709087485102473e-09
91 1.2239438098114796e-09 2.0076074707240775e-09 1.3026439142424673e-09
92 6.551786702627792e-10 -2.573954092472634e-09 3.4677719731282773e-09
93 1.0000597916705473e-10 -4.4141656944202013e-10 9.081851116460475e-10
252 -2.429221361373342e-09 -6.662644183873159e-10 -3.7750275499372166e-09
254 -7.289035857798311e-10 -7.706968479101838e-10 -9.629794671519835e-10
301 -3.7674701097367124e-09 4.73708821191406e-09 -1.3473719846440897e-09
302 1.3382797024808784e-09 -1.8615847422620225e-09 3.875485819874901e-10
304 -2.708072522888125e-09 -2.4829583171156024e-09 -4.863132121907459e-09
26 3.3339221366541045e-09 3.333923261468822e-09 6.563667371889488e-17
32 -1.7890933760798943e-09 3.0039041946746706e-10 1.4834375126093245e-10
44 3.003898636017383e-10 -1.7890923983998253e-09 1.4833985567889598e-10
45 4.169967550558109e-09 4.169975226048217e-09 7.050605696334265e-16
76 1.907307408712685e-09 1.9073051048180816e-09 1.6574002405524573e-09
82 9.898342466654792e-10 -7.316689648595554e-09 7.893747418013108e-10
94 -7.316690148625489e-09 9.898340563236067e-10 7.89379090898887e-10
95 2.8649215151061532e-09 2.864917490313191e-09 -3.249769317537334e-09
30 4.000583162710728e-09 3.647586563649152e-09 6.995522839331653e-16
46 -3.4526542160758654e-09 -1.162618300622953e-09 2.2723254862538286e-09
80 1.7209120464926657e-09 -6.067618310456184e-09 -2.0394204530543025e-09
253 3.6475922683970425e-09 4.000575707637681e-09 -9.559935848675452e-16
256 -1.1626190163913884e-09 -3.4526537431540357e-09 2.272322770668978e-09
303 -6.067618456460301e-09 1.7209172591394465e-09 -2.0394205511209573e-09
255 3.4881998650433924e-09 3.4882004115375348e-09 5.532766970040082e-16
34 -9.197316943581579e-10 1.1144157278073925e-09 -2.2913403580992803e-16
36 -4.1406516111581246e-10 -2.9406926567874108e-09 3.0339310471923406e-09
47 -3.4024303645732617e-09 3.0341972733993704e-09 2.7113006280174296e-16
48 4.654932173076239e-09 -4.654932456601569e-09 -1.281821790085768e-09
84 2.803026849228279e-09 4.040913012354532e-09 -3.971300610848269e-09
86 -2.3704019737830178e-09 -3.2715406423999814e-09 -6.531702934309486e-09
96 4.809167769136714e-10 -1.7002427968085591e-09 -3.6661066069029827e-09
97 -1.643849985370882e-10 1.4060704895062526e-09 -1.720754193886027e-09
98 -5.927793272627152e-09 5.9277902811496e-09 1.983724249224102e-09
257 -3.034199357959694e-09 3.4024313752054744e-09 -1.5359581756237458e-15
258 1.1417770354783404e-09 -1.1417770353264531e-09 -7.4191380817417585e-09
307 -1.4060723718155422e-09 1.643887214828327e-10 -1.7207529490230217e-09
308 5.5203659510079105e-09 -5.5203644747873425e-09 6.279030789737491e-10
100 -2.728627050853315e-10 -4.384344824070255e-09 2.4675045639181556e-10
99 -4.040910321439069e-09 -2.8030292406416476e-09 -3.971300322403446e-09
90 9.997421751956178e-10 -9.997396677015607e-10 -1.7604525244679269e-09
88 -4.6184644777836265e-09 1.4406298647500322e-09 -2.34358316226567e-09
50 2.2143086849392587e-09 -4.713708563165301e-09 1.6655623001546047e-09
24 1.7163464585590498e-09 5.842635018427036e-09 -1.1318942746127027e-09
38 7.832999775427e-09 4.484770342353197e-09 -5.759218715495263e-16
40 4.846619768768223e-10 -4.846638292674009e-10 -1.152678571841419e-09
49 -1.1144139906684472e-09 9.197321410580287e-10 -8.568444422628446e-16
259 5.824904043220086e-10 6.421567197489279e-09 -1.2877147903721608e-15
260 2.9406901693003366e-09 4.140613568202081e-10 3.0339332098550905e-09
309 -8.157412515249955e-10 4.623418424465577e-09 1.1854083324453477e-10
310 3.271541798419317e-09 2.3704052664915214e-09 -6.531701244666027e-09
101 -3.4753099409267994e-09 -3.4753118418973976e-09 -3.4126175806313085e-09
102 3.475307438941028e-09 3.4753086568841995e-09 -3.41261924413359e-09
103 -4.796797127688147e-09 4.7967945400179315e-09 -5.5162797672360784e-18
104 4.796799830420331e-09 -4.796797837644971e-09 -8.256308232946981e-16
105 2.30145093308599e-09 -1.8047761205905072e-09 -3.4586101406721758e-09
108 -1.0606989998886514e-08 -3.0033816103241472e-09 -4.180347019385937e-17
121 -1.8047763511125028e-09 2.3014514649415758e-09 -3.458610654778841e-09
123 -3.0033812082192913e-09 -1.0606989403379627e-08 8.176744106165431e-16
125 -5.671630185429064e-10 -5.671630263451158e-10 6.940097513846104e-10
151 -3.4753092407624835e-09 -3.4753114122511132e-09 3.412618173078037e-09
152 3.475309079186103e-09 3.4753084992860253e-09 3.4126180286385454e-09
153 2.301451999857321e-09 -1.8047761626067256e-09 3.458610197591128e-09
161 -1.8047774711305952e-09 2.301452473569891e-09 3.4586114938743628e-09
163 -5.671621540976754e-10 -5.671632512448542e-10 -6.940063890656028e-10
106 1.1728623661676326e-09 -3.255717675894789e-09 5.389987920467102e-10
107 -3.297819378160423e-09 -1.5149283814922573e-09 6.8363929690731e-16
109 2.3135566939278978e-10 -2.6400308484658094e-09 -1.2062418026790266e-09
112 -1.655892926749221e-09 -4.913399804777679e-09 -1.4994777739599782e-16
127 -8.716790519005554e-09 -4.603467300734051e-09 -5.201184652110293e-16
129 2.8625819826733878e-09 2.3214787808663295e-09 2.5333725708518082e-09
154 1.1728620138638712e-09 -3.25571668685149e-09 -5.389947930312918e-10
155 2.3135156667624269e-10 -2.640035891607384e-09 1.2062437452677836e-09
165 2.8625827406296996e-09 2.32147876119435e-09 -2.533371985701085e-09
110 4.23786269478829e-09 -3.737405788459608e-09 7.62452833558888e-09
111 -1.1331938369390597e-09 4.926557801808305e-10 -4.917675066844255e-15
131 1.8468252757688826e-09 -4.487742904193812e-09 1.3463622239730992e-15
156 4.237863809355914e-09 -3.737402410044378e-09 -7.624527411420946e-09
113 -4.237865136182919e-09 3.737402478591934e-09 7.62452736001028e-09
114 -2.3135342201222408e-10 2.640032199831901e-09 -1.2062441161590207e-09
115 1.6558948494183318e-09 4.913398348369359e-09 -3.5187579859973036e-16
116 1.1331925783964876e-09 -4.926529011835045e-10 9.792507911575368e-17
133 1.9752579783940648e-10 1.7773110263104955e-09 -9.636208395291413e-10
135 4.607571668385301e-09 -1.0116435133176816e-09 3.131941708256895e-16
157 -4.237862410384789e-09 3.737407727376174e-09 -7.624522551888895e-09
158 -2.3135436392907882e-10 2.6400316416589503e-09 1.2062409984693143e-09
167 1.9752436209759848e-10 1.7773118756963985e-09 9.63622340566655e-10
117 -1.1728620595397287e-09 3.2557176339706146e-09 5.389979119450616e-10
118 -2.301449730443612e-09 1.8047757789393258e-09 -3.4586100715125887e-09
120 3.2978170897684256e-09 1.5149249060365632e-09 -3.794596815735455e-17
137 -2.5332800378115786e-09 3.0444286767459984e-09 -3.099843346638293e-10
139 1.4925178995216351e-09 -1.4925178530072224e-09 -2.595014596567472e-16
159 -1.1728602442535745e-09 3.2557149746926847e-09 -5.389941393813887e-10
160 -2.3014546848405835e-09 1.8047763907415582e-09 3.4586101559729694e-09
169 -2.533279489418179e-09 3.044426750731109e-09 3.0998253320898e-10
122 -3.25571825854901e-09 1.1728630271619165e-09 5.389961303206535e-10
124 -1.5149222579366552e-09 -3.2978190704394235e-09 5.356646467946338e-16
128 -4.603468182488006e-09 -8.716792707376156e-09 5.792879527554974e-16
141 -2.640030035687653e-09 2.3135202107156098e-10 -1.2062428504773732e-09
142 -4.913401072907454e-09 -1.6558939863366494e-09 4.461711417211527e-16
143 2.3214786843933312e-09 2.8625833236350292e-09 2.5333692163060034e-09
162 -3.255715908347111e-09 1.1728609207943016e-09 -5.39000251130389e-10
171 -2.640030921909619e-09 2.313554576298062e-10 1.206242802738897e-09
172 2.3214786301009157e-09 2.8625828185576266e-09 -2.5333711969108447e-09
351 -3.737400490712827e-09 4.237862232704323e-09 7.624527754770756e-09
352 4.926544214703578e-10 -1.1331894978085162e-09 2.7786241199095104e-15
354 -4.487745078828368e-09 1.8468253812955725e-09 3.819614509821683e-16
401 -3.737405367381768e-09 4.237862727302476e-09 -7.624529626975861e-09
126 -1.71351604676105e-10 -1.7135175033966018e-10 8.344497767169681e-09
132 -4.563350032292603e-09 -4.8407747390709385e-09 7.696299186753765e-16
144 -4.840771645556486e-09 -4.5633482167004335e-09 1.0110764418701566e-15
145 4.4105124646968044e-10 4.410520084492023e-10 -1.2190752115811215e-09
164 -1.7135187485184336e-10 -1.7135257535845174e-10 -8.34449734609184e-09
173 4.410496261156369e-10 4.4105029139414317e-10 1.2190721319138873e-09
146 -6.325122289606106e-09 -4.996125675310545e-09 -9.963876800027936e-16
356 -4.996122977474615e-09 -6.325122977529787e-09 4.443350464877322e-16
355 -1.1153410767699596e-09 -1.1153401672907874e-09 -3.7896269710827117e-10
403 -1.1153418552743387e-09 -1.1153355154670096e-09 3.7896322024240474e-10
130 3.6263710047570584e-10 -1.9855367473378267e-09 -5.072985271759234e-09
134 -6.453179773574365e-09 5.897218240338714e-10 5.859724915427279e-09
136 2.660263032327825e-09 -6.1168094124252495e-09 9.752521887410372e-16
147 -1.9291183455700284e-09 2.3801304496871415e-09 -1.7911706810142552e-09
148 -1.4837051630172945e-10 1.4837148106563737e-10 6.949089637506826e-16
166 3.626372870192514e-10 -1.9855400000238838e-09 5.072983739143288e-09
168 -6.453181916289284e-09 5.897234621750127e-10 -5.8597258155779735e-09
174 -1.9291164576944123e-09 2.3801298538742382e-09 1.7911710757747304e-09
357 -2.38012891073332e-09 1.929115355182925e-09 -1.7911713921951423e-09
358 2.4741046567195734e-09 -2.4741020751696752e-09 7.344380933681526e-16
404 -2.380131906771855e-09 1.9291154153150437e-09 1.791171447890031e-09
175 -5.897230613088635e-10 6.453182658751926e-09 -5.859727579037104e-09
138 -3.0444304735444907e-09 2.5332789373655456e-09 -3.099846330898953e-10
140 5.441321729280465e-09 -5.441321043498896e-09 -2.8499258181406684e-15
149 -5.897226475754042e-10 6.453180299981583e-09 5.859726602846472e-09
150 1.0116387423632012e-09 -4.607569630316604e-09 7.417824743018341e-16
170 -3.044428759855606e-09 2.533277892015326e-09 3.099840418672301e-10
359 -1.7773126628833802e-09 -1.9752559849817802e-10 -9.6362233755334e-10
360 6.116814405765206e-09 -2.6602675195806025e-09 -6.303926968076642e-17
405 -1.7773130842672362e-09 -1.9752695537255553e-10 9.63620843201332e-10
176 9.154945776987862e-10 -9.154948044565475e-10 1.801056206734419e-09
177 -9.154919924766975e-10 9.154982413208086e-10 1.8010600539659648e-09
179 -8.193712221460779e-09 1.228912639260573e-10 -7.190066470241588e-11
186 1.228880178775927e-10 -8.193713995110843e-09 -7.189825964922655e-11
202 2.8311315522276313e-09 2.8311346540045126e-09 2.9913042722364528e-09
203 1.7183132005367725e-10 -1.7183260287221367e-10 7.254765730265122e-09
204 -1.7183299457253014e-10 1.718304387279652e-10 7.25476673644531e-09
208 -6.271497254272862e-10 3.374510776651824e-09 9.345688407905388e-10
223 3.374510650573284e-09 -6.271491118654624e-10 9.345675334907328e-10
225 4.226984023320274e-11 4.2269823708345637e-11 -5.610485596644621e-09
178 -7.494863490645129e-10 -2.6151652472326113e-09 -1.5651131513260077e-09
181 -2.5739565977313408e-09 6.551770202251962e-10 -3.467772051468341e-09
188 2.6213264401748564e-09 2.8368826198386085e-10 -5.709090050723894e-09
206 6.437774705555672e-09 2.268402965696388e-09 -1.0526923218292663e-09
209 2.007604989547385e-09 1.2239519326967922e-09 -1.3026431700118661e-09
212 -3.249540721032421e-09 -5.338462167482101e-10 3.1146270994984624e-12
227 3.790194617245772e-09 -5.969832579159862e-09 2.252684175222895e-09
229 -4.4141680415619414e-10 1.0000862551581386e-10 -9.081861661767432e-10
180 -1.861583572057327e-09 1.338278321737263e-09 -3.875520399668464e-10
190 -2.4829575698952103e-09 -2.7080739822365794e-09 4.863131621544948e-09
210 4.737086855345699e-09 -3.767469676418237e-09 1.34737427876858e-09
211 -6.662585110569183e-10 -2.4292219929901024e-09 3.775023878970813e-09
231 -7.706950974993947e-10 -7.289029981528525e-10 9.629823563847036e-10
182 2.5739588714014042e-09 -6.551789370311073e-10 -3.4677728021024474e-09
183 1.8615835765017294e-09 -1.3382792960918002e-09 -3.8755407191223804e-10
192 4.384344985498079e-09 2.7285990644526327e-10 -2.4675208123336963e-10
214 -2.0076001261622686e-09 -1.2239418708256305e-09 -1.3026468544890644e-09
215 3.2495365420796696e-09 5.338451346760858e-10 3.118786467233904e-12
216 6.662587427342433e-10 2.429224027383621e-09 3.775031152356064e-09
233 -4.6234234682963406e-09 8.157399104711193e-10 -1.1853970426479447e-10
235 4.7137091767271246e-09 -2.2143096433809705e-09 -1.6655596864730399e-09
221 1.5634343249937107e-09 -2.7728902533849666e-09 -2.728097716838155e-11
184 8.193707133928973e-09 -1.228957466144619e-10 -7.189982339033367e-11
185 7.494887037036419e-10 2.6151614501876686e-09 -1.5651063061377987e-09
194 1.991077790847066e-09 -1.9910727978179814e-09 1.0182372351342954e-09
217 -6.4377718382042824e-09 -2.268399543141507e-09 -1.05269873446277e-09
218 2.772889076447922e-09 -1.563430405542419e-09 -2.7279545014099482e-11
220 -5.842636437728652e-09 -1.7163484292367168e-09 1.1318917762991217e-09
237 -1.4406308899032042e-09 4.618462007460935e-09 2.343579581267933e-09
239 4.916777216504624e-09 -4.916774743370412e-09 7.765863740595822e-09
187 -2.615168170296223e-09 -7.494890129326808e-10 -1.565106165595676e-09
189 2.836874341941912e-10 2.621325626945058e-09 -5.7090895389538115e-09
196 6.551782638737009e-10 -2.5739548002873465e-09 -3.4677710346541013e-09
222 2.2684024680412138e-09 6.437772895336113e-09 -1.0526930948962606e-09
228 -5.969833738069368e-09 3.7901937791895545e-09 2.252684203904281e-09
241 1.2239432418460206e-09 2.0076068599163964e-09 -1.3026491287529304e-09
242 -5.338459547986234e-10 -3.249538037885253e-09 3.1165072610174848e-12
243 1.0000611228395915e-10 -4.41414076330709e-10 -9.081868801117731e-10
426 1.338279263042086e-09 -1.8615911367696888e-09 -3.8755210973846525e-10
427 -2.708071194576773e-09 -2.4829581112229166e-09 4.863132645471666e-09
451 -3.767469943264078e-09 4.737088508749456e-09 1.3473738638110573e-09
452 -2.4292227041709896e-09 -6.662621269404646e-10 3.775030114350226e-09
454 -7.289012202771388e-10 -7.70696833221422e-10 9.629806930200396e-10
191 9.898334222587195e-10 -7.3166900213228855e-09 -7.893746503025651e-10
197 -7.316689560241761e-09 9.89833814409991e-10 -7.893749427937461e-10
226 1.907311542735343e-09 1.907307936456631e-09 -1.6573995240711303e-09
232 -1.7890931599270473e-09 3.003909518514085e-10 -1.483482368415877e-10
244 3.003921336847071e-10 -1.7890916939512873e-09 -1.483417418077074e-10
245 2.8649179540452435e-09 2.864914512284728e-09 3.249771718949674e-09
230 1.7209107179063214e-09 -6.067614619208608e-09 2.0394231523754457e-09
246 -3.4526537534820714e-09 -1.1626208283140577e-09 -2.2723273018459984e-09
453 -6.067617902996274e-09 1.7209121456012029e-09 2.0394216317647584e-09
456 -1.1626193895814801e-09 -3.4526529291518153e-09 -2.2723224799538997e-09
193 -2.3704026231264173e-09 -3.2715397142982193e-09 6.531700403428395e-09
198 4.809216480743256e-10 -1.7002441640874762e-09 3.6661097551942763e-09
199 -5.9277934856322795e-09 5.927789820786193e-09 -1.9837252196706613e-09
234 2.803032338117646e-09 4.0409161022330354e-09 3.9712994156326e-09
236 -4.140655586068747e-10 -2.940689396993526e-09 -3.0339297101393454e-09
247 -1.6438769572450238e-10 1.406070451232341e-09 1.7207518324541826e-09
248 4.6549322111867385e-09 -4.654932872171124e-09 1.2818227160897975e-09
429 5.520365078325735e-09 -5.520365502235802e-09 -6.278990321671834e-10
457 -1.4060697474865338e-09 1.6438819177960285e-10 1.7207521268126506e-09
458 1.1417776582217611e-09 -1.1417772213075994e-09 7.419138500677488e-09
250 2.2143078856258e-09 -4.7137078969687474e-09 -1.6655597369656588e-09
249 -4.040912246083616e-09 -2.803033123226133e-09 3.971299986815204e-09
240 4.846604202505842e-10 -4.846603425225527e-10 1.1526801505773039e-09
238 -4.6184646638412765e-09 1.44063115338287e-09 2.3435770125707016e-09
200 -2.7285697555015565e-10 -4.384345588956927e-09 -2.4674753394023567e-10
224 1.7163476140749834e-09 5.842634617546244e-09 1.1318954301286364e-09
195 9.997413201872708e-10 -9.997381360921201e-10 1.7604577581778974e-09
430 3.271540632607955e-09 2.370407427379682e-09 6.531700752379056e-09
459 -8.157410965886401e-10 4.623418799475234e-09 -1.185405691148839e-10
460 2.9406889213676094e-09 4.1406083969768465e-10 -3.033931186478143e-09
251 -2.672553334041417e-09 4.164354445853163e-09 1.9760974949686855e-16
261 2.672547811066955e-09 -4.164354578664051e-09 -4.0149282437459006e-16
262 3.7519257911418765e-09 -8.833484720610138e-10 3.1948057061514635e-16
263 2.4292237409527645e-09 6.662616238503707e-10 -3.775025739547316e-09
264 5.338463122251622e-10 3.2495363266444954e-09 -3.115789959812962e-12
265 -5.824892243248052e-10 -6.421565019103507e-09 8.01761693998801e-17
268 -2.214308664130179e-09 4.713707923898144e-09 1.6655582947128529e-09
312 -1.2239458221718554e-09 -2.0076067056843968e-09 1.3026434417539606e-09
313 -1.338283288986901e-09 1.8615827090925673e-09 3.8754727468768393e-10
314 -6.551801293464581e-10 2.5739508239171023e-09 3.4677717980871983e-09
315 8.157411100533385e-10 -4.623424860353578e-09 1.185376924209325e-10
318 2.7286202817822215e-10 4.384350387132796e-09 2.467506990624022e-10
266 1.1144144466320968e-09 -9.19732104336124e-10 -5.555718160457837e-16
267 -2.940690656211784e-09 -4.140654353060181e-10 3.0339329706065623e-09
269 3.034194956247186e-09 -3.402431350250386e-09 -1.0429020925827766e-15
272 -4.654928829395435e-09 4.65493365312363e-09 -1.2818229979304158e-09
306 -1.700241685358911e-09 4.809213298178185e-10 -3.666109236191357e-09
316 4.040914144109559e-09 2.803032115842072e-09 -3.97129876699681e-09
317 -3.2715385230833224e-09 -2.3704037808067438e-09 -6.531702499816668e-09
319 1.4060690288705667e-09 -1.643914915453816e-10 -1.7207521898807213e-09
322 5.927789135120276e-09 -5.927790913874889e-09 1.9837249369119953e-09
270 3.4024287178594173e-09 -3.0341929867290323e-09 -6.748821076276276e-16
271 -1.141777350365012e-09 1.141776699780049e-09 -7.419135372277226e-09
320 1.6438799771883594e-10 -1.4060672888643172e-09 -1.7207541457811687e-09
321 -5.520365172503532e-09 5.520362468547284e-09 6.279037154867633e-10
273 -3.4881944148505025e-09 -3.4882006416614704e-09 3.574265387725009e-16
274 -4.169971115378096e-09 -4.169975944051329e-09 -1.4792502443425804e-15
275 1.1626168389987298e-09 3.4526565347827095e-09 2.2723247537343145e-09
276 3.4526553401743687e-09 1.1626163341649578e-09 2.27232550614486e-09
305 1.5421547544735366e-09 1.54215679903252e-09 -4.741706661906889e-09
323 -1.5421547646390013e-09 -1.542155800196713e-09 -4.74170769379241e-09
324 -2.8649197188387787e-09 -2.8649193473355097e-09 -3.2497700799286623e-09
325 1.700243890955236e-09 -4.809203434334433e-10 -3.6661103684382806e-09
326 -4.809203566873448e-10 1.7002448630277284e-09 -3.6661076326681867e-09
311 3.7674720780308024e-09 -4.737085268959417e-09 -1.3473691377019264e-09
277 -3.6475889915790825e-09 -4.00057307743126e-09 2.7266014216292664e-16
278 2.2981422802948902e-09 -2.4889657777427517e-09 6.609942840313373e-16
279 7.289020875261207e-10 7.706996987540495e-10 -9.629835379119862e-10
280 -3.003902392419742e-10 1.789086303475086e-09 1.4834247810935488e-10
327 6.067616582996809e-09 -1.7209128573941217e-09 -2.0394207351382525e-09
328 -1.0000557790374225e-10 4.4141346881269863e-10 9.081865624672977e-10
329 2.708075794197799e-09 2.482959995918678e-09 -4.863130436678051e-09
330 7.3166890451322534e-09 -9.89834199539035e-10 7.893772704104631e-10
281 -1.6894041895505678e-09 -3.7427756472680306e-10 -3.901977307153523e-16
282 -3.869933636197767e-09 7.500573576982259e-09 2.2522768196623343e-16
283 -1.716349993654406e-09 -5.842636828204905e-09 -1.1318930676861026e-09
285 -7.833000803946346e-09 -4.484774373194267e-09 8.476640361372174e-17
288 -4.916775776776449e-09 4.916778441562664e-09 -7.7658599227418e-09
331 -2.268404972475112e-09 -6.437772014010401e-09 1.0526925342751826e-09
332 -1.563428575567503e-09 2.7728905918385213e-09 2.7280776421969362e-11
333 2.6151674603393993e-09 7.494885256024042e-10 1.5651084662230036e-09
334 -1.2289282599897729e-10 8.193712872644624e-09 7.189945249909652e-11
335 4.618463843106707e-09 -1.4406301052785078e-09 -2.343577890530239e-09
338 -1.991074508333894e-09 1.9910757760046448e-09 -1.0182398945915687e-09
55 -2.772887820558782e-09 1.563425734822161e-09 2.72811540455557e-11
341 2.370404619448584e-09 3.271538196293485e-09 -6.5317027054468575e-09
340 4.623423844655153e-09 -8.157399353377853e-10 1.1853967177922232e-10
286 4.484775739640008e-09 7.83300494696066e-09 -3.892518906414956e-16
287 -4.846623220201036e-10 4.846601461618948e-10 -1.1526790930185662e-09
289 9.197335376071988e-10 -1.1144187033372353e-09 -1.1845873667174763e-15
292 -4.713708002850239e-09 2.2143108141976977e-09 1.6655592295913427e-09
336 1.4406276492612364e-09 -4.618462039508869e-09 -2.343579277601224e-09
337 -9.9974073543429e-10 9.997406975565888e-10 -1.7604557193620348e-09
339 -2.8030288731660625e-09 -4.040916264110719e-09 -3.971299446235233e-09
342 -4.38434760820266e-09 -2.7286156425815984e-10 2.467525201628579e-10
290 6.421569620828972e-09 5.824907715410553e-10 5.997911095839913e-16
291 4.140602480668306e-10 2.940689183172705e-09 3.0339325503302577e-09
7 5.84263510477581e-09 1.7163469611559583e-09 -1.13189509558913e-09
346 2.4829582859019838e-09 2.7080718986157454e-09 -4.863131542007381e-09
345 -9.89835442668e-10 7.316688702830844e-09 7.893748357943362e-10
344 4.4141842996002696e-10 -1.0000788285361864e-10 9.081859228321895e-10
343 -1.7209107892261184e-09 6.067617310799528e-09 -2.039418688615829e-09
296 7.706950763819087e-10 7.289016505354551e-10 -9.629832652518441e-10
295 1.7890900840812386e-09 -3.003861936381421e-10 1.483441284789008e-10
294 -2.4889631043880916e-09 2.298139124659216e-09 -1.9585015823150734e-17
293 -4.000575453260319e-09 -3.6475867832403447e-09 4.0026866749701025e-16
63 -4.737086497136752e-09 3.767471421494126e-09 -1.3473719401842272e-09
350 -2.621325228389098e-09 -2.8368704986156545e-10 5.709085532109176e-09
349 -2.8368717685815243e-10 -2.6213222449638557e-09 5.709088664181628e-09
348 -4.2269181381029814e-11 -4.227326929405909e-11 5.610488825881895e-09
347 -1.9073078008565602e-09 -1.9073050252925988e-09 1.6574010930863043e-09
300 -3.790194798222408e-09 5.969833037905052e-09 -2.2526813253860015e-09
299 5.969834847070889e-09 -3.790191656051433e-09 -2.2526819657041918e-09
298 -4.1507379654382124e-11 -4.151280776392386e-11 -7.050605696334265e-16
297 -3.33392336930098e-09 -3.333921185418708e-09 -9.076430770541419e-16
284 -3.374512351868526e-09 6.271514403402342e-10 -9.345703433284717e-10
51 -2.831134683379496e-09 -2.83113411562517e-09 -2.991305511081943e-09
19 6.271510054916798e-10 -3.3745127574925646e-09 -9.345687632920193e-10
361 3.737400138182543e-09 -4.2378598102826785e-09 7.624524657278096e-09
362 2.640029418759654e-09 -2.313484584347764e-10 -1.2062422812878507e-09
363 -4.926563824200671e-10 1.1331852772376063e-09 6.334528555300315e-16
364 4.913403349665544e-09 1.6558934122508733e-09 -1.29995542526163e-15
365 1.7773135478812826e-09 1.9752214951818e-10 -9.636204435446028e-10
368 -1.0116395522010355e-09 4.607577303549657e-09 3.0940531927864916e-17
406 3.7374072818170644e-09 -4.237864557200889e-09 -7.62452935645783e-09
407 2.6400312695436495e-09 -2.3134831154715774e-10 1.2062459908122541e-09
408 1.777315282017048e-09 1.9752392637093334e-10 9.636222037105071e-10
353 -1.985540557235436e-09 3.626354430246354e-10 -5.07298868230613e-09
366 5.897228351631339e-10 -6.45318103564374e-09 5.859725871774553e-09
367 -6.11680998995617e-09 2.660267099726826e-09 -5.630692049155836e-17
369 2.3801300062701425e-09 -1.9291170691778255e-09 -1.791169651576861e-09
372 1.4837210350594611e-10 -1.483737051930214e-10 -2.6930041138399166e-16
402 -1.98553916914744e-09 3.6263645654920426e-10 5.072984918004886e-09
409 5.897219676081361e-10 -6.453181346555866e-09 -5.859722214578864e-09
410 2.3801329170931193e-09 -1.9291181561462037e-09 1.7911712905978726e-09
370 1.9291194190737082e-09 -2.3801292473507794e-09 -1.7911706785661282e-09
371 -2.474101068989487e-09 2.4741021339247228e-09 -1.8238545985309122e-16
411 1.929113324155581e-09 -2.380130162950269e-09 1.7911720795067914e-09
373 1.1153370336882557e-09 1.1153400057144069e-09 -3.7896121354332257e-10
374 -4.4105317100350093e-10 -4.4104836257610045e-10 -1.2190735969648755e-09
375 4.996117926355111e-09 6.325125285336945e-09 1.4741286062601885e-15
376 6.325125541694952e-09 4.996121667726682e-09 -6.809779572505465e-17
412 1.1153418950564022e-09 1.1153391439737106e-09 3.789575878672683e-10
413 -4.4105443281727147e-10 -4.410514814898703e-10 1.2190747361854639e-09
377 1.9855411496821646e-09 -3.626389854643724e-10 -5.0729888135869394e-09
378 -2.321479420990869e-09 -2.8625833522236e-09 2.5333701270353134e-09
379 4.487743080909311e-09 -1.8468243408549054e-09 -1.4688761867363052e-16
380 4.840776790601346e-09 4.563352237748994e-09 2.862778484774611e-16
414 1.9855422525633682e-09 -3.6263736595187256e-10 5.072990508914872e-09
415 -2.3214840854378015e-09 -2.8625835875498057e-09 -2.533369802046457e-09
381 3.255716344113713e-09 -1.1728603295554988e-09 5.389984713420762e-10
382 1.804775615450346e-09 -2.301448595736758e-09 -3.458608118213276e-09
383 1.514927820081149e-09 3.2978162476127453e-09 -1.8728176984205862e-16
385 3.0444276758938936e-09 -2.5332810215558198e-09 -3.099830839347478e-10
388 -1.4925211420658172e-09 1.4925202300763584e-09 -8.441008267642725e-16
416 3.255718562116755e-09 -1.1728621911265537e-09 -5.389942311861504e-10
417 1.8047756570685045e-09 -2.301449672606612e-09 3.4586097098018274e-09
418 3.0444232864557152e-09 -2.533286018572829e-09 3.0998195361491793e-10
421 -1.9752935722628766e-10 -1.7773136409866118e-09 9.636282028830592e-10
386 2.53327987408013e-09 -3.0444292660058586e-09 -3.0998380317484975e-10
387 -5.441323285259259e-09 5.441321690537836e-09 -5.1147490360977385e-15
389 6.453181713658924e-09 -5.897211163851666e-10 5.859726342827939e-09
392 -4.6075736740103396e-09 1.0116427266898577e-09 1.1420512351874772e-15
419 2.5332844300327066e-09 -3.0444206721881243e-09 3.099826996050918e-10
420 6.4531834486858785e-09 -5.897221446638693e-10 -5.859720915076822e-09
390 -1.9752523005506786e-10 -1.7773103365507195e-09 -9.636209980453633e-10
391 -2.6602664827357903e-09 6.116810525757986e-09 -4.301358505143137e-15
423 -2.862581609208752e-09 -2.3214787950354023e-09 -2.5333729686987027e-09
422 -3.626334854855928e-10 1.9855369655387987e-09 5.07298605918699e-09
396 -1.8468208302647266e-09 4.487743016033946e-09 -4.859532051119276e-15
395 4.563346408683949e-09 4.840775155982955e-09 3.1087458396209824e-16
394 -2.86258465034293e-09 -2.3214770582423192e-09 2.5333736110260188e-09
393 -3.626378664327278e-10 1.985537441641819e-09 -5.072985972670192e-09
425 5.671628240698196e-10 5.67167441084292e-10 -6.940036500401497e-10
424 1.7135346311049708e-10 1.7135077529658726e-10 -8.344496687545684e-09
400 8.716789098543795e-09 4.603469886101677e-09 1.127668489192351e-15
399 4.60346509817734e-09 8.716792270704328e-09 -4.306255354115268e-15
398 5.671690189021293e-10 5.671618302832745e-10 6.940092804261831e-10
397 1.7135401975336868e-10 1.7134787220051132e-10 8.344496479454891e-09
384 3.003383145911794e-09 1.060699212386073e-08 -4.935423987433985e-15
119 1.0606990683138005e-08 3.00338164276183e-09 3.7211530063986394e-16
431 -1.3382812350083666e-09 1.8615891378740113e-09 -3.875475152161595e-10
432 -6.551770336898945e-10 2.5739526869417325e-09 -3.467770958379645e-09
434 2.7286067123540946e-10 4.384346235871194e-09 -2.467537306860784e-10
462 -1.2239467720451228e-09 -2.007608443854551e-09 -1.302647141485856e-09
463 2.4292215976175955e-09 6.662609132815153e-10 3.775024204571701e-09
464 5.338447833698645e-10 3.2495359985954807e-09 3.1125731209640094e-12
465 8.157384171136629e-10 -4.6234232558460174e-09 -1.1853994831282614e-10
468 -2.2143079101070702e-09 4.713708278264524e-09 -1.6655586735605028e-09
428 -1.7002433647740179e-09 4.809231463280362e-10 3.6661088812129452e-09
433 -3.271541357603453e-09 -2.3704031546759872e-09 6.53170008272376e-09
436 5.9277904117028425e-09 -5.927786405649059e-09 -1.9837264642372137e-09
466 4.040912981249244e-09 2.8030347451304463e-09 3.971298892539932e-09
467 -2.9406881984118355e-09 -4.140652639371296e-10 -3.0339298253754085e-09
469 1.4060705271242772e-09 -1.6439175227090474e-10 1.7207533172431946e-09
472 -4.654930558079098e-09 4.654932952959314e-09 1.2818233991172242e-09
435 -5.520365219017944e-09 5.520361201641573e-09 -6.279028806754639e-10
470 1.6438923437230797e-10 -1.406068836386583e-09 1.720753218094052e-09
471 -1.1417797963546604e-09 1.1417769470408739e-09 7.419136504535953e-09
437 1.7002477132352814e-09 -4.809204218209667e-10 3.6661095247523853e-09
438 -4.809200635241392e-10 1.70024623887509e-09 3.6661103365479298e-09
455 1.5421571319777889e-09 1.542158116124834e-09 4.741704297016228e-09
473 -1.542159545830989e-09 -1.5421554182889044e-09 4.741705175281781e-09
474 -2.864919840782368e-09 -2.8649180515354096e-09 3.2497707765720397e-09
475 1.1626170831993957e-09 3.452656010883536e-09 -2.272320886917753e-09
476 3.452656039420637e-09 1.1626169021304168e-09 -2.2723266258569367e-09
461 3.767472900601467e-09 -4.737083360644438e-09 1.3473757941591793e-09
439 2.708068904556452e-09 2.4829608209374692e-09 4.86313263632014e-09
440 7.316688538982001e-09 -9.898360815366492e-10 -7.893795559259035e-10
477 6.067615446912883e-09 -1.7209145487438477e-09 2.039416245273375e-09
478 -1.0000189989897385e-10 4.414144126421526e-10 -9.081853261631739e-10
479 7.289071135308063e-10 7.706995249370342e-10 9.629831954802253e-10
480 -3.003923568718101e-10 1.7890912670525337e-09 -1.4834062181707388e-10
441 2.6151672742817493e-09 7.494884227810712e-10 -1.5651091994370336e-09
442 -1.2289327278215074e-10 8.193712639766546e-09 -7.190024569223736e-11
444 -1.9910771775573393e-09 1.991075091094727e-09 1.0182435563774958e-09
481 -2.2684058048382844e-09 -6.437773250314525e-09 -1.0526919222434382e-09
482 -1.563427600600934e-09 2.772891372791027e-09 -2.7281229325460274e-11
483 -1.7163518003721156e-09 -5.84263637040516e-09 1.1318961896600312e-09
485 4.618467552019079e-09 -1.4406281770724967e-09 2.343577224945717e-09
488 -4.916772927156647e-09 4.916779250668631e-09 7.765857085056617e-09
205 -2.772890263789506e-09 1.5634246273507195e-09 -2.727796597219874e-11
491 4.140603636934134e-10 2.9406885450469815e-09 -3.0339296471669713e-09
490 4.623431995527538e-09 -8.157375810782999e-10 -1.1853944420053756e-10
443 -9.997370929308181e-10 9.997356604754138e-10 1.760457461124942e-09
446 -4.384346389613432e-09 -2.72861107575922e-10 -2.467582020162633e-10
486 1.4406235106464723e-09 -4.618464362678531e-09 2.3435833454044307e-09
487 -4.846616066548454e-10 4.846603976083234e-10 1.1526776452085361e-09
489 -2.8030334296978534e-09 -4.040918143529761e-09 3.9712986527973955e-09
492 -4.713710901865306e-09 2.2143093766881377e-09 -1.665554102601419e-09
445 2.37040343577919e-09 3.271538449261476e-09 6.531699729305088e-09
207 5.842636008123907e-09 1.7163464364152414e-09 1.131891877526423e-09
496 7.706972113363072e-10 7.289039959176039e-10 9.629773989275733e-10
495 1.7890904734592413e-09 -3.0039022771852666e-10 -1.4834206051022054e-10
494 4.414115108840743e-10 -1.0000683882075525e-10 -9.081846781707542e-10
493 -1.720911338357593e-09 6.067617499398993e-09 2.0394192285496253e-09
448 2.482953925388911e-09 2.708076673648753e-09 4.86313479898317e-09
447 -9.898358496836788e-10 7.316684399744054e-09 -7.893781849247088e-10
213 -4.737091776927249e-09 3.76746023276842e-09 1.3473743766936591e-09
500 -3.790192674472256e-09 5.969832070282864e-09 2.2526844272958682e-09
499 5.969834575328794e-09 -3.790192082025527e-09 2.2526797434169274e-09
498 -4.227190033205464e-11 -4.2273970223414443e-11 -5.610490222844351e-09
497 -1.90730579400447e-09 -1.907305710768153e-09 -1.657398485831073e-09
450 -2.62132159743427e-09 -2.8368174752454723e-10 -5.7090890760228095e-09
449 -2.8368583528456857e-10 -2.6213228300662036e-09 -5.709088834326453e-09
484 -3.374511687967091e-09 6.27151141668743e-10 9.345736048456378e-10
201 -2.8311330651701037e-09 -2.8311328313739775e-09 2.991305170699054e-09
219 6.271525193521997e-10 -3.374511412552806e-09 9.345696021580291e-10
