LAMMPS data file via write_data, version 29 Aug 2024, timestep = 29, units = metal

500 atoms
3 atom types

0 17.664893168446522 xlo xhi
0 17.664893168446522 ylo yhi
0 17.664893168446522 zlo zhi

Masses

1 54.8686
2 58.71
3 58.71

Atoms # atomic

1 2 0.005228694394714365 0.005228694394718304 4.3264464019702104e-16 0 0 0
2 3 1.7612606224499352 1.7612606224499334 2.663298056189071e-16 0 0 0
3 1 1.7603924248816671 0.0060968919629863 1.7539488096738782 0 0 0
4 1 0.0060968919629834275 1.7603924248816671 1.7539488096738778 0 0 0
5 1 3.5259912818116304 0.006026054559079609 3.650136385458499e-16 0 0 0
8 1 3.5257411236038223 1.7656373493713389 1.7595904797043396 0 0 0
21 1 0.006026054559077079 3.5259912818116317 0 0 0 0
23 1 1.7656373493713382 3.525741123603823 1.7595904797043411 0 0 0
25 1 3.525268307486349 3.52526830748635 9.975520262314738e-16 0 0 0
51 1 0.0008737432796190373 0.0008737432796174684 3.530485958583978 0 0 0
52 1 1.765615573565033 1.765615573565033 3.5304859585839794 0 0 0
53 1 1.7661336338741571 0.00035568297049262866 5.299132533045407 0 0 0
54 1 0.00035568297049412036 1.766133633874158 5.299132533045409 0 0 0
55 1 3.5302154344873324 0.0008230446256419369 3.5297977654469888 0 0 0
58 1 3.532057186103716 1.7661341059792097 5.298651158601354 0 0 0
71 1 0.0008230446256410595 3.5302154344873338 3.529797765446988 0 0 0
73 1 1.7661341059792084 3.532057186103715 5.298651158601355 0 0 0
75 1 3.5316061860969024 3.531606186096902 3.531237753663931 0 0 0
6 1 5.298138782799076 1.766194956495272 4.7265342425420205e-18 0 0 0
7 1 5.29824239141199 0.0008027736950899163 1.765339889413802 0 0 0
9 1 7.065974532298882 0.0003568702675362859 1.830285970335087e-20 0 0 0
12 1 7.065790363361802 1.766432512990448 1.7660673087763508 0 0 0
27 1 5.297765399900201 3.531671743973233 1.7653901583498184 0 0 0
29 1 7.065702879147125 3.5324656375564922 3.024015817857467e-19 0 0 0
56 1 5.296930891132353 1.7661436390873537 3.530494320298636 0 0 0
57 1 5.298126027075874 0.00034754521325796206 5.298037282268687 0 0 0
59 1 7.0652378374422495 0.00034247320846094673 3.53225702121207 0 0 0
62 1 7.064889236475612 1.766340136976537 5.298402419545638 0 0 0
77 1 5.298574625068431 3.5323341484716786 5.2984949514609605 0 0 0
79 1 7.06507833756013 3.5324165257583053 3.532241386755905 0 0 0
11 1 8.8324054833958 6.752567675242155e-05 1.7664152763130103 0 0 0
31 1 8.832406270144595 3.532834816233326 1.7663813236614074 0 0 0
60 1 8.832327936293051 1.766446929083084 3.5327061589865707 0 0 0
61 1 8.832164406154444 0.00014651030555829457 5.299030352349085 0 0 0
81 1 8.832167540802317 3.532658852039831 5.299014863217439 0 0 0
10 1 8.832601202152345 1.766493548480315 0 0 0 0
14 1 12.365407952992289 1.7661324465771173 5.361946836750752e-16 0 0 0
15 1 12.365592121929371 5.6803854201193765e-05 1.766067308776351 0 0 0
16 1 10.598977001895374 1.7664217911678985 1.7664152763130088 0 0 0
33 1 10.599056991826961 3.532794312969182 1.4921870236416698e-16 0 0 0
35 1 12.366054294465478 3.5323898325962637 1.7660834048701386 0 0 0
63 1 10.59905454899812 4.238776156498566e-05 3.5327061589865707 0 0 0
64 1 12.366144647848925 1.7661468436361905 3.5322570212120703 0 0 0
65 1 12.36649324881556 0.00014917986811296093 5.2984024195456385 0 0 0
66 1 10.599218079136728 1.7663428065390938 5.299030352349086 0 0 0
83 1 10.599218024749264 3.532715191485855 3.5326796098944753 0 0 0
85 1 12.366064099021218 3.532536822513519 5.298835206443387 0 0 0
17 1 14.133243702492097 0.00029436034937812243 2.637351607006859e-16 0 0 0
18 1 15.905391203479546 1.7604632622855716 6.515818054392909e-19 0 0 0
19 1 15.905641361687351 0.0008519674733150549 1.759590479704341 0 0 0
20 1 14.133140093879181 1.7656865431495623 1.7653398894138035 0 0 0
37 1 14.133901573748233 3.530763776927272 0 0 0 0
39 1 15.900396051699591 3.530986433591582 1.7647880307811656 0 0 0
67 1 14.13445159415882 0.0003456777572986233 3.5304943202986365 0 0 0
68 1 15.90116705080384 1.7656662722190097 3.529797765446988 0 0 0
69 1 15.899325299187456 0.00035521086544280516 5.2986511586013565 0 0 0
70 1 14.1332564582153 1.7661417716313912 5.2980372822686865 0 0 0
87 1 14.133090070712699 3.532080621699217 3.5318625543448077 0 0 0
89 1 15.899302992883632 3.532079492407542 5.298197043340395 0 0 0
22 1 1.7661949564952732 5.298138782799077 2.4293657918406133e-16 0 0 0
24 1 0.0008027736950899219 5.298242391411991 1.7653398894138017 0 0 0
28 1 3.5316717439732326 5.297765399900201 1.7653901583498175 0 0 0
41 1 0.0003568702675346537 7.065974532298882 0 0 0 0
42 1 1.7664325129904492 7.065790363361802 1.7660673087763494 0 0 0
43 1 3.53246563755649 7.065702879147124 0 0 0 0
72 1 1.766143639087353 5.296930891132353 3.530494320298636 0 0 0
74 1 0.00034754521325972666 5.298126027075873 5.2980372822686865 0 0 0
78 1 3.532334148471679 5.298574625068431 5.29849495146096 0 0 0
91 1 0.0003424732084622821 7.065237837442249 3.5322570212120707 0 0 0
92 1 1.7663401369765361 7.064889236475612 5.298402419545637 0 0 0
93 1 3.5324165257583067 7.06507833756013 3.532241386755905 0 0 0
252 1 6.752567675180897e-05 8.8324054833958 1.7664152763130092 0 0 0
254 1 3.5328348162333265 8.832406270144597 1.7663813236614063 0 0 0
301 1 1.7664469290830835 8.832327936293053 3.532706158986572 0 0 0
302 1 0.0001465103055582198 8.832164406154446 5.299030352349083 0 0 0
304 1 3.5326588520398325 8.832167540802317 5.29901486321744 0 0 0
26 1 5.296848501117844 5.296848501117841 1.5988929014638488e-16 0 0 0
32 1 7.065089859401849 5.298675605555186 1.7660238457988773 0 0 0
44 1 5.298675605555187 7.06508985940185 1.7660238457988786 0 0 0
45 1 7.064927745208043 7.064927745208041 0 0 0 0
76 1 5.298590388847274 5.298590388847275 3.532166277318074 0 0 0
82 1 7.06545928619985 5.29898122776818 5.298951466314564 0 0 0
94 1 5.29898122776818 7.06545928619985 5.298951466314563 0 0 0
95 1 7.065477564229964 7.065477564229965 3.532539667835535 0 0 0
30 1 8.832327200003476 5.299131797500475 0 0 0 0
46 1 8.83217328837972 7.065533858633919 1.766242835073529 0 0 0
80 1 8.832164257881539 5.299064026779437 3.5326088249440786 0 0 0
96 1 8.832293577387446 7.065657308731152 5.299148680453162 0 0 0
253 1 5.299131797500475 8.832327200003478 2.6946744596993348e-15 0 0 0
256 1 7.06553385863392 8.832173288379717 1.7662428350735295 0 0 0
303 1 5.299064026779438 8.832164257881537 3.5326088249440795 0 0 0
306 1 7.0656573087311525 8.832293577387448 5.29914868045316 0 0 0
255 1 8.832170987734562 8.832170987734562 0 0 0 0
305 1 8.832302938542806 8.83230293854281 3.5326675257769793 0 0 0
34 1 12.366300980723057 5.298530512407187 5.018367681215373e-19 0 0 0
36 1 10.599209169630399 5.299112637709138 1.7663120815785165 0 0 0
47 1 10.59921425632785 7.065524798984119 0 0 0 0
48 1 12.365982334417414 7.06540015087376 1.7662148808422853 0 0 0
84 1 12.366056335335129 5.298901433951871 3.532474572927067 0 0 0
86 1 10.59909750913779 5.299098160035455 5.299104528893109 0 0 0
97 1 10.599084226056732 7.065625442366768 3.532655156562143 0 0 0
98 1 12.365781882809207 7.065600602481966 5.2990972455072605 0 0 0
258 1 10.59908792392182 8.832294561369354 1.766267892452639 0 0 0
307 1 12.365757042924404 8.832298259234442 3.5326551565621434 0 0 0
308 1 10.599042799781971 8.832339685509202 5.299189865295609 0 0 0
100 1 15.898845662777653 7.065318386269953 5.298835206443388 0 0 0
38 1 15.900618708363902 5.297480911542941 0 0 0 0
40 1 14.13305517182996 5.298327313461215 1.7658078791625371 0 0 0
49 1 14.132851972883984 7.065081504568117 0 0 0 0
50 1 15.898992652694906 7.065328190825695 1.766083404870139 0 0 0
88 1 15.899301863591957 5.298292414578475 3.5318625543448072 0 0 0
90 1 14.132561438028803 5.298821047262371 5.298771441863457 0 0 0
99 1 14.132481051339301 7.065326149956042 3.532474572927066 0 0 0
310 1 14.132284325255716 8.832284976153385 5.29910452889311 0 0 0
259 1 15.898588172321992 8.832325493464214 6.674442838488617e-19 0 0 0
260 1 14.132269847582036 8.832173315660775 1.7663120815785167 0 0 0
309 1 15.89866729380532 8.83216446054191 3.532679609894474 0 0 0
101 1 7.716816977688388e-05 7.71681697764139e-05 7.066037365149132 0 0 0
102 1 1.7664121486748743 1.7664121486748765 7.066037365149132 0 0 0
103 1 1.7664788983762225 1.0418468426013414e-05 8.832446584223261 0 0 0
104 1 1.0418468429728484e-05 1.7664788983762225 8.832446584223261 0 0 0
105 1 3.5326999257563516 7.661915710255073e-05 7.065764728871569 0 0 0
108 1 3.5328694052071348 1.7664399961246227 8.832446584223263 0 0 0
121 1 7.661915710368022e-05 3.5326999257563503 7.065764728871569 0 0 0
123 1 1.766439996124622 3.5328694052071343 8.832446584223261 0 0 0
125 1 3.5326650871219414 3.5326650871219414 7.06559732027586 0 0 0
151 1 7.71681697751481e-05 7.716816977529434e-05 10.598855803297388 0 0 0
152 1 1.766412148674877 1.766412148674876 10.598855803297386 0 0 0
153 1 3.5326999257563507 7.661915710247677e-05 10.599128439574951 0 0 0
161 1 7.661915710348973e-05 3.532699925756351 10.599128439574953 0 0 0
163 1 3.5326650871219405 3.532665087121941 10.59929584817066 0 0 0
106 1 5.298964474657313 1.7663377155620172 7.065527925576978 0 0 0
107 1 5.299192349236529 5.031378838972121e-05 8.832446584223261 0 0 0
109 1 7.06536396556691 0.00014895752818278624 7.065380340177403 0 0 0
112 1 7.065612732940089 1.7663623857617867 8.832446584223263 0 0 0
127 1 5.299167959121719 3.532747483405084 8.832446584223263 0 0 0
129 1 7.065509721357891 3.532642341920661 7.065528872259624 0 0 0
154 1 5.298964474657314 1.7663377155620181 10.599365242869542 0 0 0
155 1 7.0653639655669105 0.00014895752818588665 10.599512828269116 0 0 0
165 1 7.065509721357891 3.5326423419206625 10.599364296186895 0 0 0
110 1 8.83215347449926 1.7663637679190514 7.0655238206014195 0 0 0
111 1 8.83227902589077 0.00012546512972976264 8.832446584223261 0 0 0
131 1 8.832286410422254 3.5326821871326204 8.832446584223261 0 0 0
156 1 8.832153474499258 1.7663637679190514 10.599369347845101 0 0 0
113 1 10.599229010791914 0.0001255489256024074 7.065523820601419 0 0 0
114 1 12.366018519724262 1.7663403593164664 7.065380340177403 0 0 0
115 1 12.365769752351085 0.00012693108286429916 8.832446584223261 0 0 0
116 1 10.599103459400403 1.766363851714922 8.83244658422326 0 0 0
133 1 10.599094530798379 3.532668147856618 7.065662162267431 0 0 0
135 1 12.365791595062882 3.5326733630803973 8.832446584223261 0 0 0
157 1 10.599229010791916 0.00012554892560144956 10.599369347845103 0 0 0
158 1 12.366018519724266 1.7663403593164657 10.599512828269118 0 0 0
167 1 10.599094530798377 3.532668147856618 10.599231006179089 0 0 0
117 1 14.13241801063386 0.00015160128263255905 7.065527925576977 0 0 0
118 1 15.898682559534821 1.7664126976875478 7.065764728871569 0 0 0
119 1 15.89851308008404 4.932072002946695e-05 8.832446584223263 0 0 0
120 1 14.132190136054644 1.76643900305626 8.832446584223261 0 0 0
137 1 14.132446161464063 3.5325942610965413 7.065370576172051 0 0 0
139 1 15.898551611485049 3.5328308738061267 8.83244658422326 0 0 0
159 1 14.13241801063386 0.0001516012826352786 10.599365242869542 0 0 0
160 1 15.898682559534821 1.7664126976875458 10.599128439574951 0 0 0
169 1 14.132446161464062 3.53259426109654 10.599522592274472 0 0 0
122 1 1.7663377155620175 5.298964474657313 7.065527925576979 0 0 0
124 1 5.031378839071507e-05 5.299192349236529 8.832446584223261 0 0 0
128 1 3.532747483405085 5.299167959121718 8.832446584223261 0 0 0
141 1 0.00014895752818599555 7.0653639655669105 7.065380340177406 0 0 0
142 1 1.766362385761786 7.065612732940088 8.83244658422326 0 0 0
143 1 3.532642341920662 7.065509721357892 7.065528872259626 0 0 0
162 1 1.7663377155620177 5.298964474657313 10.599365242869544 0 0 0
171 1 0.00014895752818327732 7.0653639655669105 10.599512828269116 0 0 0
172 1 3.5326423419206625 7.065509721357891 10.599364296186899 0 0 0
351 1 1.7663637679190523 8.832153474499258 7.0655238206014195 0 0 0
352 1 0.00012546512972704823 8.832279025890768 8.832446584223261 0 0 0
354 1 3.532682187132622 8.832286410422254 8.832446584223261 0 0 0
401 1 1.7663637679190516 8.83215347449926 10.599369347845103 0 0 0
126 1 5.299032813300239 5.299032813300239 7.06551040450286 0 0 0
132 1 7.065650101999144 5.299128208151443 8.832446584223263 0 0 0
144 1 5.299128208151443 7.065650101999145 8.832446584223261 0 0 0
145 1 7.065657194306974 7.065657194306972 7.065718378183328 0 0 0
164 1 5.29903281330024 5.299032813300239 10.599382763943657 0 0 0
173 1 7.065657194306972 7.065657194306972 10.599174790263193 0 0 0
130 1 8.832299101794217 5.299124297693406 7.0657195457246 0 0 0
146 1 8.832340478559011 7.065707444173691 8.832446584223261 0 0 0
166 1 8.832299101794217 5.299124297693405 10.59917362272192 0 0 0
353 1 5.299124297693404 8.832299101794218 7.065719545724599 0 0 0
356 1 7.065707444173691 8.83234047855901 8.832446584223261 0 0 0
402 1 5.299124297693405 8.832299101794217 10.59917362272192 0 0 0
355 1 8.8323462060357 8.8323462060357 7.065790192541455 0 0 0
403 1 8.832346206035698 8.8323462060357 10.599102975905065 0 0 0
134 1 12.365783281053606 5.299079742556963 7.065657563855638 0 0 0
136 1 10.599051201835122 5.299136800990516 8.832446584223261 0 0 0
147 1 10.599041539550958 7.065695782304129 7.065768867770853 0 0 0
148 1 12.365698131248063 7.06568435404311 8.832446584223261 0 0 0
168 1 12.365783281053607 5.2990797425569625 10.599235604590884 0 0 0
174 1 10.599041539550958 7.065695782304128 10.599124300675669 0 0 0
357 1 12.365686702987045 8.832340945740215 7.065768867770852 0 0 0
358 1 10.599027599742563 8.83235488554861 8.832446584223261 0 0 0
404 1 12.365686702987043 8.832340945740215 10.599124300675669 0 0 0
138 1 15.898788224194632 5.298936323827108 7.065370576172049 0 0 0
140 1 14.132293924564925 5.299088560726248 8.832446584223261 0 0 0
149 1 14.132302742734211 7.065599204237565 7.065657563855635 0 0 0
150 1 15.89870912221078 7.065590890228293 8.832446584223263 0 0 0
170 1 15.898788224194634 5.298936323827109 10.599522592274472 0 0 0
175 1 14.132302742734211 7.065599204237566 10.599235604590886 0 0 0
359 1 15.898714337434553 8.832287954492797 7.065662162267431 0 0 0
360 1 14.132245684300656 8.832331283456053 8.832446584223261 0 0 0
405 1 15.898714337434555 8.832287954492795 10.59923100617909 0 0 0
176 1 1.766133633874159 0.0003556829704924416 12.365760635401115 0 0 0
177 1 0.0003556829704916373 1.7661336338741591 12.365760635401116 0 0 0
179 1 3.532057186103715 1.7661341059792086 12.366242009845168 0 0 0
186 1 1.766134105979209 3.532057186103716 12.366242009845168 0 0 0
201 1 0.0008737432796184239 0.0008737432796200903 14.134407209862543 0 0 0
202 1 1.7656155735650338 1.7656155735650334 14.134407209862543 0 0 0
203 1 1.760392424881669 0.006096891962985453 15.910944358772642 0 0 0
204 1 0.0060968919629826755 1.7603924248816671 15.910944358772642 0 0 0
205 1 3.530215434487332 0.0008230446256418987 14.135095402999534 0 0 0
208 1 3.5257411236038214 1.765637349371337 15.905302688742182 0 0 0
221 1 0.0008230446256384528 3.530215434487331 14.135095402999532 0 0 0
223 1 1.7656373493713386 3.5257411236038227 15.905302688742182 0 0 0
225 1 3.531606186096901 3.5316061860969015 14.13365541478259 0 0 0
178 1 5.298126027075874 0.00034754521325847256 12.366855886177834 0 0 0
181 1 7.0648892364756115 1.7663401369765357 12.366490748900883 0 0 0
188 1 5.298574625068431 3.5323341484716786 12.366398216985562 0 0 0
206 1 5.296930891132354 1.766143639087354 14.134398848147883 0 0 0
207 1 5.298242391411991 0.000802773695090782 15.899553279032718 0 0 0
209 1 7.065237837442247 0.0003424732084616654 14.132636147234448 0 0 0
212 1 7.065790363361802 1.7664325129904497 15.898825859670172 0 0 0
227 1 5.297765399900203 3.5316717439732335 15.899503010096703 0 0 0
229 1 7.065078337560128 3.5324165257583062 14.132651781690617 0 0 0
180 1 8.832164406154446 0.00014651030555791147 12.365862816097438 0 0 0
190 1 8.832167540802319 3.532658852039833 12.36587830522908 0 0 0
210 1 8.832327936293053 1.7664469290830835 14.13218700945995 0 0 0
211 1 8.8324054833958 6.752567675219304e-05 15.898477892133513 0 0 0
231 1 8.832406270144597 3.532834816233325 15.898511844785114 0 0 0
182 1 12.366493248815562 0.00014917986811363349 12.366490748900882 0 0 0
183 1 10.599218079136728 1.7663428065390936 12.365862816097438 0 0 0
192 1 12.36606409902122 3.5325368225135185 12.366057962003133 0 0 0
213 1 10.599054548998119 4.238776156966833e-05 14.132187009459951 0 0 0
214 1 12.366144647848927 1.7661468436361885 14.13263614723445 0 0 0
215 1 12.365592121929373 5.680385420149884e-05 15.89882585967017 0 0 0
216 1 10.598977001895374 1.7664217911678979 15.898477892133512 0 0 0
233 1 10.599218024749263 3.532715191485854 14.132213558552046 0 0 0
235 1 12.366054294465478 3.532389832596266 15.898809763576383 0 0 0
184 1 15.89932529918746 0.00035521086544168073 12.366242009845166 0 0 0
185 1 14.133256458215298 1.766141771631392 12.366855886177834 0 0 0
194 1 15.899302992883634 3.532079492407541 12.366696125106127 0 0 0
217 1 14.134451594158818 0.0003456777572979145 14.134398848147885 0 0 0
218 1 15.901167050803842 1.7656662722190113 14.135095402999534 0 0 0
219 1 15.905641361687351 0.0008519674733141538 15.905302688742182 0 0 0
220 1 14.133140093879183 1.7656865431495612 15.899553279032718 0 0 0
237 1 14.133090070712699 3.532080621699219 14.133030614101715 0 0 0
239 1 15.900396051699591 3.530986433591582 15.900105137665356 0 0 0
187 1 0.00034754521325885404 5.298126027075872 12.366855886177834 0 0 0
189 1 3.5323341484716777 5.298574625068431 12.366398216985562 0 0 0
196 1 1.7663401369765375 7.0648892364756115 12.366490748900883 0 0 0
222 1 1.7661436390873546 5.296930891132353 14.134398848147883 0 0 0
224 1 0.0008027736950897397 5.298242391411991 15.89955327903272 0 0 0
228 1 3.531671743973232 5.297765399900202 15.899503010096703 0 0 0
241 1 0.000342473208461964 7.0652378374422495 14.132636147234452 0 0 0
242 1 1.7664325129904503 7.065790363361802 15.898825859670172 0 0 0
243 1 3.5324165257583067 7.06507833756013 14.132651781690617 0 0 0
426 1 0.00014651030555538344 8.832164406154444 12.365862816097438 0 0 0
427 1 3.532658852039832 8.832167540802317 12.365878305229078 0 0 0
451 1 1.7664469290830844 8.832327936293051 14.132187009459951 0 0 0
452 1 6.752567675191777e-05 8.8324054833958 15.898477892133513 0 0 0
454 1 3.532834816233324 8.832406270144595 15.898511844785114 0 0 0
191 1 7.065459286199851 5.298981227768179 12.365941702131957 0 0 0
197 1 5.298981227768179 7.065459286199851 12.365941702131957 0 0 0
226 1 5.298590388847275 5.298590388847275 14.132726891128447 0 0 0
232 1 7.065089859401848 5.298675605555186 15.898869322647645 0 0 0
244 1 5.298675605555186 7.065089859401848 15.898869322647641 0 0 0
245 1 7.065477564229964 7.065477564229966 14.132353500610987 0 0 0
198 1 8.832293577387448 7.06565730873115 12.365744487993359 0 0 0
230 1 8.832164257881539 5.299064026779438 14.132284343502441 0 0 0
246 1 8.83217328837972 7.065533858633919 15.898650333372991 0 0 0
428 1 7.065657308731151 8.832293577387446 12.365744487993362 0 0 0
453 1 5.2990640267794396 8.832164257881537 14.132284343502443 0 0 0
456 1 7.06553385863392 8.83217328837972 15.898650333372991 0 0 0
455 1 8.832302938542808 8.832302938542808 14.132225642669543 0 0 0
193 1 10.599097509137788 5.299098160035457 12.365788639553411 0 0 0
199 1 12.365781882809207 7.065600602481967 12.365795922939261 0 0 0
234 1 12.36605633533513 5.2989014339518725 14.132418595519455 0 0 0
236 1 10.599209169630399 5.299112637709137 15.898581086868004 0 0 0
247 1 10.59908422605673 7.065625442366769 14.132238011884377 0 0 0
248 1 12.365982334417414 7.065400150873761 15.898678287604236 0 0 0
429 1 10.599042799781973 8.832339685509202 12.365703303150914 0 0 0
457 1 12.365757042924404 8.832298259234442 14.132238011884379 0 0 0
458 1 10.599087923921822 8.832294561369354 15.898625275993883 0 0 0
257 1 12.365857686307056 8.832168228963324 17.66489316844652 0 0 -1
195 1 14.132561438028802 5.29882104726237 12.366121726583065 0 0 0
200 1 15.898845662777655 7.065318386269955 12.366057962003133 0 0 0
238 1 15.899301863591957 5.298292414578473 14.133030614101715 0 0 0
240 1 14.133055171829959 5.298327313461213 15.899085289283985 0 0 0
249 1 14.132481051339301 7.065326149956043 14.132418595519455 0 0 0
250 1 15.898992652694908 7.065328190825696 15.898809763576383 0 0 0
430 1 14.132284325255718 8.832284976153382 12.365788639553413 0 0 0
459 1 15.89866729380532 8.83216446054191 14.132213558552046 0 0 0
460 1 14.132269847582037 8.832173315660773 15.898581086868006 0 0 0
251 1 1.7664935484803164 8.832601202152345 5.068412424309538e-16 0 0 0
262 1 1.7661324465771144 12.365407952992289 3.3599105090062783e-15 0 0 0
263 1 1.766421791167899 10.598977001895376 1.766415276313008 0 0 0
264 1 5.680385420199527e-05 12.365592121929371 1.7660673087763492 0 0 0
265 1 3.5327943129691834 10.59905699182696 8.926440545193107e-16 0 0 0
268 1 3.5323898325962655 12.366054294465476 1.7660834048701397 0 0 0
311 1 4.2387761567237386e-05 10.59905454899812 3.532706158986573 0 0 0
312 1 1.7661468436361893 12.366144647848925 3.5322570212120703 0 0 0
313 1 1.7663428065390936 10.599218079136728 5.299030352349084 0 0 0
314 1 0.00014917986811402195 12.36649324881556 5.298402419545637 0 0 0
315 1 3.5327151914858548 10.599218024749264 3.5326796098944744 0 0 0
318 1 3.532536822513519 12.36606409902122 5.298835206443389 0 0 0
266 1 5.298530512407189 12.366300980723056 2.391944997895077e-18 0 0 0
267 1 5.299112637709137 10.599209169630399 1.7663120815785147 0 0 0
272 1 7.06540015087376 12.365982334417415 1.7662148808422855 0 0 0
316 1 5.29890143395187 12.36605633533513 3.5324745729270663 0 0 0
317 1 5.299098160035455 10.599097509137788 5.29910452889311 0 0 0
319 1 7.065625442366771 10.599084226056732 3.5326551565621447 0 0 0
322 1 7.065600602481967 12.365781882809207 5.29909724550726 0 0 0
270 1 8.832168228963324 12.365857686307056 2.9380885983403275e-19 0 0 0
271 1 8.832294561369354 10.59908792392182 1.7662678924526394 0 0 0
320 1 8.83229825923444 12.365757042924404 3.532655156562143 0 0 0
321 1 8.8323396855092 10.59904279978197 5.299189865295609 0 0 0
273 1 10.599211497556611 10.599211497556611 1.6753217581800497e-18 0 0 0
274 1 12.366454740083132 12.366454740083134 1.2617785631898048e-18 0 0 0
275 1 12.365848626657256 10.599209196911454 1.7662428350735304 0 0 0
276 1 10.599209196911454 12.365848626657256 1.7662428350735293 0 0 0
323 1 10.599079546748365 10.599079546748365 3.532667525776978 0 0 0
324 1 12.36590492106121 12.36590492106121 3.5325396678355347 0 0 0
325 1 12.365725176560023 10.599088907903726 5.29914868045316 0 0 0
326 1 10.59908890790373 12.365725176560025 5.299148680453162 0 0 0
261 1 17.664888936810858 10.598781283138827 0 -1 0 0
277 1 14.132250687790696 10.599055285287694 0 0 0 0
278 1 15.898916847734682 12.365679606144049 1.6130920351886567e-18 0 0 0
279 1 15.898547669057846 10.598976215146577 1.7663813236614065 0 0 0
280 1 14.132706879735988 12.366292625889324 1.766023845798878 0 0 0
327 1 14.132318458511735 10.599218227409636 3.53260882494408 0 0 0
328 1 15.898965959532868 12.366304147731043 3.532241386755906 0 0 0
329 1 15.898723633251342 10.599214944488857 5.2990148632174385 0 0 0
330 1 14.132401257522993 12.365923199091323 5.298951466314563 0 0 0
281 1 0.0002943603493772067 14.133243702492095 0 0 0 0
282 1 1.7604632622855745 15.905391203479542 1.2369682682847964e-18 0 0 0
283 1 1.7656865431495605 14.133140093879181 1.7653398894138037 0 0 0
284 1 0.0008519674733126021 15.90564136168735 1.7595904797043418 0 0 0
285 1 3.530763776927273 14.133901573748236 1.8424044653339854e-19 0 0 0
288 1 3.5309864335915826 15.90039605169959 1.7647880307811643 0 0 0
331 1 0.0003456777572985336 14.13445159415882 3.5304943202986347 0 0 0
332 1 1.7656662722190093 15.90116705080384 3.5297977654469888 0 0 0
333 1 1.7661417716313923 14.133256458215298 5.2980372822686865 0 0 0
334 1 0.00035521086544409964 15.899325299187458 5.298651158601355 0 0 0
335 1 3.532080621699219 14.133090070712699 3.531862554344808 0 0 0
338 1 3.5320794924075423 15.899302992883632 5.298197043340395 0 0 0
341 1 8.832284976153385 14.132284325255716 5.299104528893109 0 0 0
340 1 8.83216446054191 15.89866729380532 3.5326796098944735 0 0 0
291 1 8.832173315660771 14.132269847582034 1.7663120815785163 0 0 0
286 1 5.297480911542939 15.900618708363899 0 0 0 0
287 1 5.298327313461214 14.133055171829962 1.7658078791625371 0 0 0
289 1 7.065081504568117 14.132851972883984 1.9387678002898883e-19 0 0 0
292 1 7.065328190825695 15.898992652694906 1.7660834048701393 0 0 0
336 1 5.298292414578475 15.899301863591955 3.531862554344808 0 0 0
337 1 5.29882104726237 14.132561438028802 5.298771441863457 0 0 0
339 1 7.065326149956043 14.1324810513393 3.532474572927066 0 0 0
342 1 7.065318386269953 15.898845662777655 5.298835206443389 0 0 0
290 1 8.832325493464213 15.898588172321992 3.0858621459849563e-18 0 0 0
13 1 10.598781283138827 17.664888936810858 2.4008400907593387e-16 0 -1 0
346 1 10.599214944488857 15.898723633251342 5.299014863217439 0 0 0
345 1 12.365923199091322 14.132401257522991 5.298951466314564 0 0 0
344 1 12.366304147731041 15.898965959532868 3.5322413867559046 0 0 0
343 1 10.599218227409635 14.132318458511737 3.532608824944081 0 0 0
296 1 10.598976215146577 15.89854766905785 1.7663813236614083 0 0 0
295 1 12.366292625889324 14.132706879735988 1.766023845798878 0 0 0
294 1 12.36567960614405 15.898916847734682 2.447419313862356e-16 0 0 0
293 1 10.599055285287694 14.132250687790698 8.007517504611899e-19 0 0 0
350 1 14.132807860222742 15.899048336819494 5.298494951460961 0 0 0
349 1 15.899048336819492 14.132807860222742 5.2984949514609605 0 0 0
348 1 15.899776299194272 15.899776299194272 3.5312377536639303 0 0 0
347 1 14.132792096443898 14.132792096443897 3.5321662773180735 0 0 0
300 1 14.133617085390972 15.89971074131794 1.7653901583498184 0 0 0
299 1 15.89971074131794 14.133617085390975 1.7653901583498168 0 0 0
298 1 15.906114177804824 15.906114177804822 1.2445944598278591e-19 0 0 0
297 1 14.134533984173329 14.134533984173329 0 0 0 0
361 1 0.00012554892560105775 10.599229010791914 7.06552382060142 0 0 0
362 1 1.7663403593164666 12.366018519724266 7.065380340177405 0 0 0
363 1 1.7663638517149227 10.599103459400402 8.83244658422326 0 0 0
364 1 0.000126931082865734 12.365769752351085 8.832446584223261 0 0 0
365 1 3.532668147856619 10.599094530798377 7.065662162267431 0 0 0
368 1 3.5326733630803973 12.365791595062882 8.83244658422326 0 0 0
406 1 0.00012554892560149 10.599229010791914 10.599369347845101 0 0 0
407 1 1.7663403593164673 12.366018519724264 10.599512828269116 0 0 0
408 1 3.532668147856619 10.599094530798379 10.59923100617909 0 0 0
366 1 5.299079742556963 12.365783281053607 7.065657563855637 0 0 0
367 1 5.2991368009905155 10.59905120183512 8.832446584223261 0 0 0
369 1 7.065695782304128 10.599041539550957 7.065768867770852 0 0 0
372 1 7.0656843540431105 12.365698131248063 8.832446584223261 0 0 0
409 1 5.2990797425569625 12.365783281053604 10.599235604590884 0 0 0
410 1 7.065695782304128 10.599041539550958 10.59912430067567 0 0 0
370 1 8.832340945740214 12.365686702987045 7.065768867770854 0 0 0
371 1 8.832354885548611 10.599027599742563 8.832446584223261 0 0 0
411 1 8.832340945740215 12.365686702987045 10.59912430067567 0 0 0
373 1 10.599036279255474 10.599036279255474 7.0657901925414555 0 0 0
374 1 12.365725290984198 12.3657252909842 7.065718378183328 0 0 0
375 1 12.365675041117482 10.59904200673216 8.832446584223261 0 0 0
376 1 10.59904200673216 12.36567504111748 8.83244658422326 0 0 0
412 1 10.599036279255474 10.599036279255474 10.599102975905067 0 0 0
413 1 12.3657252909842 12.3657252909842 10.599174790263195 0 0 0
377 1 14.132258187597769 10.599083383496955 7.0657195457246 0 0 0
378 1 15.898740143370512 12.365872763933284 7.065528872259625 0 0 0
379 1 15.89870029815855 10.59909607486892 8.83244658422326 0 0 0
380 1 14.132254277139733 12.365732383292027 8.832446584223261 0 0 0
414 1 14.132258187597767 10.599083383496955 10.599173622721919 0 0 0
415 1 15.898740143370512 12.365872763933282 10.599364296186895 0 0 0
381 1 0.00015160128263313143 14.13241801063386 7.065527925576979 0 0 0
382 1 1.7664126976875463 15.898682559534823 7.065764728871569 0 0 0
383 1 1.7664390030562593 14.132190136054643 8.832446584223261 0 0 0
384 1 4.932072002992463e-05 15.89851308008404 8.832446584223261 0 0 0
385 1 3.532594261096541 14.132446161464062 7.065370576172051 0 0 0
388 1 3.5328308738061254 15.89855161148505 8.832446584223261 0 0 0
416 1 0.0001516012826339075 14.13241801063386 10.599365242869544 0 0 0
417 1 1.766412697687547 15.898682559534825 10.599128439574951 0 0 0
418 1 3.53259426109654 14.132446161464063 10.599522592274472 0 0 0
421 1 8.832287954492795 15.898714337434553 10.59923100617909 0 0 0
391 1 8.83233128345605 14.132245684300658 8.83244658422326 0 0 0
390 1 8.832287954492795 15.898714337434553 7.065662162267431 0 0 0
386 1 5.298936323827109 15.898788224194634 7.065370576172049 0 0 0
387 1 5.29908856072625 14.132293924564923 8.832446584223261 0 0 0
389 1 7.065599204237567 14.13230274273421 7.065657563855638 0 0 0
392 1 7.065590890228293 15.898709122210779 8.832446584223261 0 0 0
419 1 5.2989363238271086 15.898788224194632 10.599522592274472 0 0 0
420 1 7.065599204237567 14.132302742734211 10.599235604590884 0 0 0
423 1 12.365872763933282 15.898740143370512 10.599364296186895 0 0 0
422 1 10.599083383496955 14.132258187597769 10.59917362272192 0 0 0
396 1 10.59909607486892 15.89870029815855 8.83244658422326 0 0 0
395 1 12.365732383292027 14.13225427713973 8.832446584223261 0 0 0
394 1 12.365872763933282 15.898740143370512 7.065528872259626 0 0 0
393 1 10.599083383496957 14.132258187597765 7.065719545724599 0 0 0
425 1 15.898717398169234 15.898717398169232 10.59929584817066 0 0 0
424 1 14.132349671990934 14.132349671990935 10.599382763943657 0 0 0
400 1 14.132214526169454 15.898635001886086 8.832446584223261 0 0 0
399 1 15.898635001886086 14.132214526169454 8.832446584223261 0 0 0
398 1 15.898717398169232 15.898717398169232 7.0655973202758595 0 0 0
397 1 14.132349671990935 14.132349671990935 7.065510404502861 0 0 0
431 1 1.7663428065390947 10.599218079136728 12.365862816097438 0 0 0
432 1 0.0001491798681127088 12.36649324881556 12.366490748900883 0 0 0
434 1 3.5325368225135185 12.366064099021218 12.366057962003135 0 0 0
461 1 4.238776156613717e-05 10.59905454899812 14.13218700945995 0 0 0
462 1 1.7661468436361911 12.366144647848925 14.13263614723445 0 0 0
463 1 1.766421791167899 10.598977001895372 15.89847789213351 0 0 0
464 1 5.680385419933805e-05 12.365592121929371 15.898825859670172 0 0 0
465 1 3.5327151914858534 10.599218024749266 14.132213558552047 0 0 0
468 1 3.532389832596267 12.366054294465476 15.89880976357638 0 0 0
433 1 5.299098160035456 10.59909750913779 12.365788639553411 0 0 0
436 1 7.065600602481967 12.365781882809205 12.365795922939261 0 0 0
466 1 5.29890143395187 12.366056335335129 14.132418595519455 0 0 0
467 1 5.299112637709138 10.5992091696304 15.898581086868006 0 0 0
469 1 7.06562544236677 10.599084226056732 14.132238011884377 0 0 0
472 1 7.065400150873759 12.365982334417414 15.898678287604238 0 0 0
435 1 8.832339685509202 10.599042799781973 12.365703303150914 0 0 0
470 1 8.832298259234442 12.365757042924402 14.132238011884377 0 0 0
471 1 8.832294561369352 10.59908792392182 15.898625275993885 0 0 0
269 1 7.065524798984118 10.59921425632785 17.66489316844652 0 0 -1
437 1 12.365725176560023 10.599088907903727 12.36574448799336 0 0 0
438 1 10.599088907903727 12.365725176560023 12.365744487993359 0 0 0
473 1 10.599079546748367 10.599079546748365 14.132225642669543 0 0 0
474 1 12.36590492106121 12.36590492106121 14.132353500610986 0 0 0
475 1 12.365848626657254 10.599209196911454 15.898650333372991 0 0 0
476 1 10.599209196911454 12.365848626657254 15.898650333372993 0 0 0
439 1 15.898723633251342 10.599214944488857 12.365878305229083 0 0 0
440 1 14.132401257522993 12.365923199091322 12.365941702131959 0 0 0
477 1 14.132318458511735 10.599218227409638 14.132284343502441 0 0 0
478 1 15.898965959532868 12.366304147731041 14.132651781690615 0 0 0
479 1 15.898547669057848 10.598976215146578 15.898511844785116 0 0 0
480 1 14.132706879735986 12.366292625889324 15.898869322647643 0 0 0
441 1 1.7661417716313923 14.133256458215298 12.366855886177834 0 0 0
442 1 0.0003552108654404023 15.899325299187456 12.366242009845166 0 0 0
444 1 3.532079492407542 15.899302992883634 12.366696125106126 0 0 0
481 1 0.00034567775729620965 14.13445159415882 14.134398848147883 0 0 0
482 1 1.7656662722190108 15.90116705080384 14.135095402999534 0 0 0
483 1 1.7656865431495627 14.133140093879184 15.899553279032718 0 0 0
484 1 0.0008519674733135841 15.905641361687348 15.90530268874218 0 0 0
485 1 3.532080621699219 14.133090070712697 14.133030614101715 0 0 0
488 1 3.5309864335915813 15.90039605169959 15.900105137665356 0 0 0
491 1 8.832173315660773 14.132269847582037 15.898581086868006 0 0 0
490 1 8.83216446054191 15.898667293805318 14.132213558552047 0 0 0
445 1 8.832284976153383 14.132284325255718 12.365788639553411 0 0 0
443 1 5.29882104726237 14.132561438028803 12.366121726583065 0 0 0
446 1 7.0653183862699525 15.898845662777653 12.366057962003135 0 0 0
486 1 5.2982924145784756 15.899301863591955 14.133030614101713 0 0 0
487 1 5.298327313461214 14.13305517182996 15.899085289283986 0 0 0
489 1 7.065326149956043 14.132481051339303 14.132418595519455 0 0 0
492 1 7.065328190825696 15.898992652694906 15.898809763576383 0 0 0
496 1 10.598976215146577 15.898547669057848 15.898511844785114 0 0 0
495 1 12.366292625889326 14.132706879735986 15.898869322647643 0 0 0
494 1 12.366304147731043 15.898965959532866 14.132651781690617 0 0 0
493 1 10.599218227409636 14.132318458511735 14.132284343502441 0 0 0
448 1 10.599214944488855 15.89872363325134 12.36587830522908 0 0 0
447 1 12.365923199091323 14.132401257522993 12.365941702131957 0 0 0
500 1 14.133617085390972 15.899710741317941 15.899503010096703 0 0 0
499 1 15.899710741317941 14.133617085390974 15.899503010096705 0 0 0
498 1 15.899776299194274 15.89977629919427 14.133655414782591 0 0 0
497 1 14.132792096443897 14.132792096443898 14.132726891128447 0 0 0
450 1 14.132807860222742 15.899048336819494 12.36639821698556 0 0 0
449 1 15.899048336819495 14.132807860222742 12.366398216985562 0 0 0

Velocities

1 -7.212648772873691e-09 -7.212664002864528e-09 -1.969960628377394e-15
2 7.212651317002293e-09 7.212659762460131e-09 -9.27698262479788e-16
3 7.763953483074231e-09 -7.763957800337525e-09 2.245187849908034e-09
4 -7.763951769926562e-09 7.763956889846517e-09 2.245190470267448e-09
5 -1.6375667962832105e-09 -6.42911821364595e-09 -8.638943699134213e-16
8 -5.159327988048509e-10 2.8776895169600097e-09 3.990443785110542e-09
21 -6.429107048559545e-09 -1.6375714120928383e-09 -4.514705393493214e-17
23 2.8776877868888985e-09 -5.159357861318358e-10 3.990438922580808e-09
25 -1.5550829978857922e-09 -1.5550860116142947e-09 -3.006542008586317e-15
51 -3.640568921007835e-09 -3.6405618439020827e-09 -6.136602385399362e-10
52 3.640564738194297e-09 3.640567363434474e-09 -6.136638576253949e-10
53 -1.282396595686887e-09 1.2824031221816095e-09 3.961666819195901e-10
54 1.2823983429998932e-09 -1.282401245223347e-09 3.9616046535329185e-10
55 2.629504604050303e-09 -2.518528245570188e-09 6.359298909460834e-10
58 7.190266829947868e-10 -3.0103075186534147e-09 -2.2257451819130046e-09
71 -2.5185258511213565e-09 2.629500203985634e-09 6.359330629445733e-10
73 -3.010303353212692e-09 7.19029994947297e-10 -2.2257488331725016e-09
75 -2.797337881534764e-09 -2.7973358522598588e-09 -4.975460992969171e-10
6 7.510544903774935e-09 7.817759229473811e-10 -9.23836843526635e-16
7 5.051517628644448e-09 -1.393638009237668e-09 3.0589616179915895e-09
9 -8.178846416209354e-09 1.3601546112734803e-09 1.8302859703350868e-17
12 -3.781200811040316e-09 -2.6469238675202745e-09 1.0548373807625877e-10
27 2.2337211626014373e-09 6.629024732142172e-10 -2.090330593560575e-09
29 1.019557311860196e-09 2.203013723373764e-09 3.0240158178574665e-16
56 3.1208185774114e-09 -3.5562753690859947e-09 4.484526290027403e-09
57 4.14014727875612e-09 -4.6279877955352357e-10 1.6643931194309882e-09
59 3.0004344823755066e-09 2.0733848799260864e-09 5.516509041868414e-09
62 3.5436641448386455e-09 6.818416451833734e-10 6.614271084161506e-09
77 1.5346277887183889e-09 -1.4977232471525638e-09 2.783743330093435e-09
79 -9.230519016035656e-09 -9.762429080769402e-10 3.990168002815428e-09
11 2.646186589285323e-09 1.1535031916468564e-09 2.5903976279812513e-09
31 5.213023349853555e-10 3.2486305797691052e-09 3.90833232079577e-09
60 5.60849802566167e-09 -3.7913959498747643e-10 4.4938379926069046e-09
61 -2.73407025567931e-10 -1.1543026947240368e-09 3.716953843247481e-09
81 -1.0900552948708348e-09 9.70513656698069e-10 4.0973065766476086e-10
10 -6.241920046682197e-09 -2.799714868885194e-09 -1.2163775511185266e-16
14 8.178847773360742e-09 -1.3601653430568085e-09 -2.7481303700128015e-15
15 3.781203324426307e-09 2.646930574650728e-09 1.0548383735356958e-10
16 -2.6461902496987818e-09 -1.1535027377359357e-09 2.590404202368457e-09
33 -8.668190559737321e-09 7.921834121702026e-09 -4.2887660636151555e-16
35 2.2998506740804683e-10 3.844960943508283e-09 -1.696893188326374e-09
63 -5.6084933884581915e-09 3.7914671602009167e-10 4.4938407044806174e-09
64 -3.000442210452969e-09 -2.0733878132644017e-09 5.516510554904816e-09
65 -3.5436644272049412e-09 -6.818421989411005e-10 6.614267627517353e-09
66 2.734086582947283e-10 1.1542994441361535e-09 3.716948189189071e-09
83 3.340204111856188e-09 4.0901251904948816e-09 1.789708488886276e-09
85 -2.5945893808794485e-09 3.2452629844471927e-09 3.581742078838509e-09
17 -7.510543008327924e-09 -7.817703061047858e-10 3.767338622273054e-16
18 1.637560276632995e-09 6.4291171633299115e-09 6.515818054392909e-16
19 5.159287599690433e-10 -2.8776956107513267e-09 3.990439813930076e-09
20 -5.051513334679168e-09 1.393631573342101e-09 3.058955468230729e-09
37 -5.087649838924038e-09 3.3520928209845653e-09 -3.6781121812192185e-16
39 -1.2124679337673731e-09 1.2124649432326215e-09 -1.5118419392165715e-10
67 -3.120819814208079e-09 3.5562698866168945e-09 4.484525133362931e-09
68 -2.629499308670747e-09 2.5185264207978647e-09 6.359331123622945e-10
69 -7.190239827629322e-10 3.0103019719568795e-09 -2.225752111519722e-09
70 -4.140151900914553e-09 4.628050720766896e-10 1.664398438089494e-09
87 8.880923753597159e-10 -2.267701761090431e-09 5.296951399294415e-10
89 -2.40575046147674e-09 2.405748894771015e-09 -1.8898224775489483e-09
22 7.817699000863481e-10 7.510542415272373e-09 -8.126293203659299e-16
24 -1.3936357543253527e-09 5.051518367813063e-09 3.0589612366820124e-09
28 6.629048101962696e-10 2.2337212094939882e-09 -2.0903285776705296e-09
41 1.3601625473934478e-09 -8.178843962177178e-09 -2.74542895550263e-16
42 -2.6469267471702013e-09 -3.781198781253175e-09 1.0548881742487411e-10
43 2.2030249804570636e-09 1.0195579292223342e-09 -6.004371689130899e-16
72 -3.5562715376873635e-09 3.120817929003997e-09 4.484525769768616e-09
74 -4.6280234251021246e-10 4.1401494123357286e-09 1.664398728237484e-09
78 -1.497726048324213e-09 1.534628490263944e-09 2.7837465560264514e-09
91 2.0733835670009505e-09 3.0004386116531794e-09 5.516506364770134e-09
92 6.818465454690114e-10 3.5436650282018607e-09 6.61427355321728e-09
93 -9.762484841289434e-10 -9.230517334606223e-09 3.9901666943204835e-09
252 1.153508113895926e-09 2.6461884195712933e-09 2.5904014496183576e-09
254 3.2486289443919084e-09 5.2129789425402e-10 3.9083376065001915e-09
301 -3.7913683735661447e-10 5.608493084194597e-09 4.493832417555839e-09
302 -1.154303675757317e-09 -2.7341216684122165e-10 3.716960691567487e-09
304 9.705097491197422e-10 -1.0900570997719882e-09 4.0972758718622206e-10
26 3.2996524078178372e-09 3.299661334710044e-09 -5.25394848333137e-16
32 -2.746927752348105e-09 4.944496025164927e-10 -8.453003119104464e-10
44 4.94447071794321e-10 -2.7469306526730924e-09 -8.453069566901553e-10
45 -6.778327518563136e-10 -6.778266127405443e-10 -1.89861664656093e-15
76 -1.3569380607452654e-09 -1.3569418478386563e-09 2.401024806964672e-11
82 -1.4310295835610323e-09 -2.3679456586220515e-09 7.153146993065079e-10
94 -2.3679441681231307e-09 -1.4310287364667606e-09 7.153200638545789e-10
95 2.812429115802374e-09 2.8124218787632324e-09 -1.916704814330056e-09
30 4.821761151680843e-09 7.576418102291135e-10 -1.0817068566963185e-15
46 -2.8526579176188483e-09 1.7449666267099333e-09 2.278587195954654e-09
80 -6.8316580461060205e-09 -2.79742532173849e-09 3.281630258646645e-10
96 -2.7505849097279816e-09 -1.5500534051107676e-09 -5.290794980937482e-09
253 7.576434389229663e-10 4.821751937368126e-09 -1.0051930549080297e-14
256 1.7449653813558891e-09 -2.8526524301164616e-09 2.278584792484127e-09
303 -2.797427828339913e-09 -6.831650463272356e-09 3.281599541085897e-10
306 -1.5500573663494805e-09 -2.750591206310903e-09 -5.290788210709677e-09
255 -6.108885432724924e-09 -6.108886220968082e-09 -3.806994818296981e-16
305 8.479150117018685e-10 8.479030904392484e-10 -4.101397700321573e-09
34 -9.157468965806383e-09 3.157547458699878e-09 5.018367681215373e-16
36 -1.7099882492935123e-09 -8.838063492098266e-10 5.5559215520087064e-09
47 4.016482712624416e-09 7.256125443130254e-10 -1.216072503456804e-15
48 -3.2256194270060318e-09 3.2256186919906002e-09 1.9217256688360718e-09
84 3.5036411498016368e-09 4.360445247586263e-09 4.627081477531303e-10
86 5.219211977319926e-10 -1.3242081777560727e-09 -5.7294201847132915e-09
97 -1.3436847247053166e-09 1.6712022078669796e-09 -3.900490361110331e-09
98 3.811232308971824e-09 -3.81123079586824e-09 -4.636590436248257e-09
258 1.96017934196358e-09 -1.960179153444125e-09 -3.47028513474851e-09
307 -1.6711979238573895e-09 1.3436810112637606e-09 -3.9004917930984895e-09
308 -1.17873721728241e-09 1.1787356079885756e-09 -2.903571913156075e-09
100 -3.245258766555117e-09 2.594597477439293e-09 3.581738678443253e-09
38 -3.3520987352486305e-09 5.087653286572711e-09 -5.46645409806746e-16
40 -3.1982639291159735e-09 3.198259022119287e-09 -6.983798333872255e-09
49 -3.157542873324601e-09 9.157466122603693e-09 -3.1145366261868727e-16
50 -3.8449537841921864e-09 -2.2998556524583078e-10 -1.6968964614877844e-09
88 2.2677045623585996e-09 -8.880932839868317e-10 5.296940113004589e-10
90 -3.161516127049776e-09 3.1615092529532428e-09 3.730048685231776e-09
99 -4.360445744431599e-09 -3.5036357527866937e-09 4.627122786034028e-10
310 1.3242119642075398e-09 -5.219279978061212e-10 -5.729426661640748e-09
259 -7.921837630970326e-09 8.668183794467137e-09 6.674442838488617e-16
260 8.838058720464692e-10 1.7099883232388674e-09 5.555923184403049e-09
309 -4.09013402463048e-09 -3.3402062352073153e-09 1.789713825235461e-09
101 3.2892703379182474e-09 3.289273792277969e-09 -1.2246479154694208e-08
102 -3.2892685369168525e-09 -3.289278055624089e-09 -1.2246478724577005e-08
103 1.79095307602496e-10 -1.7908615464740603e-10 -3.3765725676065127e-15
104 -1.790972306229555e-10 1.7909463954811683e-10 -1.096951391554162e-15
105 4.000156263034421e-09 8.29772689171983e-11 4.405545159422486e-09
108 5.5373240894764644e-09 -2.784259098562121e-09 -7.140037024996069e-15
121 8.297277851954562e-11 4.000161210695391e-09 4.405546087638283e-09
123 -2.7842562662586e-09 5.537326789384206e-09 -1.4944284947785985e-15
125 1.4606900441265402e-09 1.460688702670362e-09 -4.870790760015838e-09
151 3.289279879809106e-09 3.2892800896818976e-09 1.2246486004234404e-08
152 -3.289279064721754e-09 -3.289277521180586e-09 1.2246490605573333e-08
153 4.000161290722739e-09 8.297581848050861e-11 -4.405541965028407e-09
161 8.297279072145209e-11 4.00015671795343e-09 -4.405546716036466e-09
163 1.4606923675744859e-09 1.4606919130825149e-09 4.870796101569155e-09
106 1.2718125763289467e-09 -9.314255166476875e-10 5.155394669514043e-09
107 -3.5809490263607736e-09 -1.7407372818121703e-09 -2.7088232360959287e-16
109 -5.928052854285105e-10 -3.287733788442338e-09 -5.530389325452874e-09
112 5.91870398575425e-10 -2.6781392629637497e-09 -6.9953529786207026e-15
127 -6.35580426488759e-09 -4.745998864044142e-10 -6.618310642903442e-15
129 3.859631740615975e-09 -1.2178009534024819e-09 2.198939823536066e-09
154 1.2718097479532424e-09 -9.314268734996867e-10 -5.15538734631109e-09
155 -5.928085539760749e-10 -3.287741038815162e-09 5.5303952006708385e-09
165 3.859632468977801e-09 -1.2178043336237055e-09 -2.198929832351112e-09
110 -6.0819529281104164e-09 -8.191171537529778e-11 -1.5505382997224118e-09
111 -2.8040981049899618e-09 -9.94657855651342e-10 -3.8619033974070335e-16
131 -2.4926358965512943e-09 -4.137703194809313e-09 -2.2695538331497154e-15
156 -6.081945621582906e-09 -8.19120619094415e-11 1.5505411751016713e-09
113 6.0819486952690626e-09 8.190357914406432e-11 -1.5505368556267813e-09
114 5.928146461210581e-10 3.287739935762817e-09 -5.530391019687587e-09
115 -5.918718689867786e-10 2.6781397091089137e-09 -1.2600161979879e-15
116 2.8041012837938595e-09 9.9465522980107e-10 4.94482259652196e-15
133 -1.4816638536193166e-09 -1.2973969448904242e-09 1.218237435958657e-09
135 7.509822774619751e-10 1.729743557423009e-10 -2.8743681932207515e-16
157 6.081945251137971e-09 8.190697127406268e-11 1.5505353108654223e-09
158 5.92802277374669e-10 3.2877412145226152e-09 5.530387953958587e-09
167 -1.4816575633607156e-09 -1.29740043411614e-09 -1.2182351241629958e-09
117 -1.2718119414931856e-09 9.314274177047153e-10 5.155397827138652e-09
118 -4.000157574527263e-09 -8.297356828794181e-11 4.405548508496526e-09
119 -5.5373279932548026e-09 2.7842538307580685e-09 -7.828743190446613e-15
120 3.5809491742183287e-09 1.740743149098896e-09 -3.288413793368706e-15
137 -3.704670196817241e-09 5.30227846169455e-09 -6.094917823146342e-09
139 -4.509602349318057e-09 4.509595368731846e-09 5.066175412094323e-15
159 -1.2718099141464258e-09 9.31418145933561e-10 -5.155389910541734e-09
160 -4.0001567814033434e-09 -8.296531217297729e-11 -4.405542460621585e-09
169 -3.7046592285235157e-09 5.302282216104655e-09 6.094913637282328e-09
122 -9.314240328958607e-10 1.2718118853644159e-09 5.15539011980443e-09
124 -1.7407384434336662e-09 -3.580951501779651e-09 -1.462030288237296e-16
128 -4.746012266325076e-10 -6.355801991413001e-09 -1.1502046998318307e-16
141 -3.287742068656068e-09 -5.928088014078595e-10 -5.5303988502610635e-09
142 -2.678135000380249e-09 5.918729188422668e-10 6.9502059246857704e-15
143 -1.2178028081911673e-09 3.859628960120008e-09 2.1989332879048085e-09
162 -9.314256142629392e-10 1.2718132968640355e-09 -5.1553940945754624e-09
171 -3.287732326653943e-09 -5.928090007565064e-10 5.530395455690684e-09
172 -1.2178048372407128e-09 3.859629976379146e-09 -2.198942223919326e-09
351 -8.191374089177162e-11 -6.081947423220313e-09 -1.5505399024428266e-09
352 -9.94649680374008e-10 -2.804094882313939e-09 -6.95508668727333e-17
354 -4.137707758140019e-09 -2.4926369783642487e-09 2.191366057097405e-15
401 -8.191351637669259e-11 -6.081951985208094e-09 1.5505349658565169e-09
126 -2.330558108771489e-09 -2.330558754176079e-09 -6.571256918596575e-09
132 -1.2798105386156784e-09 -1.6011572504339636e-09 -6.548357390162475e-15
144 -1.6011575786470759e-09 -1.2798129255751565e-09 -1.7222990980853168e-15
145 -5.162970909984051e-09 -5.1629649638947864e-09 -4.4532330867632094e-09
164 -2.3305621315163396e-09 -2.330558456131779e-09 6.57126789922209e-09
173 -5.162965859754753e-09 -5.162965436108566e-09 4.4532367857711555e-09
130 4.217700130343417e-10 -3.6757815304501226e-09 1.7545223734435044e-09
146 1.0270221748457468e-09 -2.453019009641413e-09 -1.1530801613111048e-16
166 4.217692661836045e-10 -3.6757777955245215e-09 -1.754523627589769e-09
353 -3.6757743932049985e-09 4.2176274313846754e-10 1.7545222794888246e-09
356 -2.453018637244351e-09 1.0270256235455532e-09 -1.5496421215503737e-15
402 -3.675775693668163e-09 4.217695414306567e-10 -1.754521324079548e-09
355 -2.0606276122255885e-11 -2.060690391034371e-11 -7.672824392643746e-10
403 -2.0603850993345192e-11 -2.060633865702654e-11 7.672898183673117e-10
134 -1.2162393399425334e-09 -2.66721732044356e-09 -8.486952752661986e-10
136 -1.0067689236858527e-09 -9.46712486693373e-10 -6.287800885217473e-16
147 -7.00533908469311e-11 -3.375789322959607e-09 -7.970488070666605e-10
148 -4.068174586746113e-10 4.068214609299776e-10 -9.639979768421828e-16
168 -1.2162445088226374e-09 -2.6672144706406404e-09 8.486944251829859e-10
174 -7.005360580732457e-11 -3.37578781968473e-09 7.970494147216027e-10
357 3.375786287430325e-09 7.005218433534171e-11 -7.9704604272475e-10
358 -2.6856390987814918e-09 2.6856417418175058e-09 -9.859140426871669e-16
404 3.375791048614229e-09 7.005250860100612e-11 7.970511370207007e-10
138 -5.302280072378674e-09 3.704672219893333e-09 -6.094912520807886e-09
140 1.0387379022832902e-09 -1.0387321057676221e-09 3.727682426249127e-16
149 2.6672175060899368e-09 1.2162427499467161e-09 -8.486864461235033e-10
150 -1.7298818020337246e-10 -7.509864442006329e-10 -5.134562242113364e-15
170 -5.302286124524283e-09 3.704665098860718e-09 6.094915356530949e-09
175 2.667216355450157e-09 1.2162408061830156e-09 8.486893544479101e-10
359 1.2974028246805292e-09 1.481658311360103e-09 1.2182352688048896e-09
360 9.467142620251858e-10 1.006759547557366e-09 -5.939277973737357e-16
405 1.2973973595991455e-09 1.4816670436544676e-09 -1.2182376719703687e-09
176 -1.2824062254314723e-09 1.2824042240137637e-09 -3.9616801467282415e-10
177 1.2824065378002778e-09 -1.2824046089839127e-09 -3.9617495969293857e-10
179 7.190293046029899e-10 -3.010305800377748e-09 2.225743176855726e-09
186 -3.010306750223453e-09 7.190247284519412e-10 2.225745192276135e-09
201 -3.640561809736745e-09 -3.640571007533841e-09 6.136613910100022e-10
202 3.6405629860005284e-09 3.640566991276327e-09 6.136613763677145e-10
203 7.7639469379716e-09 -7.763957511533651e-09 -2.2451844994170412e-09
204 -7.763946054553572e-09 7.763955661724631e-09 -2.2451852496817653e-09
205 2.629507838959213e-09 -2.518527776930738e-09 -6.359323611466798e-10
208 -5.159282732035362e-10 2.87769441442768e-09 -3.9904415398417835e-09
221 -2.518516453212994e-09 2.629508742879781e-09 -6.359268399722742e-10
223 2.8776860054105542e-09 -5.15933762445648e-10 -3.990441932943657e-09
225 -2.7973328222072844e-09 -2.7973359233712645e-09 4.975497599928206e-10
178 4.140144861939758e-09 -4.6280051222424213e-10 -1.664398061203108e-09
181 3.54366868028728e-09 6.818486100315859e-10 -6.6142730386781365e-09
188 1.534626541785131e-09 -1.4977222837000383e-09 -2.7837495344689977e-09
206 3.1208138416489286e-09 -3.5562736803421393e-09 -4.48452367889568e-09
207 5.051516132690715e-09 -1.3936391025284877e-09 -3.0589573888108076e-09
209 3.0004441366382977e-09 2.073382839767325e-09 -5.516503297210848e-09
212 -3.781198781944299e-09 -2.6469272791733235e-09 -1.0548609014625447e-10
227 2.233713114810827e-09 6.629006946731481e-10 2.0903319491207392e-09
229 -9.230511419446928e-09 -9.762460856559553e-10 -3.990169113221089e-09
180 -2.7341155293280243e-10 -1.1543042175219642e-09 -3.716957334823017e-09
190 -1.0900612533537993e-09 9.705079951326267e-10 -4.097280353882234e-10
210 5.608487942663327e-09 -3.791374572134631e-10 -4.493836647346716e-09
211 2.646183803377973e-09 1.1535038993574316e-09 -2.590403644741331e-09
231 5.212976095339942e-10 3.2486333077448065e-09 -3.908331878586138e-09
182 -3.543669759356742e-09 -6.818459792686761e-10 -6.614265850259914e-09
183 2.7341193371480206e-10 1.154301616075505e-09 -3.7169568224954693e-09
192 -2.5945991218104944e-09 3.2452639751569547e-09 -3.5817344140263382e-09
213 -5.608487230206043e-09 3.7913214206300523e-10 -4.493842697051944e-09
214 -3.000444400870046e-09 -2.0733801484057547e-09 -5.516509204369597e-09
215 3.781197720253319e-09 2.6469291543497084e-09 -1.0547986075281226e-10
216 -2.646186742717743e-09 -1.1535010001844546e-09 -2.5903979622372267e-09
233 3.34021237666361e-09 4.090130078124616e-09 -1.7897117461519923e-09
235 2.2998409784909433e-10 3.84495278828545e-09 1.6968923413610945e-09
184 -7.190360211638544e-10 3.010308207131085e-09 2.225750946237654e-09
185 -4.140141681817885e-09 4.6280136696779027e-10 -1.6643939511437357e-09
194 -2.4057578766602023e-09 2.405750400119859e-09 1.8898153846849823e-09
217 -3.1208099429420075e-09 3.556270246725659e-09 -4.484530551314451e-09
218 -2.629511904393747e-09 2.518522175907128e-09 -6.359334900112997e-10
219 5.159282718927846e-10 -2.8776930019837234e-09 -3.9904407034490565e-09
220 -5.051515498077185e-09 1.3936354675805505e-09 -3.0589548312912114e-09
237 8.880927782178085e-10 -2.2677078786508894e-09 -5.296965649306971e-10
239 -1.2124687890447547e-09 1.2124659422208161e-09 1.5118514628045703e-10
187 -4.6280075138160894e-10 4.140152893234597e-09 -1.6643940589777863e-09
189 -1.4977187113130869e-09 1.534626431104664e-09 -2.7837472110286485e-09
196 6.818400833393454e-10 3.543667762039005e-09 -6.614270916003983e-09
222 -3.5562785903893024e-09 3.120816907445254e-09 -4.484523235966475e-09
224 -1.3936332797787207e-09 5.051516517012637e-09 -3.0589623708492187e-09
228 6.629065144808734e-10 2.2337169165214544e-09 2.090331554200793e-09
241 2.0733850605143024e-09 3.0004347660698317e-09 -5.516511577424578e-09
242 -2.6469308567723e-09 -3.781201019692917e-09 -1.0548440788466199e-10
243 -9.762466097540532e-10 -9.230516764086981e-09 -3.9901713437251325e-09
426 -1.1542934896057967e-09 -2.7340687121381414e-10 -3.716956274477345e-09
427 9.705126425230286e-10 -1.0900538758926066e-09 -4.097199345726064e-10
451 -3.791400342561093e-10 5.608494898923137e-09 -4.493843075311044e-09
452 1.15350670701611e-09 2.6461880950005813e-09 -2.590400663815581e-09
454 3.2486402639557613e-09 5.213023299294289e-10 -3.908330470330182e-09
191 -1.4310331240816719e-09 -2.3679422130726667e-09 -7.153165652629465e-10
197 -2.367942354138145e-09 -1.4310344860050887e-09 -7.153166140705724e-10
226 -1.3569414431850067e-09 -1.356940721511011e-09 -2.4014137154235593e-11
232 -2.746923339564417e-09 4.944494186755182e-10 8.453006838973767e-10
244 4.944484512884383e-10 -2.7469242759567717e-09 8.453146109460833e-10
245 2.8124297579760224e-09 2.812418382306934e-09 1.9167021896999744e-09
198 -2.7505916260564856e-09 -1.5500479587898152e-09 5.290790608384299e-09
230 -6.831659407474139e-09 -2.797428511118204e-09 -3.281580339322379e-10
246 -2.852656868177364e-09 1.7449664888283902e-09 -2.278584926095003e-09
428 -1.5500502721336152e-09 -2.7505863936403007e-09 5.29078383584272e-09
453 -2.79743572155302e-09 -6.831648334649772e-09 -3.2816181367913556e-10
456 1.744963064996671e-09 -2.8526587028115294e-09 -2.278582806013754e-09
455 8.479114520441033e-10 8.479102633299661e-10 4.10139592128361e-09
193 5.219301417573497e-10 -1.3242138140165603e-09 5.729421357319482e-09
199 3.811231278736501e-09 -3.811233069366275e-09 4.636588319071365e-09
234 3.503633015197225e-09 4.36044224563695e-09 -4.627100040067252e-10
236 -1.7099884217006292e-09 -8.838026434008667e-10 -5.555922712284597e-09
247 -1.3436786511102996e-09 1.671199805311596e-09 3.900495961785401e-09
248 -3.2256201560458134e-09 3.2256147660271937e-09 -1.921727621751202e-09
429 -1.1787416324111351e-09 1.1787368245186506e-09 2.9035686814811468e-09
457 -1.671195818865639e-09 1.3436822092141966e-09 3.900492305984596e-09
458 1.9601722192960257e-09 -1.960179112415215e-09 3.4702844941484205e-09
257 -7.25616347915898e-10 -4.016481985368299e-09 8.391258526115608e-15
195 -3.1615075631417205e-09 3.1615133346434804e-09 -3.730052698438814e-09
200 -3.245263103722771e-09 2.594587588785505e-09 -3.5817342320685357e-09
238 2.267704833240923e-09 -8.880872001162663e-10 -5.296954145197028e-10
240 -3.198258179577645e-09 3.19826620080591e-09 6.983800875834421e-09
249 -4.360442162104384e-09 -3.503639218128131e-09 -4.6270820297151896e-10
250 -3.844958736335927e-09 -2.2999014553647153e-10 1.6968949490614776e-09
430 1.324206790599197e-09 -5.219174068563539e-10 5.72941975947983e-09
459 -4.090134621958487e-09 -3.340203938563646e-09 -1.7897077836160821e-09
460 8.838053321121079e-10 1.709994546718004e-09 -5.555929749638825e-09
251 -2.7997192957368605e-09 -6.241920012516859e-09 -9.210914145711325e-16
262 -1.3601540939126461e-09 8.17884923729013e-09 -1.231965486632547e-14
263 -1.1535042410108127e-09 -2.646194671828168e-09 2.5904062815733194e-09
264 2.646919984873636e-09 3.7812012326161845e-09 1.0549009130390946e-10
265 7.921829187251049e-09 -8.66818459578802e-09 -4.367639421875504e-15
268 3.844956666129971e-09 2.2999216678227812e-10 -1.6968983003150893e-09
311 3.7914059554380685e-10 -5.6084918106206096e-09 4.4938309868823054e-09
312 -2.0733828446480875e-09 -3.0004408767845916e-09 5.516508623953117e-09
313 1.154303011973605e-09 2.734116683933424e-10 3.7169574885670388e-09
314 -6.818436365345091e-10 -3.543663268686948e-09 6.614273762479976e-09
315 4.090128093328431e-09 3.3402044730721653e-09 1.7897125777451337e-09
318 3.2452618950738886e-09 -2.5945978102671447e-09 3.581738088370704e-09
266 3.1575408181458165e-09 -9.157461182923116e-09 2.391944997895077e-15
267 -8.837982733780302e-10 -1.7099892297166971e-09 5.5559293063196715e-09
272 3.2256150255363633e-09 -3.2256261845712673e-09 1.9217259153145824e-09
316 4.360448398651304e-09 3.503634494770137e-09 4.627096775719157e-10
317 -1.3242086705412069e-09 5.219287107025066e-10 -5.7294253723568055e-09
319 1.6711915007655488e-09 -1.343680919845832e-09 -3.900497455298753e-09
322 -3.811234137228215e-09 3.811231090827141e-09 -4.636587112912911e-09
270 -4.016483197826256e-09 -7.25616057851993e-10 2.9380885983403273e-16
271 -1.960181282676804e-09 1.9601791009759274e-09 -3.470288151059789e-09
320 1.3436888416285593e-09 -1.6711997247790134e-09 -3.90048904002517e-09
321 1.1787436564685596e-09 -1.178729110473381e-09 -2.9035688706106974e-09
273 6.108885830507075e-09 6.108884873877607e-09 1.6753217581800496e-15
274 6.778297880862174e-10 6.778257854983312e-10 1.2617785631898049e-15
275 -1.744967266198565e-09 2.8526568961393465e-09 2.278581568775775e-09
276 2.8526570430472023e-09 -1.7449652814497452e-09 2.278586716724777e-09
323 -8.479106867361206e-10 -8.479078107467658e-10 -4.1013927439071655e-09
324 -2.8124275968053892e-09 -2.8124258706169336e-09 -1.916705433119238e-09
325 1.5500517292766247e-09 2.750589696077126e-09 -5.290788896262443e-09
326 2.7505779228529596e-09 1.5500443598375022e-09 -5.2907944288012145e-09
261 2.799716827291182e-09 6.241922487063491e-09 -1.3727144777513153e-15
277 -7.576409186191852e-10 -4.821751077743815e-09 -1.2049382638039322e-15
278 -2.203020519835667e-09 -1.0195582971641434e-09 1.6130920351886567e-15
279 -3.2486311441072796e-09 -5.212973132907482e-10 3.908335251388656e-09
280 -4.944477880462307e-10 2.7469254937070373e-09 -8.453059366107745e-10
327 2.797429749987658e-09 6.831651975851186e-09 3.2815915915438325e-10
328 9.762474681724724e-10 9.230519285073692e-09 3.990163212267856e-09
329 -9.705101851341361e-10 1.090056299200615e-09 4.097338401802456e-10
330 2.3679443850120185e-09 1.4310303635909882e-09 7.15321116040226e-10
281 -7.81769060595183e-10 -7.51054084859048e-09 -2.434280340545666e-16
282 6.429104654545495e-09 1.6375725621225231e-09 1.2369682682847963e-15
283 1.393637784722589e-09 -5.051514094552893e-09 3.0589566266492245e-09
284 -2.8776866789557915e-09 5.159350829969755e-10 3.990433703825411e-09
285 3.3520909180972514e-09 -5.087667156479794e-09 1.8424044653339853e-16
288 1.212463203474311e-09 -1.2124616858688967e-09 -1.511786386002342e-10
331 3.556269043617681e-09 -3.120820179426392e-09 4.484529812794062e-09
332 2.5185304048728504e-09 -2.629502987393023e-09 6.359296059919468e-10
333 4.628020350221695e-10 -4.140145579716906e-09 1.6643981124511153e-09
334 3.0102995803832117e-09 -7.190308060690295e-10 -2.2257481422395477e-09
335 -2.2677082086481134e-09 8.88092377520222e-10 5.296929735928086e-10
338 2.4057477441205106e-09 -2.4057511784961846e-09 -1.8898201982159886e-09
341 -5.219281291227841e-10 1.3242119241998239e-09 -5.7294228084426035e-09
340 -3.340207506699422e-09 -4.0901332492772245e-09 1.7897147173422835e-09
291 1.7099977582212077e-09 8.838117834626288e-10 5.5559241987986576e-09
286 5.08765806346657e-09 -3.3520849641769896e-09 -1.6155324164824367e-15
287 3.198262422277872e-09 -3.1982686541207482e-09 -6.98379887693544e-09
289 9.15746505195501e-09 -3.1575429751497486e-09 1.9387678002898883e-16
292 -2.2998626988805545e-10 -3.8449513538012035e-09 -1.6968974669248774e-09
336 -8.880921550713075e-10 2.267708775601386e-09 5.296938255651596e-10
337 3.1615152478974134e-09 -3.161510428738006e-09 3.730051467918773e-09
339 -3.5036387190363265e-09 -4.360439866706524e-09 4.6271374939062933e-10
342 2.594596633448675e-09 -3.2452672322378252e-09 3.581735837839427e-09
290 8.66818690127271e-09 -7.921835012441198e-09 3.0858621459849564e-15
13 6.2419247347476065e-09 2.7997161439844195e-09 -1.7229091934087618e-15
346 1.0900544286483534e-09 -9.705100728765966e-10 4.097333118376955e-10
345 1.4310373870703145e-09 2.367951474295398e-09 7.153168842309399e-10
344 9.230523446210763e-09 9.762446070909816e-10 3.990171797393108e-09
343 6.831653653096472e-09 2.797425321520192e-09 3.281543943600285e-10
296 -5.213020257197544e-10 -3.248641289306151e-09 3.908329821845325e-09
295 2.746923472203251e-09 -4.944471771260274e-10 -8.453043568392751e-10
294 -1.0195633125415234e-09 -2.2030192566313187e-09 -2.0932287135928943e-15
293 -4.821752780115541e-09 -7.576396645551402e-10 8.007517504611899e-16
350 -1.5346309735106623e-09 1.4977230162362501e-09 2.7837394877603044e-09
349 1.4977291934514e-09 -1.5346271924448953e-09 2.7837418485241587e-09
348 2.7973346681567374e-09 2.7973377043723765e-09 -4.975425197580279e-10
347 1.3569390928132857e-09 1.3569447589973402e-09 2.4012971841409834e-11
300 -2.2337160432925095e-09 -6.628982341980312e-10 -2.090330030446166e-09
299 -6.629000644840015e-10 -2.2337261989392636e-09 -2.090328311197545e-09
298 1.555083447042259e-09 1.5550899958054608e-09 1.2445944598278592e-16
297 -3.299654309186541e-09 -3.2996556623779683e-09 -1.1869404517623039e-15
361 8.190719090837912e-11 6.0819497144333e-09 -1.5505412287900598e-09
362 3.2877385398647173e-09 5.928029798782832e-10 -5.530395471553163e-09
363 9.946555177660627e-10 2.8041017309389926e-09 2.8942922144232176e-15
364 2.678133449975508e-09 -5.91873811411725e-10 3.2945147466031565e-16
365 -1.2974018625804612e-09 -1.4816574174387832e-09 1.218236346329154e-09
368 1.729763963522122e-10 7.509807074354308e-10 3.3931476182883883e-15
406 8.190611714060985e-11 6.0819491189802644e-09 1.550540001278269e-09
407 3.2877379297693938e-09 5.928058955238339e-10 5.5303935046058395e-09
408 -1.2974016572059312e-09 -1.4816622859951448e-09 -1.2182398244805077e-09
366 -2.667214673789127e-09 -1.216246756442705e-09 -8.486934381209576e-10
367 -9.467089361217978e-10 -1.006765016756893e-09 -1.1909060713646966e-15
369 -3.3757885933189647e-09 -7.004945629410293e-11 -7.970451361230994e-10
372 4.068189670271615e-10 -4.0682371965275095e-10 1.4437180447435698e-15
409 -2.667214868011245e-09 -1.2162347058398764e-09 8.48694420679476e-10
410 -3.3757873932495473e-09 -7.005544987056045e-11 7.970455302446784e-10
370 7.005593611653324e-11 3.375784343971672e-09 -7.970527223533987e-10
371 2.6856363201333225e-09 -2.685640101881276e-09 4.1364462929572964e-16
411 7.005350503993789e-11 3.3757880338281883e-09 7.970449396724052e-10
373 2.0605277753689135e-11 2.0604881139298826e-11 -7.672870790393094e-10
374 5.162975789426205e-09 5.162964619801024e-09 -4.453229400643527e-09
375 2.4530169358320812e-09 -1.0270165420936052e-09 -1.2272265533338014e-15
376 -1.027019599057354e-09 2.45302176788237e-09 5.863626153630173e-15
412 2.060567244008289e-11 2.060577431885235e-11 7.6728276078461e-10
413 5.162968123239161e-09 5.162967152916807e-09 4.4532279747744946e-09
377 3.6757739670983978e-09 -4.217626304233565e-10 1.7545199809546934e-09
378 1.2178050344635588e-09 -3.8596378471644735e-09 2.1989331849960564e-09
379 4.137712739201324e-09 2.4926347319415824e-09 3.438497242936183e-15
380 1.601144020498703e-09 1.2798136497583053e-09 -2.4405338176109773e-15
414 3.6757797447011106e-09 -4.2176728659460315e-10 -1.7545148741517886e-09
415 1.2178045347954888e-09 -3.859633669536746e-09 -2.1989300442253314e-09
381 9.314253580229033e-10 -1.2718103607362025e-09 5.1553908574096765e-09
382 -8.296802953754791e-11 -4.000163619046681e-09 4.405545719140708e-09
383 1.7407449494901954e-09 3.5809566667989958e-09 4.97748563448052e-16
384 2.7842525153925513e-09 -5.537329557539212e-09 -2.6770982792767873e-15
385 5.302280363277367e-09 -3.704659317174208e-09 -6.094914814823499e-09
388 4.5095998425539685e-09 -4.509610491702004e-09 -1.4961439410286269e-15
416 9.314232324507964e-10 -1.2718117365011568e-09 -5.15539412630042e-09
417 -8.297088478366164e-11 -4.000166515092919e-09 -4.405541345367334e-09
418 5.302281948305018e-09 -3.704666670192633e-09 6.0949127568546005e-09
421 1.4816632201870755e-09 1.2974052182370068e-09 -1.2182384077453289e-09
391 1.0067725371272546e-09 9.467091163793466e-10 3.744382892034113e-15
390 1.481664378453047e-09 1.2974027854819044e-09 1.2182355659213122e-09
386 3.70466707213778e-09 -5.302287835841665e-09 -6.094911718532535e-09
387 -1.038737357722242e-09 1.0387414186451404e-09 4.87645498093083e-16
389 1.2162374469577099e-09 2.66722118029012e-09 -8.486964486585245e-10
392 -7.509877077080477e-10 -1.729800293298512e-10 -8.590142154106008e-16
419 3.7046688156776086e-09 -5.302281873608855e-09 6.094912779488303e-09
420 1.2162371781915189e-09 2.6672140690321375e-09 8.486947764576959e-10
423 -3.859633894966968e-09 1.2178032926414105e-09 -2.198932197251728e-09
422 -4.217669572744771e-10 3.6757739989282147e-09 -1.754525315326952e-09
396 2.4926321222232893e-09 4.137710471769096e-09 2.2256482948968593e-15
395 1.279813901163455e-09 1.6011511231864548e-09 -6.695002276353636e-16
394 -3.859634512688483e-09 1.217801553564691e-09 2.1989324772854814e-09
393 -4.2177089209448843e-10 3.675783225365235e-09 1.7545241959296086e-09
425 -1.4606946310257526e-09 -1.4606917949976416e-09 4.870791545889515e-09
424 2.3305595259847942e-09 2.3305539972247115e-09 6.571268041244417e-09
400 6.355807454632475e-09 4.746065662737647e-10 -1.1100684410082303e-15
399 4.746081214067441e-10 6.355807707211939e-09 5.393242659254056e-16
398 -1.4606871402753712e-09 -1.4606872583288164e-09 -4.870788584486815e-09
397 2.3305527453853695e-09 2.330554134877469e-09 -6.57126081542793e-09
431 1.15429645710945e-09 2.734089406571513e-10 -3.7169540329871267e-09
432 -6.818393670874357e-10 -3.54366612149268e-09 -6.6142730340261596e-09
434 3.2452641825250185e-09 -2.594591583356186e-09 -3.5817407885011244e-09
461 3.7914393398541676e-10 -5.608493689714206e-09 -4.493836646736621e-09
462 -2.073391122421436e-09 -3.000438235376889e-09 -5.5165071418790525e-09
463 -1.1535054416784093e-09 -2.6461832258298047e-09 -2.590393132951432e-09
464 2.6469345978768233e-09 3.78120318492122e-09 -1.0548668453162335e-10
465 4.090133686896843e-09 3.3401969292435655e-09 -1.7897160123521136e-09
468 3.844950468967564e-09 2.2999054748249322e-10 1.6969042218930001e-09
433 -1.324211728365183e-09 5.219206330404243e-10 5.729424803137869e-09
436 -3.811235182736476e-09 3.811239353958202e-09 4.636589029679893e-09
466 4.360451321643916e-09 3.503640673815573e-09 -4.627087093506374e-10
467 -8.838055717270462e-10 -1.7099963989882206e-09 -5.555927996224866e-09
469 1.6711964375615787e-09 -1.3436822083671552e-09 3.9004974748218025e-09
472 3.2256204074642566e-09 -3.2256165597074447e-09 -1.9217343043540656e-09
435 1.1787386390410447e-09 -1.1787432109964965e-09 2.9035687089354367e-09
470 1.3436826938225063e-09 -1.6711930332535058e-09 3.90049734609169e-09
471 -1.9601739352988237e-09 1.96017799304282e-09 3.470280698135318e-09
269 7.256162576224637e-10 4.016481452167478e-09 9.347880545824733e-15
437 1.5500546289476873e-09 2.7505830564515757e-09 5.290787599241432e-09
438 2.7505852307322577e-09 1.5500540335089508e-09 5.2907917914353925e-09
473 -8.479140367695416e-10 -8.47909182241053e-10 4.1013970243359545e-09
474 -2.8124287471115233e-09 -2.8124255942825357e-09 1.916706999771341e-09
475 -1.7449616729533726e-09 2.8526587164741795e-09 -2.278585928516975e-09
476 2.852655978125815e-09 -1.7449623334691421e-09 -2.278589796333446e-09
439 -9.70511678647488e-10 1.0900540857747817e-09 -4.097389613203906e-10
440 2.3679471749779323e-09 1.431037921451855e-09 -7.153251194271922e-10
477 2.7974290107046498e-09 6.831644622067205e-09 -3.281550053203736e-10
478 9.762441477286745e-10 9.230523593490605e-09 -3.990162402366314e-09
479 -3.248637594035039e-09 -5.213026333219687e-10 -3.9083357416002485e-09
480 -4.944430488257581e-10 2.7469246883812103e-09 8.453067998956572e-10
441 4.6280177634175234e-10 -4.1401444656828455e-09 -1.6643958927718047e-09
442 3.0103132147935e-09 -7.190262205925785e-10 2.2257499932687587e-09
444 2.405748920020263e-09 -2.405754387439402e-09 1.889822449609532e-09
481 3.5562802791331578e-09 -3.120822162236193e-09 -4.484524005906774e-09
482 2.518523430263113e-09 -2.6295031315280435e-09 -6.359357064876099e-10
483 1.3936308930858154e-09 -5.051526770808476e-09 -3.058955186290428e-09
484 -2.877686686276935e-09 5.159392023605994e-10 -3.990434590293916e-09
485 -2.2677056644505207e-09 8.88096745644796e-10 -5.296971215906313e-10
488 1.2124705552194774e-09 -1.2124604540477119e-09 1.5118121262636418e-10
491 1.709993107523713e-09 8.838003020251152e-10 -5.555927801759365e-09
490 -3.3402054194032205e-09 -4.090126868867117e-09 -1.7897139541201836e-09
445 -5.219247564702514e-10 1.3242059282020505e-09 5.729425176862514e-09
443 3.1615129399063996e-09 -3.161517722432364e-09 -3.730054550837015e-09
446 2.594598909478609e-09 -3.2452587036330786e-09 -3.5817410856232072e-09
486 -8.880972826183107e-10 2.2677079008002095e-09 -5.296902165075471e-10
487 3.19826324345172e-09 -3.1982650095268703e-09 6.983795582949389e-09
489 -3.5036381468395442e-09 -4.360452773198022e-09 -4.6270837993225734e-10
492 -2.2998933680626502e-10 -3.844950211092663e-09 1.6968963236062413e-09
496 -5.21297622261728e-10 -3.2486357981431925e-09 -3.90833119883047e-09
495 2.746919466274162e-09 -4.944438134420214e-10 8.453073048195304e-10
494 9.230514136665147e-09 9.762506741286715e-10 -3.9901717522542465e-09
493 6.831650177762239e-09 2.7974266536609472e-09 -3.281570988874994e-10
448 1.0900602305421063e-09 -9.70504901708635e-10 -4.0972577410997433e-10
447 1.4310328997730364e-09 2.3679461245777374e-09 -7.153200466715135e-10
500 -2.233714493650388e-09 -6.629046231162583e-10 2.0903324677769833e-09
499 -6.629077980523215e-10 -2.2337228531765097e-09 2.0903284130834637e-09
498 2.7973281955029273e-09 2.797341091697874e-09 4.975443183190414e-10
497 1.3569472468135453e-09 1.3569398199706492e-09 -2.4013774116760163e-11
450 -1.5346260326536854e-09 1.4977244749741684e-09 -2.7837437262305272e-09
449 1.4977162374671114e-09 -1.5346302673253254e-09 -2.7837490439884034e-09
