LAMMPS data file via write_data, version 12 Jun 2025, timestep = 99, units = metal

500 atoms
3 atom types

-0.061198700881439284 17.306198700881435 xlo xhi
-0.06762145263542386 17.31262145263549 ylo yhi
-0.0641067806266531 17.309106780626657 zlo zhi
1.064232942117176e-15 1.0638025189346128e-15 1.0638025189346128e-15 xy xz yz

Masses

1 58.6934
2 55.845
3 51.9961

Atoms # atomic

6 1 5.184472886496497 1.6096221433557827 3.409279094207254 0 0 0
22 1 1.6768564752510187 5.157390852699844 3.3949004885072167 0 0 0
23 1 1.6639571278937078 3.4194548460912584 5.138574377459849 0 0 0
25 1 1.6481105891755472 3.4194578953318193 1.6786422549590947 0 0 0
103 1 5.148492056709159 3.4180636802136304 1.6584741828146845 0 0 0
113 1 5.133413269400404 5.1573380603700745 3.355741525892668 0 0 0
300 2 3.398118675586786 1.6669647659373203 5.186044769339009 0 0 0
305 2 1.6967444658145816 -0.06022326719543046 5.166697853431559 0 0 0
326 2 -0.009886462004154037 1.6522050214188295 5.09633406516754 0 0 0
355 3 5.0969108973681 -0.047168084217586406 5.25490319280224 0 0 0
365 3 3.3772414972044222 5.175501447113874 1.6313503883069045 0 0 0
367 3 3.4310558456683253 3.348606162796394 3.460763230992989 0 0 0
368 3 3.4605929131075435 5.103189325565584 5.1089808543460355 0 0 0
369 3 5.172323302632156 3.3822576913938103 5.0968034380752885 0 0 0
486 3 1.6580151149985247 1.6250256644326402 3.4195042723145757 0 0 0
491 3 3.4371668911727964 1.6717542080118333 1.6471912290609425 0 0 0
56 1 8.5663654794042 1.6794964262882448 3.39092328288209 0 0 0
57 1 6.928533729656054 5.139673593746554 1.6765573640210423 0 0 0
69 1 6.903257056725529 1.6431712946971988 5.125404033522756 0 0 0
70 1 8.608921049669798 -0.029696558315974356 1.6334455626828035 0 0 0
73 1 10.390131163121369 5.102767157365311 5.119104987832231 0 0 0
99 1 6.873230946460487 5.176175402535559 5.128618965994424 0 0 0
102 1 8.647754671311297 3.4049514179047624 1.6712261409074678 0 0 0
180 2 10.366206109842803 1.6944482298389014 1.6467880856633161 0 0 0
213 2 10.359617414444571 3.459964242882964 -0.05880238216303844 0 0 0
217 2 10.407340002082679 3.332626417465375 3.3919073307922933 0 0 0
322 2 6.873388155024413 3.4382035661355284 3.4241208455180288 0 0 0
324 2 8.593165039956522 3.439097249188392 5.102412630410636 0 0 0
383 3 8.635250436079264 5.080256815138288 3.4514187572523745 0 0 0
414 3 10.397981734156753 5.211461129839512 1.7137566709765382 0 0 0
416 3 6.843755752850021 1.7397553891755584 1.6576399855773039 0 0 0
424 3 10.262200752399728 1.7004366352420985 5.186926927529883 0 0 0
425 3 10.273011069903013 0.0181354293310301 3.4146416346685458 0 0 0
24 1 17.301593007320793 5.146839822310177 5.1609166907247035 -1 0 0
181 2 17.284610220427243 1.6301795454974355 1.6583086938543738 -1 0 0
317 2 17.299121551701752 -0.04097702633141006 3.3836430868614205 -1 0 0
321 2 17.27736792569462 5.206895128825491 1.6250398471158587 -1 0 0
433 3 17.296499850296826 3.428262938934431 3.3977410042691933 -1 0 0
11 1 15.601827548159129 3.3974487148795043 5.170288277057041 0 0 0
12 1 13.835281362815131 3.3753870620009088 3.4007866549569314 0 0 0
204 2 13.840587306479541 1.618691728099767 1.6255707675603162 0 0 0
206 2 13.806280338818294 5.194191981928228 1.6805393563420545 0 0 0
219 2 12.095172525022791 5.151508125107981 3.385025018132493 0 0 0
360 3 15.601449048355983 1.61662633315926 3.391344726409168 0 0 0
362 3 13.888596857316806 1.6719241434935255 5.23451512073443 0 0 0
410 3 12.043299338592483 3.3144762738135967 5.131435456188202 0 0 0
413 3 12.14208864541074 3.4638914682809974 1.6959917957382284 0 0 0
422 3 12.168762199150558 1.507499841657209 3.32344571820759 0 0 0
423 3 12.074356968849129 -0.05771302703310438 5.222000990814509 0 0 0
427 3 12.062007830226069 1.654566270761661 -0.0067298681779409675 0 0 0
482 3 15.556157721000217 3.364596818784682 1.6210043631738154 0 0 0
483 3 15.538163781205768 5.108227100680079 3.3557076935965866 0 0 0
485 3 13.763958236350945 5.118952368267845 5.180104365718904 0 0 0
487 3 15.578053418773184 5.177918440155508 -0.023185797403438187 0 0 0
205 2 15.620914721741821 -0.06550373191723903 1.603821673340837 0 0 0
27 1 1.6735926114109434 6.926941199012446 1.690448244588331 0 0 0
45 1 1.6961010700424197 10.351940077116554 1.6850382218624658 0 0 0
55 1 1.6617675618123933 6.865202920244325 5.167131415646103 0 0 0
104 1 3.4272970592111154 6.905071613477016 3.413037855311011 0 0 0
107 1 3.426501530649456 8.613653370106483 1.6744720928407146 0 0 0
140 1 5.144887131530847 10.362124736988221 1.673072978070934 0 0 0
146 1 5.114343229691146 6.898740789299742 5.133541590353167 0 0 0
148 1 3.3466004442219086 8.61963844531766 5.150954740012107 0 0 0
252 2 1.6146382017548104 8.662675023908369 3.4147768516131376 0 0 0
260 2 -0.036673272645060234 8.660146825507429 1.7460943748493456 0 0 0
262 2 1.6915569967525428 10.339161154654404 5.143973947822014 0 0 0
271 2 3.4308720796103733 10.362558531313296 3.4442763949836968 0 0 0
276 2 -0.024486093612703826 10.404267069810444 3.4146924423332026 0 0 0
327 3 5.108925693836489 10.329381881650297 5.1797335267785485 0 0 0
329 3 5.177958670084845 6.850659953934131 1.6010477464424626 0 0 0
330 3 5.114711967072432 8.71747736070617 3.474216384686441 0 0 0
453 3 -0.026000828912276196 7.027928025861172 -0.04527860645643172 0 0 0
458 3 -0.04146091293481012 8.667725187996318 5.0902755597553835 0 0 0
81 1 6.903327889606327 10.39232941586189 3.3617319896133533 0 0 0
83 1 8.664702415896281 10.409674279868756 5.137549638588343 0 0 0
89 1 6.8882095215652335 6.902734725130977 3.4033603584362964 0 0 0
90 1 8.619501166001568 6.919558921786384 1.6812569899515326 0 0 0
93 1 6.876537117293352 8.635486519210044 1.6938953135405597 0 0 0
127 1 10.360930911874938 8.61485368123502 1.6813576439852909 0 0 0
130 1 10.381892171135622 8.665306788747754 5.142782116227237 0 0 0
142 1 10.366693237543904 10.398431874019959 3.3791765320685387 0 0 0
228 2 10.326472777234526 6.890399869464346 3.4189376607991147 0 0 0
236 2 10.308641037536532 10.368795171522635 -0.03466165279447258 0 0 0
286 2 6.96258825759212 10.402753047348059 -0.01957009425160542 0 0 0
302 2 8.628399196951374 8.602292678060932 3.4599923636546017 0 0 0
379 3 6.91463833714742 8.67932847954528 5.120984299944952 0 0 0
393 3 8.677737237377052 6.930468752623225 5.209645197224249 0 0 0
404 3 8.68141680124977 10.382651677845764 1.645486091997062 0 0 0
457 3 17.295288154267947 6.8692668697929475 3.3658633182857423 -1 0 0
18 1 15.563239415905292 10.363726837841071 5.12535836892224 0 0 0
41 1 13.793823390109127 6.886770078026164 -0.026991411109179166 0 0 0
42 1 13.806272423856083 8.642110456816336 1.6901136527884277 0 0 0
43 1 15.584888685711487 6.876655087859483 5.15582014829421 0 0 0
128 1 12.06121242557926 8.649210389663011 -0.031232176475504123 0 0 0
131 1 12.079105615970725 6.890576210650754 5.146283336659074 0 0 0
143 1 12.100582704905463 10.4146163058309 5.15637355518266 0 0 0
184 2 15.603183569625598 6.941123246563805 1.7079472848450399 0 0 0
196 2 12.113380975692088 10.430500624909316 1.6807787155008043 0 0 0
215 2 13.800164800201632 10.37433112169998 3.404589545230705 0 0 0
227 2 12.076173409100392 6.858765937170251 1.720460239833648 0 0 0
233 2 15.573379092689642 8.645366392332173 3.396013862682824 0 0 0
347 3 12.081728450708434 8.635141682074158 3.4004311360608197 0 0 0
439 3 13.872334365923757 8.600751256784458 5.190933259026294 0 0 0
440 3 13.854788986963927 6.889893834447985 3.3803844555706775 0 0 0
462 3 15.56086432496319 10.3322011216461 1.7230706175408157 0 0 0
323 2 5.188568710834112 17.265761662583667 1.6551794946365952 0 -1 0
354 3 3.36661683664432 17.31224043237758 3.35118891511238 0 -1 0
490 3 1.6454336293853522 17.28803162734288 1.7119990923755966 0 -1 0
1 1 1.6911909134593721 13.82627275876368 1.6318701997723595 0 0 0
3 1 -0.02342000742995258 15.556412930989014 5.171084950234121 0 0 0
5 1 -0.05095926296990676 15.541701022265235 1.643010434478464 0 0 0
8 1 1.6538213829620667 15.52539062699213 3.4024986774982877 0 0 0
77 1 5.145424758780533 15.571475421698478 3.4168818291370258 0 0 0
79 1 3.3951745538221876 15.548738239139219 5.126488089027173 0 0 0
137 1 3.4116601642041 12.106874335625358 5.177667159911695 0 0 0
239 2 5.1447621548699525 13.834991196391261 1.6492078130825132 0 0 0
240 2 5.114237649455646 15.565587667539363 -0.022728813181383332 0 0 0
243 2 5.169932657934683 13.839811170972343 5.169768701777117 0 0 0
250 2 3.452135840822877 15.555690282418992 1.6656232093641956 0 0 0
269 2 3.4384131769321806 12.120324180436265 1.7365160265461146 0 0 0
270 2 1.6590779915194491 13.80404666371349 5.202381736225222 0 0 0
275 2 -0.027889920532623486 12.09463475001113 5.168822601122377 0 0 0
341 3 5.109864933793746 12.121424545398147 3.378465768499525 0 0 0
366 3 3.4267185709934913 13.83306731081748 3.383677422058449 0 0 0
442 3 1.6948907476146275 12.079379958705028 3.4407087499794793 0 0 0
475 3 -0.057091915932761424 13.772427856847305 3.4419713250939465 0 0 0
285 2 3.4339476777051057 13.827115454325446 -0.0636712782151534 0 0 0
256 2 8.633022421036257 17.260089727191893 5.156031640500007 0 -1 0
405 3 6.946498537372408 17.196396810131766 3.3942114243488004 0 -1 0
415 3 6.8089060315951615 17.25725109132815 -0.043626898669484555 0 -1 0
82 1 6.8803588701296645 12.103670230946737 5.14614941477879 0 0 0
84 1 8.621139708019626 12.138878064871578 3.3825205419594813 0 0 0
94 1 6.901408252074192 13.854068942135497 3.4070964242919484 0 0 0
162 2 6.907903318710309 15.55700995908442 1.6627205984180387 0 0 0
163 2 8.606631675922701 13.801548612830475 1.6236482152171432 0 0 0
166 2 6.864983317020327 15.586009961143438 5.15727350924804 0 0 0
182 2 10.35666355393659 12.165237963345632 5.16738038669193 0 0 0
197 2 10.344558039356691 15.58359914583564 5.209641553110089 0 0 0
237 2 10.374903042809375 12.119813874616204 1.637061048050818 0 0 0
372 3 10.37065734572935 13.764050412017959 3.4144849733050524 0 0 0
375 3 10.238335358001462 15.557733944745783 1.6141541971484905 0 0 0
387 3 8.72458726386388 15.534697822167017 3.4142739395445836 0 0 0
390 3 8.605135382114561 13.8104283268116 5.247750864643091 0 0 0
403 3 6.860623808789342 12.14667514361404 1.6234252999788252 0 0 0
138 1 15.628573415119483 17.299971121283857 5.172884147617979 0 -1 0
363 3 13.929519212928529 17.195596635023296 3.3883264210667963 0 -1 0
392 3 12.116993223743338 17.16902962288066 1.5869856170688017 0 -1 0
438 3 17.280602267425294 12.089185015377007 1.638529813245817 -1 0 0
17 1 15.559087651645324 13.842075700737443 1.6518679980194415 0 0 0
54 1 13.84161633815949 12.134972817000218 1.6864536696114616 0 0 0
112 1 12.069137093755598 13.838873823496648 5.16481152194586 0 0 0
167 2 15.593355549247974 13.846019378184323 5.16920126662491 0 0 0
170 2 13.92263493936516 15.598536999669962 1.5823781339249665 0 0 0
183 2 12.129461007757344 12.12654672753323 3.395409039427449 0 0 0
214 2 13.830425861605452 12.128330423172887 5.067060503695927 0 0 0
336 3 12.06026724595429 12.10922950544118 -0.04548766250115006 0 0 0
370 3 11.9956334663674 15.669527139252095 3.446221185333029 0 0 0
374 3 12.091053704958247 13.93462980987023 1.6756053556937072 0 0 0
443 3 13.782573146314439 13.962907935966292 3.416799773428561 0 0 0
447 3 13.864401369674175 15.560755177148888 5.233761751816959 0 0 0
454 3 15.564984854971243 12.117351329861705 3.47944260342098 0 0 0
494 3 15.63955567158448 15.605266644797316 3.392846046023181 0 0 0
4 1 5.157470324012137 5.134387553254452 10.364107054037962 0 0 0
14 1 5.1591755351087905 1.676727342559229 6.901458841236165 0 0 0
21 1 1.6898071364285447 5.159999842391382 10.359679748004096 0 0 0
32 1 -0.03248534489664731 1.649600106426339 8.639559841033522 0 0 0
111 1 5.150805622020373 3.4003016528583245 8.653770351665601 0 0 0
249 2 3.379133538435701 3.3808949947186018 10.361990676578106 0 0 0
257 2 3.4032285141798266 3.45548560915787 6.875295669499989 0 0 0
293 2 1.7151782316549904 1.6739809732823487 10.391983294720795 0 0 0
301 2 5.145575062460851 1.6415771834146722 10.354165110533616 0 0 0
313 2 1.6816783449276804 3.368174492677611 8.648871852731677 0 0 0
315 2 -0.021053099078937917 3.381031556597958 6.897722760585724 0 0 0
358 3 3.4338391778141437 1.7020666507642404 8.642997775744576 0 0 0
359 3 5.198410726130408 -0.05619741976220338 8.66705312650624 0 0 0
371 3 3.3600681853744834 5.041235645910044 8.626775226297838 0 0 0
418 3 5.163753064664747 5.125649994972187 6.913446255322951 0 0 0
451 3 1.6228707129802804 5.07942393926322 6.905967863616439 0 0 0
460 3 0.0034492869731979 3.3544108975358378 10.413544923695124 0 0 0
477 3 1.663115319583017 1.6697389091378607 6.820773088966879 0 0 0
61 1 10.318616556113573 -0.06458097045223023 6.943129138266808 0 0 0
62 1 8.588875708158906 1.6381512102931408 6.893896060104795 0 0 0
76 1 10.36757263295849 5.091830116088966 8.59111989204483 0 0 0
98 1 8.630602643703309 3.3768433817643086 8.611390550577022 0 0 0
220 2 10.356681660585368 3.380295059469667 6.856228776149756 0 0 0
222 2 10.38134075908736 3.404240452198659 10.410020687222913 0 0 0
259 2 6.880596074407022 1.6241082205242345 8.675834637249926 0 0 0
314 2 8.597333164145342 1.7009513087223116 10.351060062832504 0 0 0
325 2 6.914315377888886 5.123383564147775 8.606595148397384 0 0 0
384 3 6.873737013604653 3.3862717567094465 6.906132574735212 0 0 0
385 3 8.615189926113205 5.048387861242462 6.829537179442388 0 0 0
386 3 6.903245688226491 3.391150057806748 10.336409481331245 0 0 0
388 3 8.674121341110014 5.025768908653099 10.355354104814712 0 0 0
420 3 8.52914748581789 -0.05422957852472161 8.695088081087594 0 0 0
421 3 10.344680528055969 1.7115230508474375 8.682319837941934 0 0 0
465 3 17.292126492236836 5.126563628289717 8.634420865409263 -1 0 0
2 1 13.804277029079447 3.4267890664789977 10.38283192387646 0 0 0
7 1 13.83120690829328 5.140585386919717 8.614478082061964 0 0 0
9 1 15.633061898381177 1.6497227219957855 6.891549475400196 0 0 0
47 1 15.549188244902222 5.113943285953417 10.385549592752968 0 0 0
63 1 12.084198283032444 -0.06246616209830788 8.640767246622293 0 0 0
64 1 12.074130126687301 1.6441761276424405 6.929126217024 0 0 0
67 1 12.117722402857831 1.651011556925808 10.363455351476427 0 0 0
199 2 13.85208379096282 3.3562865466621123 6.908853438519988 0 0 0
221 2 12.131492591973602 5.044734241034708 6.848317530909403 0 0 0
352 3 12.068264796544575 5.257309990369134 10.429049757937328 0 0 0
356 3 13.862957370808275 1.6608666268581194 8.622638548703815 0 0 0
407 3 12.097249169306924 3.4543544851684125 8.598066962979976 0 0 0
461 3 13.845893084530907 -0.057973187695096275 10.359851213621218 0 0 0
471 3 15.61959101321455 3.420214965314946 8.559946444644682 0 0 0
479 3 15.581976974800444 5.181425360550687 6.888568558749626 0 0 0
500 3 15.548708853438878 1.6770659722179793 10.422840463151672 0 0 0
51 1 1.6985320765237408 6.87927058353594 8.622345258152277 0 0 0
53 1 -0.031465435104280806 6.930353409821327 6.883602150803427 0 0 0
136 1 5.1620499047828865 10.409179109344679 8.62484357493721 0 0 0
144 1 5.127152372041983 6.872817962708478 8.632433144680656 0 0 0
145 1 3.399746406535471 6.868056777991599 6.899948263848632 0 0 0
242 2 1.6837266591452522 8.70304914966461 6.9170734079110385 0 0 0
264 2 5.2216948532974214 8.649085037394746 10.344291831992695 0 0 0
273 2 3.378672920729681 10.325864884334866 6.8847623139477765 0 0 0
277 2 3.430053111912299 10.323728878031408 10.373557002324517 0 0 0
331 3 3.412677605964165 8.693309137989688 8.676746563064954 0 0 0
332 3 5.136772875462654 8.656902721369988 6.826559781538404 0 0 0
333 3 3.4356987803198007 6.924690585094768 10.478763437715989 0 0 0
431 3 1.7034266444185373 8.660641417107568 10.362627630986387 0 0 0
448 3 1.6215441471784164 10.416419383990542 8.623545666627004 0 0 0
88 1 6.839903451407543 6.892372312433713 6.844072664266448 0 0 0
156 2 8.647502565310539 10.420559381965804 8.60623844737382 0 0 0
185 2 10.3381388695281 10.40604221190754 6.902068585896049 0 0 0
189 2 10.37585864719431 10.438603272825684 10.336678414783522 0 0 0
303 2 8.628854941664192 8.696601309218957 6.881851361083931 0 0 0
344 3 10.145993096844501 6.8774132088456446 10.306911291662002 0 0 0
345 3 10.390839001047103 8.710321430050817 8.516097919972207 0 0 0
346 3 10.410584918738818 6.84628099695589 6.855552160223396 0 0 0
394 3 6.906285101423296 8.630860383980338 8.6284782161568 0 0 0
395 3 8.596868860044182 6.889164782220124 8.448195916136799 0 0 0
397 3 6.941043587827274 6.80789397365312 10.32503365100249 0 0 0
400 3 8.715187072622989 8.698680583598879 10.341847475197698 0 0 0
401 3 6.898866198675691 10.439068066778788 10.315965681191225 0 0 0
402 3 6.946460193654807 10.41380215131293 6.92278965819496 0 0 0
52 1 17.2919463459885 8.606906721552019 8.636071683689405 -1 0 0
272 2 17.272944110362186 10.340713435862556 10.394681374587755 -1 0 0
444 3 17.23825503064589 10.321834881098399 6.887030386258575 -1 0 0
469 3 17.23151372483557 6.897052368097652 10.395721168798952 -1 0 0
134 1 12.07370566074716 6.856163914347517 8.590342661979921 0 0 0
150 2 15.578403489304204 10.339865387884641 8.635256398555352 0 0 0
188 2 12.046107979963805 10.394029348823306 8.591194973428456 0 0 0
223 2 15.604143492346902 8.637995389966644 10.363373890415659 0 0 0
229 2 15.518068218172916 8.617969128793833 6.92433015687582 0 0 0
230 2 15.553762247252777 6.88130535096938 8.580314890238153 0 0 0
231 2 12.1116290072851 8.670955145785914 6.877294229695895 0 0 0
232 2 13.793484762942008 6.885966912398697 6.870190264094272 0 0 0
338 3 11.964162200216276 8.598456018845264 10.380650790347024 0 0 0
432 3 13.929695018886475 6.872257551413838 10.352706355494105 0 0 0
435 3 13.802495547434496 8.59945593134116 8.572772839284841 0 0 0
452 3 13.847743034122395 10.412365577569611 6.903928999702096 0 0 0
456 3 13.737723409822493 10.366909884550813 10.344248286086865 0 0 0
31 1 1.6793962986278939 17.308285406882263 8.611490704369372 0 -1 0
33 1 -0.040171227573372305 17.280869622465275 6.900565795609311 0 -1 0
306 2 3.4031383665347112 17.279512683448818 6.865470356367798 0 -1 0
361 3 3.4060549232768595 17.25749303685709 10.356758973100858 0 -1 0
496 3 -0.01016965387120567 17.287062959010296 10.37364350948991 0 -1 0
74 1 3.4122746901577927 13.868641063751936 10.393366090453979 0 0 0
75 1 5.1584333597611405 13.828169246019735 8.646978617772222 0 0 0
129 1 5.166001533837253 12.123738756851752 10.371393530013012 0 0 0
135 1 5.164843362905815 12.117624582682648 6.89610657795972 0 0 0
244 2 3.397219355119032 13.856982687757109 6.890127235131328 0 0 0
246 2 1.71837829527915 15.541985513299126 6.873366741004065 0 0 0
251 2 -0.025491313294845046 13.851461097108348 10.36916166424108 0 0 0
278 2 -0.031229254395884285 13.852054155241246 6.8899320023733015 0 0 0
282 2 1.6945675486787206 13.834680068243216 8.646555104790975 0 0 0
309 2 1.6471965542734777 15.53583311126977 10.385380361261431 0 0 0
343 3 3.4261613364665924 12.119869506836777 8.58882883910241 0 0 0
408 3 3.324883467291854 15.545278926477062 8.58675478480036 0 0 0
409 3 5.186441974378423 15.506317106738791 6.851272166826927 0 0 0
411 3 5.203337223625262 15.56503549778621 10.411858872809015 0 0 0
449 3 1.6635789646091435 12.11614939845608 6.835573355381712 0 0 0
484 3 -0.021751360878605845 15.51771032530021 8.597823548464543 0 0 0
493 3 1.719876095561576 12.103750737544233 10.399415304504855 0 0 0
65 1 10.345779624697645 17.28289742176743 10.36791326064573 0 -1 0
258 2 6.876179433976119 17.283923689173232 6.8465205789645545 0 -1 0
311 2 6.890813869456797 17.290996800245384 10.386998329670837 0 -1 0
95 1 6.904355102566089 15.558968653988241 8.631583830805132 0 0 0
96 1 8.628818968450016 13.832698353564782 8.62690237304544 0 0 0
97 1 8.607634480969319 15.591689877715542 6.882076721652258 0 0 0
114 1 10.327573533269398 15.550333760031302 8.658052524992607 0 0 0
117 1 10.346572805822493 13.828785209573496 10.353179792740102 0 0 0
155 2 8.666931632565984 12.113215904496176 6.917556389468486 0 0 0
158 2 6.965806991157781 12.14679208960953 8.635879919726094 0 0 0
160 2 6.921624089111801 13.847014670946015 10.394523487144244 0 0 0
168 2 6.900157500783084 13.804093482116372 6.87253975949511 0 0 0
173 2 8.62015664917427 12.088664135875774 10.336823668199887 0 0 0
177 2 8.606956708164287 15.563036862694744 10.413877567161547 0 0 0
186 2 10.35661486497042 12.097789448965106 8.61631511111833 0 0 0
198 2 10.33403637106649 13.818954125556397 6.880944762427175 0 0 0
208 2 15.560543283444174 17.28596804003841 8.637060024428004 0 -1 0
357 3 13.885781878593152 17.27013891627559 6.945477536799844 0 -1 0
445 3 17.292791604717184 12.129356563072209 8.649480804144332 -1 0 0
20 1 15.55732628607151 12.114962196968115 6.872973861287294 0 0 0
29 1 13.817733533084237 13.81711007953733 6.8975873946275525 0 0 0
30 1 13.821567078491869 15.546600378534585 8.653329904481652 0 0 0
35 1 15.565110232869518 15.55181647029846 10.367478334052658 0 0 0
116 1 12.057286863536769 15.53610166705157 6.935566845235053 0 0 0
119 1 12.098509333853144 15.56127690366894 10.377621601923614 0 0 0
147 1 12.084379114009815 12.124396406544141 6.907081243960341 0 0 0
159 2 13.800131464776706 13.766983234937202 10.374161016449388 0 0 0
176 2 15.577731205588746 15.51472134520111 6.941067815753096 0 0 0
191 2 12.108566815130587 12.093073909572725 10.319914339651149 0 0 0
200 2 12.09948179898803 13.757766016761254 8.664792305481848 0 0 0
212 2 13.820659769657398 12.070945719280262 8.67637752909393 0 0 0
466 3 15.49543088249542 12.098670236662082 10.397276393371829 0 0 0
478 3 15.497767168478031 13.838401798260785 8.62656116185299 0 0 0
476 3 1.7102528392498078 1.6760830610538366 17.30853933377816 0 0 -1
10 1 5.140765279231882 1.6875867347947422 17.292050493209107 0 0 -1
26 1 -0.05468687106012127 3.396037299766171 17.28534667877871 0 0 -1
310 2 -0.04867526721333378 -0.04744259854317204 17.30016507999457 0 0 -1
318 2 3.3763597143307296 3.4405773706732217 17.277021551438583 0 0 -1
353 3 5.183314083437026 5.108052547005831 17.281649128589258 0 0 -1
434 3 1.654637379582906 5.106528613454238 17.30113453035914 0 0 -1
19 1 -0.02644141479417493 5.136361223571589 15.554004097904476 0 0 0
28 1 1.694040271495326 -0.06312210550625615 15.52949783133004 0 0 0
110 1 5.152621706342863 3.413293517992868 12.071536630914002 0 0 0
120 1 5.157593141305679 1.6639393959283975 13.84724678902363 0 0 0
125 1 3.43078791554994 1.6626848976060582 12.092449784178056 0 0 0
241 2 5.153164822045426 3.407995267306802 15.606350921400798 0 0 0
247 2 3.4036936412528678 5.151798126287451 12.094194776242645 0 0 0
261 2 1.7222903531085205 5.119060109451507 13.783767037200427 0 0 0
287 2 1.6583448952065187 1.7145596099832368 13.823739824987175 0 0 0
288 2 -0.005753167160141931 -0.06736496397521372 13.772595798641508 0 0 0
296 2 -0.01428263454987274 1.7172643644759578 12.122267660502743 0 0 0
297 2 3.417698231124522 1.7077879193236905 15.56282586400023 0 0 0
308 2 1.704723668253888 3.3736003854410415 15.555597886095018 0 0 0
312 2 1.7325641316472016 3.401749721386137 12.080834302044767 0 0 0
376 3 3.3790009118567057 3.3847156988499547 13.857577959117187 0 0 0
377 3 3.4005551313233635 5.125895915121482 15.480634904942061 0 0 0
378 3 5.160976010617333 5.189338346582616 13.835213766046566 0 0 0
446 3 -0.043864488027823674 1.6322937517182363 15.53950703168277 0 0 0
459 3 -0.04736907571269688 5.160938313013534 12.108939883879033 0 0 0
307 2 6.915736418632136 3.409982957736403 17.286057294497347 0 0 -1
380 3 8.565119309045315 5.174263732439842 17.292700782307833 0 0 -1
417 3 8.66999370092743 1.7278595018861442 17.252049585242204 0 0 -1
58 1 6.877406672973861 1.667513529722446 15.56699107837833 0 0 0
60 1 6.878357874619303 1.6570073917855086 12.116031023791804 0 0 0
66 1 10.332635670065608 1.6512507841411286 12.082310076382765 0 0 0
78 1 10.321722812108348 5.127586751621658 12.144656064232086 0 0 0
225 2 10.302821668003757 5.166283472045653 15.64769589920335 0 0 0
289 2 6.91806721533626 5.130352114444235 12.121340582703278 0 0 0
290 2 8.596603784421593 3.4019989800687735 12.124937431710295 0 0 0
291 2 6.897590897766046 5.169598682250307 15.60910805993017 0 0 0
292 2 8.590158272278485 3.4382081681557426 15.619320827920687 0 0 0
294 2 8.561340339001637 5.108257316107149 13.884313103973211 0 0 0
351 3 10.260330125371746 3.4505329478266367 13.849885566785488 0 0 0
389 3 6.856003490094101 3.448979373274074 13.872805025683489 0 0 0
419 3 10.375020242828343 1.649715917698332 15.539278352933113 0 0 0
429 3 8.677066260127717 1.6655850391123357 13.865231594959775 0 0 0
122 1 13.86573709998382 -0.06262967195021643 17.2420721139367 0 0 -1
124 1 15.582744373752542 1.670732438018435 17.257607629416658 0 0 -1
207 2 13.847866155630355 3.445937119118309 17.305880514570973 0 0 -1
216 2 12.107218861565862 5.144589022897402 17.29200120007107 0 0 -1
455 3 17.300902886971205 3.4164785973091676 13.79358597571385 -1 0 0
16 1 15.577123915594814 1.658476210609478 13.826333142861069 0 0 0
40 1 15.563406541359994 5.174585044719616 13.835258808750996 0 0 0
153 2 12.110577296760377 -0.04691128022845363 12.13285056016231 0 0 0
187 2 15.547459109723453 3.4460062319918414 15.574795801325598 0 0 0
192 2 13.845107398334022 5.157826141228304 15.641568093172447 0 0 0
194 2 15.54666677856256 3.3910134664802603 12.110406380094304 0 0 0
195 2 13.822782712198096 5.180427397760798 12.117844691923363 0 0 0
209 2 13.827705060503012 1.6502513422661023 12.117804441444422 0 0 0
211 2 12.072013740919838 1.67587439744661 13.774009216408936 0 0 0
349 3 12.109826989678231 5.151338765893268 13.921398217238128 0 0 0
350 3 12.06247482809986 3.4493203380710615 15.631683195617365 0 0 0
406 3 12.080417744876033 3.362525624517884 12.072727800365822 0 0 0
472 3 13.722513620838795 -0.0505643582473778 13.804580026913701 0 0 0
480 3 13.816094926487537 1.7368694968046672 15.552133367711525 0 0 0
495 3 13.909924519577437 3.43008485397751 13.853507261933338 0 0 0
499 3 15.69255352645204 -0.0569468230263486 12.114076346885756 0 0 0
105 1 5.159553876117273 8.66304215255869 17.284800933691454 0 0 -1
141 1 3.431445346540764 10.373117057459375 17.286934935891153 0 0 -1
255 2 1.697178711389347 8.605256416626816 17.281230344716928 0 0 -1
340 3 3.426413983240998 6.887208869443353 17.2730909601476 0 0 -1
437 3 -0.03856479460246014 10.235232646290578 17.30671106218582 0 0 -1
37 1 -0.04563455076279926 6.896056999169706 13.818970989310285 0 0 0
38 1 1.703272546518991 10.33009892365465 15.561861524212592 0 0 0
39 1 1.694097464044385 10.352396857523361 12.129411035863534 0 0 0
46 1 1.6619966676394162 6.911154523766005 15.543935122472577 0 0 0
48 1 -0.04374750966664419 8.632488598725073 12.118345961168895 0 0 0
132 1 5.176844984759076 10.35443824878137 12.102753987047263 0 0 0
263 2 5.228342390534099 6.903252996098109 12.050528918590222 0 0 0
265 2 -0.05040861371396284 10.383195457083488 13.854414439545241 0 0 0
266 2 3.4204224754769803 8.599306429596176 15.52772148916366 0 0 0
267 2 5.144178208613018 6.910022312866495 15.597847468415866 0 0 0
268 2 5.163832943634227 8.626809725042198 13.81378059655462 0 0 0
279 2 1.7276071999704121 8.62494802688351 13.841832254868523 0 0 0
281 2 3.4160513193492834 10.319788121957146 13.872953003450988 0 0 0
284 2 1.7052342716781614 6.879833610588353 12.098025015878084 0 0 0
334 3 3.4864276030087358 8.669276467213052 12.117370675873087 0 0 0
335 3 3.4013136423196926 6.941814554987483 13.812795914830721 0 0 0
348 3 5.124026370534772 10.401472961904533 15.52506446059739 0 0 0
226 2 10.369755468326964 6.8518790440700785 17.28977026516482 0 0 -1
295 2 6.861005807851606 6.890121929172739 17.284973787610717 0 0 -1
391 3 8.59453867676991 8.61378649002059 17.239576811249908 0 0 -1
85 1 6.858793109380914 8.631814358862838 15.582753696126739 0 0 0
86 1 6.889162109855263 6.895166151885683 13.878093280039597 0 0 0
106 1 10.34901893818626 10.390691489080966 13.86425796407996 0 0 0
126 1 10.32184720884744 6.8457610266972 13.888457763610766 0 0 0
161 2 8.574794952089725 10.364713853361632 15.60096923820395 0 0 0
172 2 6.919613506397554 10.338539894622182 13.874463415285431 0 0 0
298 2 8.626297840476447 8.668969198128066 13.896309015102856 0 0 0
299 2 8.629381423819867 6.880153951830044 15.601501641944056 0 0 0
337 3 10.389286350369476 8.60306045444027 15.571069407803 0 0 0
342 3 10.275569773804708 8.664773538052533 12.198025657750096 0 0 0
396 3 8.60783845009659 10.473503191907199 12.102335294307288 0 0 0
398 3 6.92803447964053 8.62412667973234 12.113731156696394 0 0 0
399 3 8.579955592109377 6.833747460989265 12.197482943739203 0 0 0
430 3 15.566469857918744 8.565673874745233 17.300622868033223 0 0 -1
463 3 13.802650583781142 10.391797733513377 17.3005144075807 0 0 -1
280 2 17.302809977403374 8.667797976765396 15.531122634838884 -1 0 0
49 1 13.808617067461038 6.899960046124342 13.851145133503907 0 0 0
50 1 13.801166842878933 8.604783063557269 15.581123948941086 0 0 0
108 1 12.066281467082694 10.372441917792587 15.582473378763462 0 0 0
157 2 15.569955843581402 10.30809190424947 12.092932268789173 0 0 0
178 2 15.5897057800511 10.329891124550857 15.594531994924074 0 0 0
190 2 12.052403149148908 10.379209431654168 12.114948017032587 0 0 0
210 2 15.556263086423 6.899022342108989 12.116756310543451 0 0 0
234 2 12.057175200305926 6.850207672667566 15.602949023155372 0 0 0
235 2 12.04661300956567 8.600458182465289 13.812349192391284 0 0 0
339 3 12.029088557842499 6.906256199001129 12.086441645645873 0 0 0
441 3 13.81384480913841 8.626673704068999 12.058896396746226 0 0 0
464 3 15.601077812570352 8.676380364398037 13.84059035313352 0 0 0
467 3 15.572987748334523 6.848830049097845 15.594227316691432 0 0 0
468 3 13.733798772755126 10.303801898881064 13.836193193891978 0 0 0
492 3 3.4620598365899022 17.28253874849748 17.2940094640085 0 -1 -1
44 1 1.7036335420276485 12.099253899596295 17.29127196526373 0 0 -1
139 1 5.139543343645465 12.101772742371942 17.287901645727835 0 0 -1
474 3 1.7673926457446683 15.597736370535417 17.27583336094971 0 0 -1
123 1 3.4028935707747134 17.31095895122195 13.833547009228967 0 -1 0
304 2 5.151188112560452 17.285729262690186 12.067938107339664 0 -1 0
316 2 5.141533014543176 17.305212339508437 15.586071624251547 0 -1 0
481 3 1.6486416438718257 17.293755079093973 12.16465439521246 0 -1 0
13 1 -0.03330713983173297 15.60654416362656 15.540187129125288 0 0 0
71 1 5.144043611807483 13.814755938334548 15.556652594397105 0 0 0
72 1 3.426014304337134 13.853721513164277 13.807574016747765 0 0 0
92 1 5.1741447339931135 12.101148781476132 13.84437355752036 0 0 0
133 1 3.4304700249930007 12.097369683641878 12.114249510266268 0 0 0
238 2 5.208552054445042 13.92289155916314 12.093991571688823 0 0 0
248 2 3.422228548686109 15.587727651459774 12.125755976281273 0 0 0
253 2 5.152425392500464 15.62061996088648 13.798174888743832 0 0 0
254 2 -0.0556420328591257 15.498129192423846 12.080703384164856 0 0 0
274 2 1.6730223682636376 13.862957902306032 12.085334718999398 0 0 0
283 2 3.3825442219685646 12.131292133770799 15.534344641415029 0 0 0
319 2 1.6832733924813101 13.848808454154149 15.592491318745793 0 0 0
320 2 1.6454718511129212 15.528050567395184 13.79530140470024 0 0 0
412 3 3.457412554380813 15.545791422868316 15.547269309245662 0 0 0
473 3 -0.05103317942017355 13.853216114239519 13.860886204876397 0 0 0
497 3 1.7291648279376595 12.123383890248878 13.85956308076094 0 0 0
68 1 10.337317480816251 17.286411776693107 17.27792853981352 0 -1 -1
80 1 6.885339375803132 13.826513538281752 17.29055072901686 0 0 -1
109 1 10.31548428198174 13.844887098887158 17.293980979026077 0 0 -1
164 2 8.56711993723106 15.58865618266849 17.30245107651807 0 0 -1
245 2 8.621694566655473 12.076972347702721 17.303245241972355 0 0 -1
59 1 8.613499543365197 17.29983520676711 12.090310351800648 0 -1 0
149 2 10.366051227883752 17.293859951640993 13.836419041269991 0 -1 0
426 3 6.835818305431878 17.236154980554062 13.827816354484574 0 -1 0
428 3 8.621663210205984 17.23827332659502 15.569560643247147 0 -1 0
87 1 6.88311421279898 12.132613422249694 12.109771759974201 0 0 0
91 1 8.59331825534897 12.129295733613839 13.843651258909313 0 0 0
100 1 6.832621491806214 15.577938991855264 15.55404420214025 0 0 0
101 1 8.593176479297092 13.872688054094729 15.55171829072959 0 0 0
115 1 10.362536726216343 12.127459976868378 12.104291879951058 0 0 0
165 2 6.905313945163191 12.015246226235247 15.580887144309415 0 0 0
174 2 6.9024718835159415 15.59944925530387 12.075622455889356 0 0 0
179 2 8.61776186026335 15.591925970590186 13.818018808579536 0 0 0
201 2 10.30419944380701 15.566396735524421 12.130650321638102 0 0 0
202 2 10.345636469063786 13.862045854231559 13.866464195025822 0 0 0
203 2 10.347950765858254 15.576946767087495 15.515678662886721 0 0 0
328 3 10.276671094054906 12.062142851780255 15.592377639938192 0 0 0
381 3 6.828461077372508 13.890729945060514 13.816773098390122 0 0 0
382 3 8.604342266191903 13.867703939469134 12.070356412517288 0 0 0
498 3 17.278948493760648 13.878553141217305 17.229986006698454 -1 0 -1
169 2 15.573368175034766 15.567048227981093 17.26128710492358 0 0 -1
175 2 13.873689912689038 13.833253594327296 17.29251500484081 0 0 -1
218 2 15.576946685501326 12.108779893679957 17.289760849393275 0 0 -1
373 3 12.136780452923414 15.5738108115865 17.167138523282844 0 0 -1
15 1 15.570093827587868 17.29653501442238 15.514976234051653 0 -1 0
224 2 12.08141096801664 17.291515441959174 15.529164691059938 0 -1 0
450 3 17.2938629828652 12.080144219093286 12.037083679741281 -1 0 0
489 3 17.258844009195606 12.050442526441518 15.590756143939988 -1 0 0
34 1 13.841158589725149 15.581347128018402 12.091779439589349 0 0 0
36 1 15.57191868539701 15.574027715672518 13.803206434821039 0 0 0
118 1 12.077314096560414 13.835077882645187 12.108201030381661 0 0 0
121 1 12.08732502553061 15.560374768542049 13.809013238420142 0 0 0
151 2 15.56658337760838 13.85845595368948 15.59476941306565 0 0 0
152 2 13.852663254145162 15.513451405247343 15.565357246424503 0 0 0
154 2 13.79873201233626 12.057221846171908 12.071201265325355 0 0 0
171 2 15.548469088739667 13.830723069390798 12.070074779553826 0 0 0
193 2 12.110536104956573 12.12017740271322 13.827164141143333 0 0 0
364 3 12.0717230139358 13.81963219972242 15.553302243208185 0 0 0
436 3 15.560049881782394 12.044450842252566 13.747764768660707 0 0 0
470 3 13.912867239229728 12.122928175834817 15.527289055491638 0 0 0
488 3 13.854383641693381 13.825150655823002 13.81880957271579 0 0 0

Velocities

6 0 0 0
22 0 0 0
23 0 0 0
25 0 0 0
103 0 0 0
113 0 0 0
300 0 0 0
305 0 0 0
326 0 0 0
355 0 0 0
365 0 0 0
367 0 0 0
368 0 0 0
369 0 0 0
486 0 0 0
491 0 0 0
56 0 0 0
57 0 0 0
69 0 0 0
70 0 0 0
73 0 0 0
99 0 0 0
102 0 0 0
180 0 0 0
213 0 0 0
217 0 0 0
322 0 0 0
324 0 0 0
383 0 0 0
414 0 0 0
416 0 0 0
424 0 0 0
425 0 0 0
24 0 0 0
181 0 0 0
317 0 0 0
321 0 0 0
433 0 0 0
11 0 0 0
12 0 0 0
204 0 0 0
206 0 0 0
219 0 0 0
360 0 0 0
362 0 0 0
410 0 0 0
413 0 0 0
422 0 0 0
423 0 0 0
427 0 0 0
482 0 0 0
483 0 0 0
485 0 0 0
487 0 0 0
205 0 0 0
27 0 0 0
45 0 0 0
55 0 0 0
104 0 0 0
107 0 0 0
140 0 0 0
146 0 0 0
148 0 0 0
252 0 0 0
260 0 0 0
262 0 0 0
271 0 0 0
276 0 0 0
327 0 0 0
329 0 0 0
330 0 0 0
453 0 0 0
458 0 0 0
81 0 0 0
83 0 0 0
89 0 0 0
90 0 0 0
93 0 0 0
127 0 0 0
130 0 0 0
142 0 0 0
228 0 0 0
236 0 0 0
286 0 0 0
302 0 0 0
379 0 0 0
393 0 0 0
404 0 0 0
457 0 0 0
18 0 0 0
41 0 0 0
42 0 0 0
43 0 0 0
128 0 0 0
131 0 0 0
143 0 0 0
184 0 0 0
196 0 0 0
215 0 0 0
227 0 0 0
233 0 0 0
347 0 0 0
439 0 0 0
440 0 0 0
462 0 0 0
323 0 0 0
354 0 0 0
490 0 0 0
1 0 0 0
3 0 0 0
5 0 0 0
8 0 0 0
77 0 0 0
79 0 0 0
137 0 0 0
239 0 0 0
240 0 0 0
243 0 0 0
250 0 0 0
269 0 0 0
270 0 0 0
275 0 0 0
341 0 0 0
366 0 0 0
442 0 0 0
475 0 0 0
285 0 0 0
256 0 0 0
405 0 0 0
415 0 0 0
82 0 0 0
84 0 0 0
94 0 0 0
162 0 0 0
163 0 0 0
166 0 0 0
182 0 0 0
197 0 0 0
237 0 0 0
372 0 0 0
375 0 0 0
387 0 0 0
390 0 0 0
403 0 0 0
138 0 0 0
363 0 0 0
392 0 0 0
438 0 0 0
17 0 0 0
54 0 0 0
112 0 0 0
167 0 0 0
170 0 0 0
183 0 0 0
214 0 0 0
336 0 0 0
370 0 0 0
374 0 0 0
443 0 0 0
447 0 0 0
454 0 0 0
494 0 0 0
4 0 0 0
14 0 0 0
21 0 0 0
32 0 0 0
111 0 0 0
249 0 0 0
257 0 0 0
293 0 0 0
301 0 0 0
313 0 0 0
315 0 0 0
358 0 0 0
359 0 0 0
371 0 0 0
418 0 0 0
451 0 0 0
460 0 0 0
477 0 0 0
61 0 0 0
62 0 0 0
76 0 0 0
98 0 0 0
220 0 0 0
222 0 0 0
259 0 0 0
314 0 0 0
325 0 0 0
384 0 0 0
385 0 0 0
386 0 0 0
388 0 0 0
420 0 0 0
421 0 0 0
465 0 0 0
2 0 0 0
7 0 0 0
9 0 0 0
47 0 0 0
63 0 0 0
64 0 0 0
67 0 0 0
199 0 0 0
221 0 0 0
352 0 0 0
356 0 0 0
407 0 0 0
461 0 0 0
471 0 0 0
479 0 0 0
500 0 0 0
51 0 0 0
53 0 0 0
136 0 0 0
144 0 0 0
145 0 0 0
242 0 0 0
264 0 0 0
273 0 0 0
277 0 0 0
331 0 0 0
332 0 0 0
333 0 0 0
431 0 0 0
448 0 0 0
88 0 0 0
156 0 0 0
185 0 0 0
189 0 0 0
303 0 0 0
344 0 0 0
345 0 0 0
346 0 0 0
394 0 0 0
395 0 0 0
397 0 0 0
400 0 0 0
401 0 0 0
402 0 0 0
52 0 0 0
272 0 0 0
444 0 0 0
469 0 0 0
134 0 0 0
150 0 0 0
188 0 0 0
223 0 0 0
229 0 0 0
230 0 0 0
231 0 0 0
232 0 0 0
338 0 0 0
432 0 0 0
435 0 0 0
452 0 0 0
456 0 0 0
31 0 0 0
33 0 0 0
306 0 0 0
361 0 0 0
496 0 0 0
74 0 0 0
75 0 0 0
129 0 0 0
135 0 0 0
244 0 0 0
246 0 0 0
251 0 0 0
278 0 0 0
282 0 0 0
309 0 0 0
343 0 0 0
408 0 0 0
409 0 0 0
411 0 0 0
449 0 0 0
484 0 0 0
493 0 0 0
65 0 0 0
258 0 0 0
311 0 0 0
95 0 0 0
96 0 0 0
97 0 0 0
114 0 0 0
117 0 0 0
155 0 0 0
158 0 0 0
160 0 0 0
168 0 0 0
173 0 0 0
177 0 0 0
186 0 0 0
198 0 0 0
208 0 0 0
357 0 0 0
445 0 0 0
20 0 0 0
29 0 0 0
30 0 0 0
35 0 0 0
116 0 0 0
119 0 0 0
147 0 0 0
159 0 0 0
176 0 0 0
191 0 0 0
200 0 0 0
212 0 0 0
466 0 0 0
478 0 0 0
476 0 0 0
10 0 0 0
26 0 0 0
310 0 0 0
318 0 0 0
353 0 0 0
434 0 0 0
19 0 0 0
28 0 0 0
110 0 0 0
120 0 0 0
125 0 0 0
241 0 0 0
247 0 0 0
261 0 0 0
287 0 0 0
288 0 0 0
296 0 0 0
297 0 0 0
308 0 0 0
312 0 0 0
376 0 0 0
377 0 0 0
378 0 0 0
446 0 0 0
459 0 0 0
307 0 0 0
380 0 0 0
417 0 0 0
58 0 0 0
60 0 0 0
66 0 0 0
78 0 0 0
225 0 0 0
289 0 0 0
290 0 0 0
291 0 0 0
292 0 0 0
294 0 0 0
351 0 0 0
389 0 0 0
419 0 0 0
429 0 0 0
122 0 0 0
124 0 0 0
207 0 0 0
216 0 0 0
455 0 0 0
16 0 0 0
40 0 0 0
153 0 0 0
187 0 0 0
192 0 0 0
194 0 0 0
195 0 0 0
209 0 0 0
211 0 0 0
349 0 0 0
350 0 0 0
406 0 0 0
472 0 0 0
480 0 0 0
495 0 0 0
499 0 0 0
105 0 0 0
141 0 0 0
255 0 0 0
340 0 0 0
437 0 0 0
37 0 0 0
38 0 0 0
39 0 0 0
46 0 0 0
48 0 0 0
132 0 0 0
263 0 0 0
265 0 0 0
266 0 0 0
267 0 0 0
268 0 0 0
279 0 0 0
281 0 0 0
284 0 0 0
334 0 0 0
335 0 0 0
348 0 0 0
226 0 0 0
295 0 0 0
391 0 0 0
85 0 0 0
86 0 0 0
106 0 0 0
126 0 0 0
161 0 0 0
172 0 0 0
298 0 0 0
299 0 0 0
337 0 0 0
342 0 0 0
396 0 0 0
398 0 0 0
399 0 0 0
430 0 0 0
463 0 0 0
280 0 0 0
49 0 0 0
50 0 0 0
108 0 0 0
157 0 0 0
178 0 0 0
190 0 0 0
210 0 0 0
234 0 0 0
235 0 0 0
339 0 0 0
441 0 0 0
464 0 0 0
467 0 0 0
468 0 0 0
492 0 0 0
44 0 0 0
139 0 0 0
474 0 0 0
123 0 0 0
304 0 0 0
316 0 0 0
481 0 0 0
13 0 0 0
71 0 0 0
72 0 0 0
92 0 0 0
133 0 0 0
238 0 0 0
248 0 0 0
253 0 0 0
254 0 0 0
274 0 0 0
283 0 0 0
319 0 0 0
320 0 0 0
412 0 0 0
473 0 0 0
497 0 0 0
68 0 0 0
80 0 0 0
109 0 0 0
164 0 0 0
245 0 0 0
59 0 0 0
149 0 0 0
426 0 0 0
428 0 0 0
87 0 0 0
91 0 0 0
100 0 0 0
101 0 0 0
115 0 0 0
165 0 0 0
174 0 0 0
179 0 0 0
201 0 0 0
202 0 0 0
203 0 0 0
328 0 0 0
381 0 0 0
382 0 0 0
498 0 0 0
169 0 0 0
175 0 0 0
218 0 0 0
373 0 0 0
15 0 0 0
224 0 0 0
450 0 0 0
489 0 0 0
34 0 0 0
36 0 0 0
118 0 0 0
121 0 0 0
151 0 0 0
152 0 0 0
154 0 0 0
171 0 0 0
193 0 0 0
364 0 0 0
436 0 0 0
470 0 0 0
488 0 0 0
