LAMMPS (12 Jun 2025)
  using 8 OpenMP thread(s) per MPI task
Reading data file ...
  triclinic box = (-0.011615444 -0.025955438 -0.019791948) to (17.361615 17.375955 17.369792) with tilt (1.0655597e-15 1.0648049e-15 1.0648049e-15)
  1 by 1 by 1 MPI processor grid
  reading atoms ...
  500 atoms
  reading velocities ...
  500 velocities
  read_data CPU = 0.004 seconds

This is the PET-MAD v1.0.2 model
================================

A universal interatomic potential for advanced materials modeling

Model authors
-------------

- Arslan Mazitov (arslan.mazitov@epfl.ch)
- Filippo Bigi
- Matthias Kellner
- Paolo Pegolo
- Davide Tisi
- Guillaume Fraux
- Sergey Pozdnyakov
- Philip Loche
- Michele Ceriotti (michele.ceriotti@epfl.ch)

Model references
----------------

Please cite the following references when using this model:
- about this specific model:
  * http://arxiv.org/abs/2503.14118
- about the architecture of this model:
  * LLPR (uncertainty method):
    https://iopscience.iop.org/article/10.1088/2632-2153/ad805f
  * LPR (if using per-atom uncertainty):
    https://pubs.acs.org/doi/10.1021/acs.jctc.3c00704
  * https://arxiv.org/abs/2305.19302v3

WARNING: the model declared support for unknown device 'cuda', it will be ignored (src/ML-METATOMIC/pair_metatomic.cpp:216)
Running simulation on cpu device with float32 data

CITE-CITE-CITE-CITE-CITE-CITE-CITE-CITE-CITE-CITE-CITE-CITE-CITE

Your simulation uses code contributions which should be cited:
- LLPR (uncertainty method): https://iopscience.iop.org/article/10.1088/2632-2153/ad805f
- LPR (if using per-atom uncertainty): https://pubs.acs.org/doi/10.1021/acs.jctc.3c00704
- https://arxiv.org/abs/2305.19302v3
- http://arxiv.org/abs/2503.14118
The log file lists these citations in BibTeX format.

CITE-CITE-CITE-CITE-CITE-CITE-CITE-CITE-CITE-CITE-CITE-CITE-CITE

Neighbor list info ...
  update: every = 1 steps, delay = 0 steps, check = yes
  max neighbors/atom: 2000, page size: 100000
  master list distance cutoff = 11
  ghost atom cutoff = 11
  binsize = 5.5, bins = 4 4 4
  1 neighbor lists, perpetual/occasional/extra = 1 0 0
  (1) pair metatomic, perpetual
      attributes: full, newton on, ghost
      pair build: full/bin/ghost
      stencil: full/ghost/bin/3d
      bin: standard
Setting up cg style minimization ...
  Unit style    : metal
  Current step  : 0
WARNING: Energy due to 3 extra global DOFs will be included in minimizer energies
 (src/min.cpp:222)
Per MPI rank memory allocation (min/avg/max) = 19.79 | 19.79 | 19.79 Mbytes
   Step          Temp          PotEng         Press           Pxx            Pyy            Pzz            Pxy            Pxz            Pyz             Lx             Ly             Lz           Volume    
         0   0             -3819.1753     -0.016564521   -167.29968      156.17108      11.078904      625.45496     -598.13005      389.33843      17.373231      17.401911      17.389584      5257.348     
Loop time of 3.772e-06 on 8 procs for 0 steps with 500 atoms

901.4% CPU use with 1 MPI tasks x 8 OpenMP threads

Minimization stats:
  Stopping criterion = max iterations
  Energy initial, next-to-last, final = 
     -3819.17529296875 4.64273138826908e-310  -3819.17529296875
  Force two-norm initial, final = 0.75206856 0.75206856
  Force max component initial, final = 0.54897362 0.54897362
  Final line search alpha, max atom move = 0 0
  Iterations, force evaluations = 0 0

MPI task timing breakdown:
Section |  min time  |  avg time  |  max time  |%varavg| %total
---------------------------------------------------------------
Pair    | 0          | 0          | 0          |   0.0 |  0.00
Neigh   | 0          | 0          | 0          |   0.0 |  0.00
Comm    | 0          | 0          | 0          |   0.0 |  0.00
Output  | 0          | 0          | 0          |   0.0 |  0.00
Modify  | 0          | 0          | 0          |   0.0 |  0.00
Other   |            | 3.772e-06  |            |       |100.00

Nlocal:            500 ave         500 max         500 min
Histogram: 1 0 0 0 0 0 0 0 0 0
Nghost:           5584 ave        5584 max        5584 min
Histogram: 1 0 0 0 0 0 0 0 0 0
Neighs:              0 ave           0 max           0 min
Histogram: 1 0 0 0 0 0 0 0 0 0
FullNghs:       271228 ave      271228 max      271228 min
Histogram: 1 0 0 0 0 0 0 0 0 0

Total # of neighbors = 271228
Ave neighs/atom = 542.456
Neighbor list builds = 0
Dangerous builds = 0
Displacing atoms ...
System init for write_restart ...
  using 8 OpenMP thread(s) per MPI task

The 'box' command has been removed and will be ignored

Reading restart file ...
  restart file = 12 Jun 2025, LAMMPS = 12 Jun 2025
  restoring atom style atomic from restart
  triclinic box = (-0.011615444 -0.025955438 -0.019791948) to (17.361615 17.375955 17.369792) with tilt (1.0655597e-15 1.0648049e-15 1.0648049e-15)
  1 by 1 by 1 MPI processor grid
  pair style metatomic stores no restart info
  500 atoms
  read_restart CPU = 0.001 seconds

This is the PET-MAD v1.0.2 model
================================

A universal interatomic potential for advanced materials modeling

Model authors
-------------

- Arslan Mazitov (arslan.mazitov@epfl.ch)
- Filippo Bigi
- Matthias Kellner
- Paolo Pegolo
- Davide Tisi
- Guillaume Fraux
- Sergey Pozdnyakov
- Philip Loche
- Michele Ceriotti (michele.ceriotti@epfl.ch)

Model references
----------------

Please cite the following references when using this model:
- about this specific model:
  * http://arxiv.org/abs/2503.14118
- about the architecture of this model:
  * LLPR (uncertainty method):
    https://iopscience.iop.org/article/10.1088/2632-2153/ad805f
  * LPR (if using per-atom uncertainty):
    https://pubs.acs.org/doi/10.1021/acs.jctc.3c00704
  * https://arxiv.org/abs/2305.19302v3

WARNING: the model declared support for unknown device 'cuda', it will be ignored (src/ML-METATOMIC/pair_metatomic.cpp:216)
Running simulation on cpu device with float32 data
Changing box ...
  triclinic box = (-0.011615444 -0.025955438 -0.019791948) to (17.361546 17.375955 17.369792) with tilt (1.0655597e-15 1.0648049e-15 1.0648049e-15)
  triclinic box = (-0.011615444 -0.025955438 -0.019791948) to (17.361546 17.375955 17.369792) with tilt (1.0655555e-15 1.0648049e-15 1.0648049e-15)
  triclinic box = (-0.011615444 -0.025955438 -0.019791948) to (17.361546 17.375955 17.369792) with tilt (1.0655555e-15 1.0648007e-15 1.0648049e-15)
Neighbor list info ...
  update: every = 1 steps, delay = 0 steps, check = yes
  max neighbors/atom: 2000, page size: 100000
  master list distance cutoff = 11
  ghost atom cutoff = 11
  binsize = 5.5, bins = 4 4 4
  1 neighbor lists, perpetual/occasional/extra = 1 0 0
  (1) pair metatomic, perpetual
      attributes: full, newton on, ghost
      pair build: full/bin/ghost
      stencil: full/ghost/bin/3d
      bin: standard
Setting up cg style minimization ...
  Unit style    : metal
  Current step  : 0
Per MPI rank memory allocation (min/avg/max) = 19.79 | 19.79 | 19.79 Mbytes
   Step          Temp          PotEng         Press           Pxx            Pyy            Pzz            Pxy            Pxz            Pyz             Lx             Ly             Lz           Volume    
         0   0             -3819.1753      10.962474     -151.65873      164.76205      19.784098      625.34212     -598.31716      389.24238      17.373161      17.401911      17.389584      5257.3269    
Loop time of 4.128e-06 on 8 procs for 0 steps with 500 atoms

847.9% CPU use with 1 MPI tasks x 8 OpenMP threads

Minimization stats:
  Stopping criterion = max iterations
  Energy initial, next-to-last, final = 
     -3819.17529296875                  0  -3819.17529296875
  Force two-norm initial, final = 0.017533225 0.017533225
  Force max component initial, final = 0.0052844882 0.0052844882
  Final line search alpha, max atom move = 0 0
  Iterations, force evaluations = 0 0

MPI task timing breakdown:
Section |  min time  |  avg time  |  max time  |%varavg| %total
---------------------------------------------------------------
Pair    | 0          | 0          | 0          |   0.0 |  0.00
Neigh   | 0          | 0          | 0          |   0.0 |  0.00
Comm    | 0          | 0          | 0          |   0.0 |  0.00
Output  | 0          | 0          | 0          |   0.0 |  0.00
Modify  | 0          | 0          | 0          |   0.0 |  0.00
Other   |            | 4.128e-06  |            |       |100.00

Nlocal:            500 ave         500 max         500 min
Histogram: 1 0 0 0 0 0 0 0 0 0
Nghost:           5584 ave        5584 max        5584 min
Histogram: 1 0 0 0 0 0 0 0 0 0
Neighs:              0 ave           0 max           0 min
Histogram: 1 0 0 0 0 0 0 0 0 0
FullNghs:       271228 ave      271228 max      271228 min
Histogram: 1 0 0 0 0 0 0 0 0 0

Total # of neighbors = 271228
Ave neighs/atom = 542.456
Neighbor list builds = 0
Dangerous builds = 0
  using 8 OpenMP thread(s) per MPI task

The 'box' command has been removed and will be ignored

Reading restart file ...
  restart file = 12 Jun 2025, LAMMPS = 12 Jun 2025
  restoring atom style atomic from restart
  triclinic box = (-0.011615444 -0.025955438 -0.019791948) to (17.361615 17.375955 17.369792) with tilt (1.0655597e-15 1.0648049e-15 1.0648049e-15)
  1 by 1 by 1 MPI processor grid
  pair style metatomic stores no restart info
  500 atoms
  read_restart CPU = 0.006 seconds

This is the PET-MAD v1.0.2 model
================================

A universal interatomic potential for advanced materials modeling

Model authors
-------------

- Arslan Mazitov (arslan.mazitov@epfl.ch)
- Filippo Bigi
- Matthias Kellner
- Paolo Pegolo
- Davide Tisi
- Guillaume Fraux
- Sergey Pozdnyakov
- Philip Loche
- Michele Ceriotti (michele.ceriotti@epfl.ch)

Model references
----------------

Please cite the following references when using this model:
- about this specific model:
  * http://arxiv.org/abs/2503.14118
- about the architecture of this model:
  * LLPR (uncertainty method):
    https://iopscience.iop.org/article/10.1088/2632-2153/ad805f
  * LPR (if using per-atom uncertainty):
    https://pubs.acs.org/doi/10.1021/acs.jctc.3c00704
  * https://arxiv.org/abs/2305.19302v3

WARNING: the model declared support for unknown device 'cuda', it will be ignored (src/ML-METATOMIC/pair_metatomic.cpp:216)
Running simulation on cpu device with float32 data
Changing box ...
  triclinic box = (-0.011615444 -0.025955438 -0.019791948) to (17.361685 17.375955 17.369792) with tilt (1.0655597e-15 1.0648049e-15 1.0648049e-15)
  triclinic box = (-0.011615444 -0.025955438 -0.019791948) to (17.361685 17.375955 17.369792) with tilt (1.065564e-15 1.0648049e-15 1.0648049e-15)
  triclinic box = (-0.011615444 -0.025955438 -0.019791948) to (17.361685 17.375955 17.369792) with tilt (1.065564e-15 1.0648092e-15 1.0648049e-15)
Neighbor list info ...
  update: every = 1 steps, delay = 0 steps, check = yes
  max neighbors/atom: 2000, page size: 100000
  master list distance cutoff = 11
  ghost atom cutoff = 11
  binsize = 5.5, bins = 4 4 4
  1 neighbor lists, perpetual/occasional/extra = 1 0 0
  (1) pair metatomic, perpetual
      attributes: full, newton on, ghost
      pair build: full/bin/ghost
      stencil: full/ghost/bin/3d
      bin: standard
Setting up cg style minimization ...
  Unit style    : metal
  Current step  : 0
Per MPI rank memory allocation (min/avg/max) = 19.79 | 19.79 | 19.79 Mbytes
   Step          Temp          PotEng         Press           Pxx            Pyy            Pzz            Pxy            Pxz            Pyz             Lx             Ly             Lz           Volume    
         0   0             -3819.175      -11.260427     -183.41292      147.37293      2.2587117      625.34004     -598.25501      389.28563      17.3733        17.401911      17.389584      5257.369     
Loop time of 3.567e-06 on 8 procs for 0 steps with 500 atoms

981.2% CPU use with 1 MPI tasks x 8 OpenMP threads

Minimization stats:
  Stopping criterion = max iterations
  Energy initial, next-to-last, final = 
     -3819.17504882812 -nan                -3819.17504882812
  Force two-norm initial, final = 0.017551307 0.017551307
  Force max component initial, final = 0.0053279102 0.0053279102
  Final line search alpha, max atom move = 0 0
  Iterations, force evaluations = 0 0

MPI task timing breakdown:
Section |  min time  |  avg time  |  max time  |%varavg| %total
---------------------------------------------------------------
Pair    | 0          | 0          | 0          |   0.0 |  0.00
Neigh   | 0          | 0          | 0          |   0.0 |  0.00
Comm    | 0          | 0          | 0          |   0.0 |  0.00
Output  | 0          | 0          | 0          |   0.0 |  0.00
Modify  | 0          | 0          | 0          |   0.0 |  0.00
Other   |            | 3.567e-06  |            |       |100.00

Nlocal:            500 ave         500 max         500 min
Histogram: 1 0 0 0 0 0 0 0 0 0
Nghost:           5584 ave        5584 max        5584 min
Histogram: 1 0 0 0 0 0 0 0 0 0
Neighs:              0 ave           0 max           0 min
Histogram: 1 0 0 0 0 0 0 0 0 0
FullNghs:       271226 ave      271226 max      271226 min
Histogram: 1 0 0 0 0 0 0 0 0 0

Total # of neighbors = 271226
Ave neighs/atom = 542.452
Neighbor list builds = 0
Dangerous builds = 0
  using 8 OpenMP thread(s) per MPI task

The 'box' command has been removed and will be ignored

Reading restart file ...
  restart file = 12 Jun 2025, LAMMPS = 12 Jun 2025
  restoring atom style atomic from restart
  triclinic box = (-0.011615444 -0.025955438 -0.019791948) to (17.361615 17.375955 17.369792) with tilt (1.0655597e-15 1.0648049e-15 1.0648049e-15)
  1 by 1 by 1 MPI processor grid
  pair style metatomic stores no restart info
  500 atoms
  read_restart CPU = 0.001 seconds

This is the PET-MAD v1.0.2 model
================================

A universal interatomic potential for advanced materials modeling

Model authors
-------------

- Arslan Mazitov (arslan.mazitov@epfl.ch)
- Filippo Bigi
- Matthias Kellner
- Paolo Pegolo
- Davide Tisi
- Guillaume Fraux
- Sergey Pozdnyakov
- Philip Loche
- Michele Ceriotti (michele.ceriotti@epfl.ch)

Model references
----------------

Please cite the following references when using this model:
- about this specific model:
  * http://arxiv.org/abs/2503.14118
- about the architecture of this model:
  * LLPR (uncertainty method):
    https://iopscience.iop.org/article/10.1088/2632-2153/ad805f
  * LPR (if using per-atom uncertainty):
    https://pubs.acs.org/doi/10.1021/acs.jctc.3c00704
  * https://arxiv.org/abs/2305.19302v3

WARNING: the model declared support for unknown device 'cuda', it will be ignored (src/ML-METATOMIC/pair_metatomic.cpp:216)
Running simulation on cpu device with float32 data
Changing box ...
  triclinic box = (-0.011615444 -0.025955438 -0.019791948) to (17.361615 17.375886 17.369792) with tilt (1.0655597e-15 1.0648049e-15 1.0648049e-15)
  triclinic box = (-0.011615444 -0.025955438 -0.019791948) to (17.361615 17.375886 17.369792) with tilt (1.0655597e-15 1.0648049e-15 1.0648007e-15)
Neighbor list info ...
  update: every = 1 steps, delay = 0 steps, check = yes
  max neighbors/atom: 2000, page size: 100000
  master list distance cutoff = 11
  ghost atom cutoff = 11
  binsize = 5.5, bins = 4 4 4
  1 neighbor lists, perpetual/occasional/extra = 1 0 0
  (1) pair metatomic, perpetual
      attributes: full, newton on, ghost
      pair build: full/bin/ghost
      stencil: full/ghost/bin/3d
      bin: standard
Setting up cg style minimization ...
  Unit style    : metal
  Current step  : 0
Per MPI rank memory allocation (min/avg/max) = 19.79 | 19.79 | 19.79 Mbytes
   Step          Temp          PotEng         Press           Pxx            Pyy            Pzz            Pxy            Pxz            Pyz             Lx             Ly             Lz           Volume    
         0   0             -3819.1753      10.927592     -158.76924      171.92549      19.62653       625.3874      -598.28143      389.32464      17.373231      17.401841      17.389584      5257.3269    
Loop time of 3.712e-06 on 8 procs for 0 steps with 500 atoms

942.9% CPU use with 1 MPI tasks x 8 OpenMP threads

Minimization stats:
  Stopping criterion = max iterations
  Energy initial, next-to-last, final = 
     -3819.17529296875 -0.388654645287361  -3819.17529296875
  Force two-norm initial, final = 0.017533194 0.017533194
  Force max component initial, final = 0.0053065568 0.0053065568
  Final line search alpha, max atom move = 0 0
  Iterations, force evaluations = 0 0

MPI task timing breakdown:
Section |  min time  |  avg time  |  max time  |%varavg| %total
---------------------------------------------------------------
Pair    | 0          | 0          | 0          |   0.0 |  0.00
Neigh   | 0          | 0          | 0          |   0.0 |  0.00
Comm    | 0          | 0          | 0          |   0.0 |  0.00
Output  | 0          | 0          | 0          |   0.0 |  0.00
Modify  | 0          | 0          | 0          |   0.0 |  0.00
Other   |            | 3.712e-06  |            |       |100.00

Nlocal:            500 ave         500 max         500 min
Histogram: 1 0 0 0 0 0 0 0 0 0
Nghost:           5584 ave        5584 max        5584 min
Histogram: 1 0 0 0 0 0 0 0 0 0
Neighs:              0 ave           0 max           0 min
Histogram: 1 0 0 0 0 0 0 0 0 0
FullNghs:       271228 ave      271228 max      271228 min
Histogram: 1 0 0 0 0 0 0 0 0 0

Total # of neighbors = 271228
Ave neighs/atom = 542.456
Neighbor list builds = 0
Dangerous builds = 0
  using 8 OpenMP thread(s) per MPI task

The 'box' command has been removed and will be ignored

Reading restart file ...
  restart file = 12 Jun 2025, LAMMPS = 12 Jun 2025
  restoring atom style atomic from restart
  triclinic box = (-0.011615444 -0.025955438 -0.019791948) to (17.361615 17.375955 17.369792) with tilt (1.0655597e-15 1.0648049e-15 1.0648049e-15)
  1 by 1 by 1 MPI processor grid
  pair style metatomic stores no restart info
  500 atoms
  read_restart CPU = 0.006 seconds

This is the PET-MAD v1.0.2 model
================================

A universal interatomic potential for advanced materials modeling

Model authors
-------------

- Arslan Mazitov (arslan.mazitov@epfl.ch)
- Filippo Bigi
- Matthias Kellner
- Paolo Pegolo
- Davide Tisi
- Guillaume Fraux
- Sergey Pozdnyakov
- Philip Loche
- Michele Ceriotti (michele.ceriotti@epfl.ch)

Model references
----------------

Please cite the following references when using this model:
- about this specific model:
  * http://arxiv.org/abs/2503.14118
- about the architecture of this model:
  * LLPR (uncertainty method):
    https://iopscience.iop.org/article/10.1088/2632-2153/ad805f
  * LPR (if using per-atom uncertainty):
    https://pubs.acs.org/doi/10.1021/acs.jctc.3c00704
  * https://arxiv.org/abs/2305.19302v3

WARNING: the model declared support for unknown device 'cuda', it will be ignored (src/ML-METATOMIC/pair_metatomic.cpp:216)
Running simulation on cpu device with float32 data
Changing box ...
  triclinic box = (-0.011615444 -0.025955438 -0.019791948) to (17.361615 17.376025 17.369792) with tilt (1.0655597e-15 1.0648049e-15 1.0648049e-15)
  triclinic box = (-0.011615444 -0.025955438 -0.019791948) to (17.361615 17.376025 17.369792) with tilt (1.0655597e-15 1.0648049e-15 1.0648092e-15)
Neighbor list info ...
  update: every = 1 steps, delay = 0 steps, check = yes
  max neighbors/atom: 2000, page size: 100000
  master list distance cutoff = 11
  ghost atom cutoff = 11
  binsize = 5.5, bins = 4 4 4
  1 neighbor lists, perpetual/occasional/extra = 1 0 0
  (1) pair metatomic, perpetual
      attributes: full, newton on, ghost
      pair build: full/bin/ghost
      stencil: full/ghost/bin/3d
      bin: standard
Setting up cg style minimization ...
  Unit style    : metal
  Current step  : 0
Per MPI rank memory allocation (min/avg/max) = 19.79 | 19.79 | 19.79 Mbytes
   Step          Temp          PotEng         Press           Pxx            Pyy            Pzz            Pxy            Pxz            Pyz             Lx             Ly             Lz           Volume    
         0   0             -3819.175      -11.222834     -176.13378      140.03751      2.4277636      625.29358     -598.31054      389.20636      17.373231      17.40198       17.389584      5257.369     
Loop time of 3.504e-06 on 8 procs for 0 steps with 500 atoms

1027.4% CPU use with 1 MPI tasks x 8 OpenMP threads

Minimization stats:
  Stopping criterion = max iterations
  Energy initial, next-to-last, final = 
     -3819.17504882812 -0.388681825005379  -3819.17504882812
  Force two-norm initial, final = 0.017561647 0.017561647
  Force max component initial, final = 0.0053097904 0.0053097904
  Final line search alpha, max atom move = 0 0
  Iterations, force evaluations = 0 0

MPI task timing breakdown:
Section |  min time  |  avg time  |  max time  |%varavg| %total
---------------------------------------------------------------
Pair    | 0          | 0          | 0          |   0.0 |  0.00
Neigh   | 0          | 0          | 0          |   0.0 |  0.00
Comm    | 0          | 0          | 0          |   0.0 |  0.00
Output  | 0          | 0          | 0          |   0.0 |  0.00
Modify  | 0          | 0          | 0          |   0.0 |  0.00
Other   |            | 3.504e-06  |            |       |100.00

Nlocal:            500 ave         500 max         500 min
Histogram: 1 0 0 0 0 0 0 0 0 0
Nghost:           5584 ave        5584 max        5584 min
Histogram: 1 0 0 0 0 0 0 0 0 0
Neighs:              0 ave           0 max           0 min
Histogram: 1 0 0 0 0 0 0 0 0 0
FullNghs:       271226 ave      271226 max      271226 min
Histogram: 1 0 0 0 0 0 0 0 0 0

Total # of neighbors = 271226
Ave neighs/atom = 542.452
Neighbor list builds = 0
Dangerous builds = 0
  using 8 OpenMP thread(s) per MPI task

The 'box' command has been removed and will be ignored

Reading restart file ...
  restart file = 12 Jun 2025, LAMMPS = 12 Jun 2025
  restoring atom style atomic from restart
  triclinic box = (-0.011615444 -0.025955438 -0.019791948) to (17.361615 17.375955 17.369792) with tilt (1.0655597e-15 1.0648049e-15 1.0648049e-15)
  1 by 1 by 1 MPI processor grid
  pair style metatomic stores no restart info
  500 atoms
  read_restart CPU = 0.001 seconds

This is the PET-MAD v1.0.2 model
================================

A universal interatomic potential for advanced materials modeling

Model authors
-------------

- Arslan Mazitov (arslan.mazitov@epfl.ch)
- Filippo Bigi
- Matthias Kellner
- Paolo Pegolo
- Davide Tisi
- Guillaume Fraux
- Sergey Pozdnyakov
- Philip Loche
- Michele Ceriotti (michele.ceriotti@epfl.ch)

Model references
----------------

Please cite the following references when using this model:
- about this specific model:
  * http://arxiv.org/abs/2503.14118
- about the architecture of this model:
  * LLPR (uncertainty method):
    https://iopscience.iop.org/article/10.1088/2632-2153/ad805f
  * LPR (if using per-atom uncertainty):
    https://pubs.acs.org/doi/10.1021/acs.jctc.3c00704
  * https://arxiv.org/abs/2305.19302v3

WARNING: the model declared support for unknown device 'cuda', it will be ignored (src/ML-METATOMIC/pair_metatomic.cpp:216)
Running simulation on cpu device with float32 data
Changing box ...
  triclinic box = (-0.011615444 -0.025955438 -0.019791948) to (17.361615 17.375955 17.369722) with tilt (1.0655597e-15 1.0648049e-15 1.0648049e-15)
Neighbor list info ...
  update: every = 1 steps, delay = 0 steps, check = yes
  max neighbors/atom: 2000, page size: 100000
  master list distance cutoff = 11
  ghost atom cutoff = 11
  binsize = 5.5, bins = 4 4 4
  1 neighbor lists, perpetual/occasional/extra = 1 0 0
  (1) pair metatomic, perpetual
      attributes: full, newton on, ghost
      pair build: full/bin/ghost
      stencil: full/ghost/bin/3d
      bin: standard
Setting up cg style minimization ...
  Unit style    : metal
  Current step  : 0
Per MPI rank memory allocation (min/avg/max) = 19.79 | 19.79 | 19.79 Mbytes
   Step          Temp          PotEng         Press           Pxx            Pyy            Pzz            Pxy            Pxz            Pyz             Lx             Ly             Lz           Volume    
         0   0             -3819.1753      10.984314     -158.67215      164.68005      26.945041      625.28659     -598.29681      389.27971      17.373231      17.401911      17.389514      5257.3269    
Loop time of 3.651e-06 on 8 procs for 0 steps with 500 atoms

958.6% CPU use with 1 MPI tasks x 8 OpenMP threads

Minimization stats:
  Stopping criterion = max iterations
  Energy initial, next-to-last, final = 
     -3819.17529296875 6.9405110198582e-310  -3819.17529296875
  Force two-norm initial, final = 0.017538858 0.017538858
  Force max component initial, final = 0.0053028017 0.0053028017
  Final line search alpha, max atom move = 0 0
  Iterations, force evaluations = 0 0

MPI task timing breakdown:
Section |  min time  |  avg time  |  max time  |%varavg| %total
---------------------------------------------------------------
Pair    | 0          | 0          | 0          |   0.0 |  0.00
Neigh   | 0          | 0          | 0          |   0.0 |  0.00
Comm    | 0          | 0          | 0          |   0.0 |  0.00
Output  | 0          | 0          | 0          |   0.0 |  0.00
Modify  | 0          | 0          | 0          |   0.0 |  0.00
Other   |            | 3.651e-06  |            |       |100.00

Nlocal:            500 ave         500 max         500 min
Histogram: 1 0 0 0 0 0 0 0 0 0
Nghost:           5584 ave        5584 max        5584 min
Histogram: 1 0 0 0 0 0 0 0 0 0
Neighs:              0 ave           0 max           0 min
Histogram: 1 0 0 0 0 0 0 0 0 0
FullNghs:       271228 ave      271228 max      271228 min
Histogram: 1 0 0 0 0 0 0 0 0 0

Total # of neighbors = 271228
Ave neighs/atom = 542.456
Neighbor list builds = 0
Dangerous builds = 0
  using 8 OpenMP thread(s) per MPI task

The 'box' command has been removed and will be ignored

Reading restart file ...
  restart file = 12 Jun 2025, LAMMPS = 12 Jun 2025
  restoring atom style atomic from restart
  triclinic box = (-0.011615444 -0.025955438 -0.019791948) to (17.361615 17.375955 17.369792) with tilt (1.0655597e-15 1.0648049e-15 1.0648049e-15)
  1 by 1 by 1 MPI processor grid
  pair style metatomic stores no restart info
  500 atoms
  read_restart CPU = 0.002 seconds

This is the PET-MAD v1.0.2 model
================================

A universal interatomic potential for advanced materials modeling

Model authors
-------------

- Arslan Mazitov (arslan.mazitov@epfl.ch)
- Filippo Bigi
- Matthias Kellner
- Paolo Pegolo
- Davide Tisi
- Guillaume Fraux
- Sergey Pozdnyakov
- Philip Loche
- Michele Ceriotti (michele.ceriotti@epfl.ch)

Model references
----------------

Please cite the following references when using this model:
- about this specific model:
  * http://arxiv.org/abs/2503.14118
- about the architecture of this model:
  * LLPR (uncertainty method):
    https://iopscience.iop.org/article/10.1088/2632-2153/ad805f
  * LPR (if using per-atom uncertainty):
    https://pubs.acs.org/doi/10.1021/acs.jctc.3c00704
  * https://arxiv.org/abs/2305.19302v3

WARNING: the model declared support for unknown device 'cuda', it will be ignored (src/ML-METATOMIC/pair_metatomic.cpp:216)
Running simulation on cpu device with float32 data
Changing box ...
  triclinic box = (-0.011615444 -0.025955438 -0.019791948) to (17.361615 17.375955 17.369862) with tilt (1.0655597e-15 1.0648049e-15 1.0648049e-15)
Neighbor list info ...
  update: every = 1 steps, delay = 0 steps, check = yes
  max neighbors/atom: 2000, page size: 100000
  master list distance cutoff = 11
  ghost atom cutoff = 11
  binsize = 5.5, bins = 4 4 4
  1 neighbor lists, perpetual/occasional/extra = 1 0 0
  (1) pair metatomic, perpetual
      attributes: full, newton on, ghost
      pair build: full/bin/ghost
      stencil: full/ghost/bin/3d
      bin: standard
Setting up cg style minimization ...
  Unit style    : metal
  Current step  : 0
Per MPI rank memory allocation (min/avg/max) = 19.79 | 19.79 | 19.79 Mbytes
   Step          Temp          PotEng         Press           Pxx            Pyy            Pzz            Pxy            Pxz            Pyz             Lx             Ly             Lz           Volume    
         0   0             -3819.175      -11.263235     -176.19339      147.45489     -5.0511991      625.39439     -598.28462      389.23978      17.373231      17.401911      17.389653      5257.369     
Loop time of 4.231e-06 on 8 procs for 0 steps with 500 atoms

1110.8% CPU use with 1 MPI tasks x 8 OpenMP threads

Minimization stats:
  Stopping criterion = max iterations
  Energy initial, next-to-last, final = 
     -3819.17504882812  -0.38866823514637  -3819.17504882812
  Force two-norm initial, final = 0.017550293 0.017550293
  Force max component initial, final = 0.0053120404 0.0053120404
  Final line search alpha, max atom move = 0 0
  Iterations, force evaluations = 0 0

MPI task timing breakdown:
Section |  min time  |  avg time  |  max time  |%varavg| %total
---------------------------------------------------------------
Pair    | 0          | 0          | 0          |   0.0 |  0.00
Neigh   | 0          | 0          | 0          |   0.0 |  0.00
Comm    | 0          | 0          | 0          |   0.0 |  0.00
Output  | 0          | 0          | 0          |   0.0 |  0.00
Modify  | 0          | 0          | 0          |   0.0 |  0.00
Other   |            | 4.231e-06  |            |       |100.00

Nlocal:            500 ave         500 max         500 min
Histogram: 1 0 0 0 0 0 0 0 0 0
Nghost:           5584 ave        5584 max        5584 min
Histogram: 1 0 0 0 0 0 0 0 0 0
Neighs:              0 ave           0 max           0 min
Histogram: 1 0 0 0 0 0 0 0 0 0
FullNghs:       271228 ave      271228 max      271228 min
Histogram: 1 0 0 0 0 0 0 0 0 0

Total # of neighbors = 271228
Ave neighs/atom = 542.456
Neighbor list builds = 0
Dangerous builds = 0
  using 8 OpenMP thread(s) per MPI task

The 'box' command has been removed and will be ignored

Reading restart file ...
  restart file = 12 Jun 2025, LAMMPS = 12 Jun 2025
  restoring atom style atomic from restart
  triclinic box = (-0.011615444 -0.025955438 -0.019791948) to (17.361615 17.375955 17.369792) with tilt (1.0655597e-15 1.0648049e-15 1.0648049e-15)
  1 by 1 by 1 MPI processor grid
  pair style metatomic stores no restart info
  500 atoms
  read_restart CPU = 0.002 seconds

This is the PET-MAD v1.0.2 model
================================

A universal interatomic potential for advanced materials modeling

Model authors
-------------

- Arslan Mazitov (arslan.mazitov@epfl.ch)
- Filippo Bigi
- Matthias Kellner
- Paolo Pegolo
- Davide Tisi
- Guillaume Fraux
- Sergey Pozdnyakov
- Philip Loche
- Michele Ceriotti (michele.ceriotti@epfl.ch)

Model references
----------------

Please cite the following references when using this model:
- about this specific model:
  * http://arxiv.org/abs/2503.14118
- about the architecture of this model:
  * LLPR (uncertainty method):
    https://iopscience.iop.org/article/10.1088/2632-2153/ad805f
  * LPR (if using per-atom uncertainty):
    https://pubs.acs.org/doi/10.1021/acs.jctc.3c00704
  * https://arxiv.org/abs/2305.19302v3

WARNING: the model declared support for unknown device 'cuda', it will be ignored (src/ML-METATOMIC/pair_metatomic.cpp:216)
Running simulation on cpu device with float32 data
Changing box ...
  triclinic box = (-0.011615444 -0.025955438 -0.019791948) to (17.361615 17.375955 17.369792) with tilt (1.0655597e-15 1.0648049e-15 -6.9558336e-05)
Neighbor list info ...
  update: every = 1 steps, delay = 0 steps, check = yes
  max neighbors/atom: 2000, page size: 100000
  master list distance cutoff = 11
  ghost atom cutoff = 11
  binsize = 5.5, bins = 4 4 4
  1 neighbor lists, perpetual/occasional/extra = 1 0 0
  (1) pair metatomic, perpetual
      attributes: full, newton on, ghost
      pair build: full/bin/ghost
      stencil: full/ghost/bin/3d
      bin: standard
Setting up cg style minimization ...
  Unit style    : metal
  Current step  : 0
Per MPI rank memory allocation (min/avg/max) = 19.79 | 19.79 | 19.79 Mbytes
   Step          Temp          PotEng         Press           Pxx            Pyy            Pzz            Pxy            Pxz            Pyz             Lx             Ly             Lz           Volume    
         0   0             -3819.1753      0.019894682   -167.34869      156.24425      11.164123      625.33431     -598.27914      396.48636      17.373231      17.401911      17.389584      5257.348     
Loop time of 3.998e-06 on 8 procs for 0 steps with 500 atoms

1150.6% CPU use with 1 MPI tasks x 8 OpenMP threads

Minimization stats:
  Stopping criterion = max iterations
  Energy initial, next-to-last, final = 
     -3819.17529296875 -0.388668235146368  -3819.17529296875
  Force two-norm initial, final = 0.017547593 0.017547593
  Force max component initial, final = 0.0053116679 0.0053116679
  Final line search alpha, max atom move = 0 0
  Iterations, force evaluations = 0 0

MPI task timing breakdown:
Section |  min time  |  avg time  |  max time  |%varavg| %total
---------------------------------------------------------------
Pair    | 0          | 0          | 0          |   0.0 |  0.00
Neigh   | 0          | 0          | 0          |   0.0 |  0.00
Comm    | 0          | 0          | 0          |   0.0 |  0.00
Output  | 0          | 0          | 0          |   0.0 |  0.00
Modify  | 0          | 0          | 0          |   0.0 |  0.00
Other   |            | 3.998e-06  |            |       |100.00

Nlocal:            500 ave         500 max         500 min
Histogram: 1 0 0 0 0 0 0 0 0 0
Nghost:           5584 ave        5584 max        5584 min
Histogram: 1 0 0 0 0 0 0 0 0 0
Neighs:              0 ave           0 max           0 min
Histogram: 1 0 0 0 0 0 0 0 0 0
FullNghs:       271228 ave      271228 max      271228 min
Histogram: 1 0 0 0 0 0 0 0 0 0

Total # of neighbors = 271228
Ave neighs/atom = 542.456
Neighbor list builds = 0
Dangerous builds = 0
  using 8 OpenMP thread(s) per MPI task

The 'box' command has been removed and will be ignored

Reading restart file ...
  restart file = 12 Jun 2025, LAMMPS = 12 Jun 2025
  restoring atom style atomic from restart
  triclinic box = (-0.011615444 -0.025955438 -0.019791948) to (17.361615 17.375955 17.369792) with tilt (1.0655597e-15 1.0648049e-15 1.0648049e-15)
  1 by 1 by 1 MPI processor grid
  pair style metatomic stores no restart info
  500 atoms
  read_restart CPU = 0.003 seconds

This is the PET-MAD v1.0.2 model
================================

A universal interatomic potential for advanced materials modeling

Model authors
-------------

- Arslan Mazitov (arslan.mazitov@epfl.ch)
- Filippo Bigi
- Matthias Kellner
- Paolo Pegolo
- Davide Tisi
- Guillaume Fraux
- Sergey Pozdnyakov
- Philip Loche
- Michele Ceriotti (michele.ceriotti@epfl.ch)

Model references
----------------

Please cite the following references when using this model:
- about this specific model:
  * http://arxiv.org/abs/2503.14118
- about the architecture of this model:
  * LLPR (uncertainty method):
    https://iopscience.iop.org/article/10.1088/2632-2153/ad805f
  * LPR (if using per-atom uncertainty):
    https://pubs.acs.org/doi/10.1021/acs.jctc.3c00704
  * https://arxiv.org/abs/2305.19302v3

WARNING: the model declared support for unknown device 'cuda', it will be ignored (src/ML-METATOMIC/pair_metatomic.cpp:216)
Running simulation on cpu device with float32 data
Changing box ...
  triclinic box = (-0.011615444 -0.025955438 -0.019791948) to (17.361615 17.375955 17.369792) with tilt (1.0655597e-15 1.0648049e-15 6.9558336e-05)
Neighbor list info ...
  update: every = 1 steps, delay = 0 steps, check = yes
  max neighbors/atom: 2000, page size: 100000
  master list distance cutoff = 11
  ghost atom cutoff = 11
  binsize = 5.5, bins = 4 4 4
  1 neighbor lists, perpetual/occasional/extra = 1 0 0
  (1) pair metatomic, perpetual
      attributes: full, newton on, ghost
      pair build: full/bin/ghost
      stencil: full/ghost/bin/3d
      bin: standard
Setting up cg style minimization ...
  Unit style    : metal
  Current step  : 0
Per MPI rank memory allocation (min/avg/max) = 19.79 | 19.79 | 19.79 Mbytes
   Step          Temp          PotEng         Press           Pxx            Pyy            Pzz            Pxy            Pxz            Pyz             Lx             Ly             Lz           Volume    
         0   0             -3819.175      -0.018883524   -167.31447      156.13223      11.125587      625.32725     -598.30319      382.04964      17.373231      17.401911      17.389584      5257.348     
Loop time of 3.818e-06 on 8 procs for 0 steps with 500 atoms

916.7% CPU use with 1 MPI tasks x 8 OpenMP threads

Minimization stats:
  Stopping criterion = max iterations
  Energy initial, next-to-last, final = 
     -3819.17504882812 -0.388668235146373  -3819.17504882812
  Force two-norm initial, final = 0.017544232 0.017544232
  Force max component initial, final = 0.0053038895 0.0053038895
  Final line search alpha, max atom move = 0 0
  Iterations, force evaluations = 0 0

MPI task timing breakdown:
Section |  min time  |  avg time  |  max time  |%varavg| %total
---------------------------------------------------------------
Pair    | 0          | 0          | 0          |   0.0 |  0.00
Neigh   | 0          | 0          | 0          |   0.0 |  0.00
Comm    | 0          | 0          | 0          |   0.0 |  0.00
Output  | 0          | 0          | 0          |   0.0 |  0.00
Modify  | 0          | 0          | 0          |   0.0 |  0.00
Other   |            | 3.818e-06  |            |       |100.00

Nlocal:            500 ave         500 max         500 min
Histogram: 1 0 0 0 0 0 0 0 0 0
Nghost:           5584 ave        5584 max        5584 min
Histogram: 1 0 0 0 0 0 0 0 0 0
Neighs:              0 ave           0 max           0 min
Histogram: 1 0 0 0 0 0 0 0 0 0
FullNghs:       271228 ave      271228 max      271228 min
Histogram: 1 0 0 0 0 0 0 0 0 0

Total # of neighbors = 271228
Ave neighs/atom = 542.456
Neighbor list builds = 0
Dangerous builds = 0
  using 8 OpenMP thread(s) per MPI task

The 'box' command has been removed and will be ignored

Reading restart file ...
  restart file = 12 Jun 2025, LAMMPS = 12 Jun 2025
  restoring atom style atomic from restart
  triclinic box = (-0.011615444 -0.025955438 -0.019791948) to (17.361615 17.375955 17.369792) with tilt (1.0655597e-15 1.0648049e-15 1.0648049e-15)
  1 by 1 by 1 MPI processor grid
  pair style metatomic stores no restart info
  500 atoms
  read_restart CPU = 0.001 seconds

This is the PET-MAD v1.0.2 model
================================

A universal interatomic potential for advanced materials modeling

Model authors
-------------

- Arslan Mazitov (arslan.mazitov@epfl.ch)
- Filippo Bigi
- Matthias Kellner
- Paolo Pegolo
- Davide Tisi
- Guillaume Fraux
- Sergey Pozdnyakov
- Philip Loche
- Michele Ceriotti (michele.ceriotti@epfl.ch)

Model references
----------------

Please cite the following references when using this model:
- about this specific model:
  * http://arxiv.org/abs/2503.14118
- about the architecture of this model:
  * LLPR (uncertainty method):
    https://iopscience.iop.org/article/10.1088/2632-2153/ad805f
  * LPR (if using per-atom uncertainty):
    https://pubs.acs.org/doi/10.1021/acs.jctc.3c00704
  * https://arxiv.org/abs/2305.19302v3

WARNING: the model declared support for unknown device 'cuda', it will be ignored (src/ML-METATOMIC/pair_metatomic.cpp:216)
Running simulation on cpu device with float32 data
Changing box ...
  triclinic box = (-0.011615444 -0.025955438 -0.019791948) to (17.361615 17.375955 17.369792) with tilt (1.0655597e-15 -6.9558336e-05 1.0648049e-15)
Neighbor list info ...
  update: every = 1 steps, delay = 0 steps, check = yes
  max neighbors/atom: 2000, page size: 100000
  master list distance cutoff = 11
  ghost atom cutoff = 11
  binsize = 5.5, bins = 4 4 4
  1 neighbor lists, perpetual/occasional/extra = 1 0 0
  (1) pair metatomic, perpetual
      attributes: full, newton on, ghost
      pair build: full/bin/ghost
      stencil: full/ghost/bin/3d
      bin: standard
Setting up cg style minimization ...
  Unit style    : metal
  Current step  : 0
Per MPI rank memory allocation (min/avg/max) = 19.79 | 19.79 | 19.79 Mbytes
   Step          Temp          PotEng         Press           Pxx            Pyy            Pzz            Pxy            Pxz            Pyz             Lx             Ly             Lz           Volume    
         0   0             -3819.175      -0.0065861494  -167.35063      156.20009      11.130782      625.35555     -591.04008      389.27339      17.373231      17.401911      17.389584      5257.348     
Loop time of 3.768e-06 on 8 procs for 0 steps with 500 atoms

398.1% CPU use with 1 MPI tasks x 8 OpenMP threads

Minimization stats:
  Stopping criterion = max iterations
  Energy initial, next-to-last, final = 
     -3819.17504882812  -0.38866823514637  -3819.17504882812
  Force two-norm initial, final = 0.017539146 0.017539146
  Force max component initial, final = 0.0053055137 0.0053055137
  Final line search alpha, max atom move = 0 0
  Iterations, force evaluations = 0 0

MPI task timing breakdown:
Section |  min time  |  avg time  |  max time  |%varavg| %total
---------------------------------------------------------------
Pair    | 0          | 0          | 0          |   0.0 |  0.00
Neigh   | 0          | 0          | 0          |   0.0 |  0.00
Comm    | 0          | 0          | 0          |   0.0 |  0.00
Output  | 0          | 0          | 0          |   0.0 |  0.00
Modify  | 0          | 0          | 0          |   0.0 |  0.00
Other   |            | 3.768e-06  |            |       |100.00

Nlocal:            500 ave         500 max         500 min
Histogram: 1 0 0 0 0 0 0 0 0 0
Nghost:           5584 ave        5584 max        5584 min
Histogram: 1 0 0 0 0 0 0 0 0 0
Neighs:              0 ave           0 max           0 min
Histogram: 1 0 0 0 0 0 0 0 0 0
FullNghs:       271228 ave      271228 max      271228 min
Histogram: 1 0 0 0 0 0 0 0 0 0

Total # of neighbors = 271228
Ave neighs/atom = 542.456
Neighbor list builds = 0
Dangerous builds = 0
  using 8 OpenMP thread(s) per MPI task

The 'box' command has been removed and will be ignored

Reading restart file ...
  restart file = 12 Jun 2025, LAMMPS = 12 Jun 2025
  restoring atom style atomic from restart
  triclinic box = (-0.011615444 -0.025955438 -0.019791948) to (17.361615 17.375955 17.369792) with tilt (1.0655597e-15 1.0648049e-15 1.0648049e-15)
  1 by 1 by 1 MPI processor grid
  pair style metatomic stores no restart info
  500 atoms
  read_restart CPU = 0.001 seconds

This is the PET-MAD v1.0.2 model
================================

A universal interatomic potential for advanced materials modeling

Model authors
-------------

- Arslan Mazitov (arslan.mazitov@epfl.ch)
- Filippo Bigi
- Matthias Kellner
- Paolo Pegolo
- Davide Tisi
- Guillaume Fraux
- Sergey Pozdnyakov
- Philip Loche
- Michele Ceriotti (michele.ceriotti@epfl.ch)

Model references
----------------

Please cite the following references when using this model:
- about this specific model:
  * http://arxiv.org/abs/2503.14118
- about the architecture of this model:
  * LLPR (uncertainty method):
    https://iopscience.iop.org/article/10.1088/2632-2153/ad805f
  * LPR (if using per-atom uncertainty):
    https://pubs.acs.org/doi/10.1021/acs.jctc.3c00704
  * https://arxiv.org/abs/2305.19302v3

WARNING: the model declared support for unknown device 'cuda', it will be ignored (src/ML-METATOMIC/pair_metatomic.cpp:216)
Running simulation on cpu device with float32 data
Changing box ...
  triclinic box = (-0.011615444 -0.025955438 -0.019791948) to (17.361615 17.375955 17.369792) with tilt (1.0655597e-15 6.9558336e-05 1.0648049e-15)
Neighbor list info ...
  update: every = 1 steps, delay = 0 steps, check = yes
  max neighbors/atom: 2000, page size: 100000
  master list distance cutoff = 11
  ghost atom cutoff = 11
  binsize = 5.5, bins = 4 4 4
  1 neighbor lists, perpetual/occasional/extra = 1 0 0
  (1) pair metatomic, perpetual
      attributes: full, newton on, ghost
      pair build: full/bin/ghost
      stencil: full/ghost/bin/3d
      bin: standard
Setting up cg style minimization ...
  Unit style    : metal
  Current step  : 0
Per MPI rank memory allocation (min/avg/max) = 19.79 | 19.79 | 19.79 Mbytes
   Step          Temp          PotEng         Press           Pxx            Pyy            Pzz            Pxy            Pxz            Pyz             Lx             Ly             Lz           Volume    
         0   0             -3819.175       0.01206275    -167.28751      156.17328      11.150418      625.32044     -605.5298       389.2523       17.373231      17.401911      17.389584      5257.348     
Loop time of 3.899e-06 on 8 procs for 0 steps with 500 atoms

1461.9% CPU use with 1 MPI tasks x 8 OpenMP threads

Minimization stats:
  Stopping criterion = max iterations
  Energy initial, next-to-last, final = 
     -3819.17504882812  -0.38866823514637  -3819.17504882812
  Force two-norm initial, final = 0.01755094 0.01755094
  Force max component initial, final = 0.0053095669 0.0053095669
  Final line search alpha, max atom move = 0 0
  Iterations, force evaluations = 0 0

MPI task timing breakdown:
Section |  min time  |  avg time  |  max time  |%varavg| %total
---------------------------------------------------------------
Pair    | 0          | 0          | 0          |   0.0 |  0.00
Neigh   | 0          | 0          | 0          |   0.0 |  0.00
Comm    | 0          | 0          | 0          |   0.0 |  0.00
Output  | 0          | 0          | 0          |   0.0 |  0.00
Modify  | 0          | 0          | 0          |   0.0 |  0.00
Other   |            | 3.899e-06  |            |       |100.00

Nlocal:            500 ave         500 max         500 min
Histogram: 1 0 0 0 0 0 0 0 0 0
Nghost:           5584 ave        5584 max        5584 min
Histogram: 1 0 0 0 0 0 0 0 0 0
Neighs:              0 ave           0 max           0 min
Histogram: 1 0 0 0 0 0 0 0 0 0
FullNghs:       271228 ave      271228 max      271228 min
Histogram: 1 0 0 0 0 0 0 0 0 0

Total # of neighbors = 271228
Ave neighs/atom = 542.456
Neighbor list builds = 0
Dangerous builds = 0
  using 8 OpenMP thread(s) per MPI task

The 'box' command has been removed and will be ignored

Reading restart file ...
  restart file = 12 Jun 2025, LAMMPS = 12 Jun 2025
  restoring atom style atomic from restart
  triclinic box = (-0.011615444 -0.025955438 -0.019791948) to (17.361615 17.375955 17.369792) with tilt (1.0655597e-15 1.0648049e-15 1.0648049e-15)
  1 by 1 by 1 MPI processor grid
  pair style metatomic stores no restart info
  500 atoms
  read_restart CPU = 0.002 seconds

This is the PET-MAD v1.0.2 model
================================

A universal interatomic potential for advanced materials modeling

Model authors
-------------

- Arslan Mazitov (arslan.mazitov@epfl.ch)
- Filippo Bigi
- Matthias Kellner
- Paolo Pegolo
- Davide Tisi
- Guillaume Fraux
- Sergey Pozdnyakov
- Philip Loche
- Michele Ceriotti (michele.ceriotti@epfl.ch)

Model references
----------------

Please cite the following references when using this model:
- about this specific model:
  * http://arxiv.org/abs/2503.14118
- about the architecture of this model:
  * LLPR (uncertainty method):
    https://iopscience.iop.org/article/10.1088/2632-2153/ad805f
  * LPR (if using per-atom uncertainty):
    https://pubs.acs.org/doi/10.1021/acs.jctc.3c00704
  * https://arxiv.org/abs/2305.19302v3

WARNING: the model declared support for unknown device 'cuda', it will be ignored (src/ML-METATOMIC/pair_metatomic.cpp:216)
Running simulation on cpu device with float32 data
Changing box ...
  triclinic box = (-0.011615444 -0.025955438 -0.019791948) to (17.361615 17.375955 17.369792) with tilt (-6.9607644e-05 1.0648049e-15 1.0648049e-15)
Neighbor list info ...
  update: every = 1 steps, delay = 0 steps, check = yes
  max neighbors/atom: 2000, page size: 100000
  master list distance cutoff = 11
  ghost atom cutoff = 11
  binsize = 5.5, bins = 4 4 4
  1 neighbor lists, perpetual/occasional/extra = 1 0 0
  (1) pair metatomic, perpetual
      attributes: full, newton on, ghost
      pair build: full/bin/ghost
      stencil: full/ghost/bin/3d
      bin: standard
Setting up cg style minimization ...
  Unit style    : metal
  Current step  : 0
Per MPI rank memory allocation (min/avg/max) = 19.79 | 19.79 | 19.79 Mbytes
   Step          Temp          PotEng         Press           Pxx            Pyy            Pzz            Pxy            Pxz            Pyz             Lx             Ly             Lz           Volume    
         0   0             -3819.175      -0.019654002   -167.34916      156.22401      11.066184      632.55407     -598.27086      389.26241      17.373231      17.401911      17.389584      5257.348     
Loop time of 3.85e-06 on 8 procs for 0 steps with 500 atoms

389.6% CPU use with 1 MPI tasks x 8 OpenMP threads

Minimization stats:
  Stopping criterion = max iterations
  Energy initial, next-to-last, final = 
     -3819.17504882812 3.16202013338398e-322  -3819.17504882812
  Force two-norm initial, final = 0.017536712 0.017536712
  Force max component initial, final = 0.0053063929 0.0053063929
  Final line search alpha, max atom move = 0 0
  Iterations, force evaluations = 0 0

MPI task timing breakdown:
Section |  min time  |  avg time  |  max time  |%varavg| %total
---------------------------------------------------------------
Pair    | 0          | 0          | 0          |   0.0 |  0.00
Neigh   | 0          | 0          | 0          |   0.0 |  0.00
Comm    | 0          | 0          | 0          |   0.0 |  0.00
Output  | 0          | 0          | 0          |   0.0 |  0.00
Modify  | 0          | 0          | 0          |   0.0 |  0.00
Other   |            | 3.85e-06   |            |       |100.00

Nlocal:            500 ave         500 max         500 min
Histogram: 1 0 0 0 0 0 0 0 0 0
Nghost:           5584 ave        5584 max        5584 min
Histogram: 1 0 0 0 0 0 0 0 0 0
Neighs:              0 ave           0 max           0 min
Histogram: 1 0 0 0 0 0 0 0 0 0
FullNghs:       271228 ave      271228 max      271228 min
Histogram: 1 0 0 0 0 0 0 0 0 0

Total # of neighbors = 271228
Ave neighs/atom = 542.456
Neighbor list builds = 0
Dangerous builds = 0
  using 8 OpenMP thread(s) per MPI task

The 'box' command has been removed and will be ignored

Reading restart file ...
  restart file = 12 Jun 2025, LAMMPS = 12 Jun 2025
  restoring atom style atomic from restart
  triclinic box = (-0.011615444 -0.025955438 -0.019791948) to (17.361615 17.375955 17.369792) with tilt (1.0655597e-15 1.0648049e-15 1.0648049e-15)
  1 by 1 by 1 MPI processor grid
  pair style metatomic stores no restart info
  500 atoms
  read_restart CPU = 0.001 seconds

This is the PET-MAD v1.0.2 model
================================

A universal interatomic potential for advanced materials modeling

Model authors
-------------

- Arslan Mazitov (arslan.mazitov@epfl.ch)
- Filippo Bigi
- Matthias Kellner
- Paolo Pegolo
- Davide Tisi
- Guillaume Fraux
- Sergey Pozdnyakov
- Philip Loche
- Michele Ceriotti (michele.ceriotti@epfl.ch)

Model references
----------------

Please cite the following references when using this model:
- about this specific model:
  * http://arxiv.org/abs/2503.14118
- about the architecture of this model:
  * LLPR (uncertainty method):
    https://iopscience.iop.org/article/10.1088/2632-2153/ad805f
  * LPR (if using per-atom uncertainty):
    https://pubs.acs.org/doi/10.1021/acs.jctc.3c00704
  * https://arxiv.org/abs/2305.19302v3

WARNING: the model declared support for unknown device 'cuda', it will be ignored (src/ML-METATOMIC/pair_metatomic.cpp:216)
Running simulation on cpu device with float32 data
Changing box ...
  triclinic box = (-0.011615444 -0.025955438 -0.019791948) to (17.361615 17.375955 17.369792) with tilt (6.9607644e-05 1.0648049e-15 1.0648049e-15)
Neighbor list info ...
  update: every = 1 steps, delay = 0 steps, check = yes
  max neighbors/atom: 2000, page size: 100000
  master list distance cutoff = 11
  ghost atom cutoff = 11
  binsize = 5.5, bins = 4 4 4
  1 neighbor lists, perpetual/occasional/extra = 1 0 0
  (1) pair metatomic, perpetual
      attributes: full, newton on, ghost
      pair build: full/bin/ghost
      stencil: full/ghost/bin/3d
      bin: standard
Setting up cg style minimization ...
  Unit style    : metal
  Current step  : 0
Per MPI rank memory allocation (min/avg/max) = 19.79 | 19.79 | 19.79 Mbytes
   Step          Temp          PotEng         Press           Pxx            Pyy            Pzz            Pxy            Pxz            Pyz             Lx             Ly             Lz           Volume    
         0   0             -3819.1753      0.012662179   -167.3135       156.14456      11.206927      618.14024     -598.31042      389.26239      17.373231      17.401911      17.389584      5257.348     
Loop time of 1.2344e-05 on 8 procs for 0 steps with 500 atoms

372.7% CPU use with 1 MPI tasks x 8 OpenMP threads

Minimization stats:
  Stopping criterion = max iterations
  Energy initial, next-to-last, final = 
     -3819.17529296875 -0.388654645287361  -3819.17529296875
  Force two-norm initial, final = 0.017545778 0.017545778
  Force max component initial, final = 0.0053055286 0.0053055286
  Final line search alpha, max atom move = 0 0
  Iterations, force evaluations = 0 0

MPI task timing breakdown:
Section |  min time  |  avg time  |  max time  |%varavg| %total
---------------------------------------------------------------
Pair    | 0          | 0          | 0          |   0.0 |  0.00
Neigh   | 0          | 0          | 0          |   0.0 |  0.00
Comm    | 0          | 0          | 0          |   0.0 |  0.00
Output  | 0          | 0          | 0          |   0.0 |  0.00
Modify  | 0          | 0          | 0          |   0.0 |  0.00
Other   |            | 1.234e-05  |            |       |100.00

Nlocal:            500 ave         500 max         500 min
Histogram: 1 0 0 0 0 0 0 0 0 0
Nghost:           5584 ave        5584 max        5584 min
Histogram: 1 0 0 0 0 0 0 0 0 0
Neighs:              0 ave           0 max           0 min
Histogram: 1 0 0 0 0 0 0 0 0 0
FullNghs:       271228 ave      271228 max      271228 min
Histogram: 1 0 0 0 0 0 0 0 0 0

Total # of neighbors = 271228
Ave neighs/atom = 542.456
Neighbor list builds = 0
Dangerous builds = 0
Elastic Constant C11all = 396.9274500044 GPa
Elastic Constant C22all = 398.599716604637 GPa
Elastic Constant C33all = 399.95300091603 GPa
Elastic Constant C12all = 217.210327207463 GPa
Elastic Constant C13all = 219.041409621791 GPa
Elastic Constant C23all = 215.149575265484 GPa
Elastic Constant C44all = 180.4590929692 GPa
Elastic Constant C55all = 181.121530023813 GPa
Elastic Constant C66all = 180.172888373713 GPa
Elastic Constant C14all = -0.484204664968681 GPa
Elastic Constant C15all = -0.782946863393974 GPa
Elastic Constant C16all = -0.209866845618477 GPa
Elastic Constant C24all = 1.43936048856866 GPa
Elastic Constant C25all = 0.349496449650034 GPa
Elastic Constant C26all = 1.08299228133735 GPa
Elastic Constant C34all = 0.49037796616863 GPa
Elastic Constant C35all = -0.19895802746671 GPa
Elastic Constant C36all = -1.55338799144377 GPa
Elastic Constant C45all = 0.28211758024348 GPa
Elastic Constant C46all = 0.0442759985055825 GPa
Elastic Constant C56all = 0.46671443556292 GPa
=========================================
Averaged Elastic Properties
=========================================
Bulk Modulus = 277.586976857171 GPa
Shear Modulus 1 = 180.584503788909 GPa
Shear Modulus 2 = 90.679809238388 GPa
Poisson Ratio = 0.352703364716633
Bulk Modulus (B) = 277.586976857171 GPa
Shear Modulus (Voigt) (G) = 144.622625968701 GPa
Young Modulus (E) = 369.668811524873 GPa
Poisson Ratio (nu) = 0.278046256762326
Total wall time: 0:00:32
