#Generated by cif2cell 2.1.0.  :  Failed to get author information, No journal information.

500 atoms
3 atom types

0.0 17.245000 xlo xhi
0.0 17.245000 ylo yhi
0.0 17.245000 zlo zhi
1.0559517025648053e-15 1.0559517025648053e-15 1.0559517025648053e-15 xy xz yz

Atoms

1 1  13.796000000000001   0.000000000000000   3.449000000000000 
2 1   1.724500000000001  15.520500000000002   0.000000000000000 
3 1   1.724500000000001  13.796000000000001   5.173500000000000 
4 1  13.796000000000001   1.724500000000000   5.173500000000000 
5 1   0.000000000000001  15.520500000000002   5.173500000000000 
6 1  12.071500000000000  12.071500000000000  13.796000000000001 
7 1   5.173500000000000   1.724500000000001   6.898000000000001 
8 1   5.173500000000001   0.000000000000001   8.622500000000000 
9 1   1.724500000000001  15.520500000000002   3.449000000000000 
10 1  13.796000000000001   3.449000000000000   3.449000000000000 
11 1  15.520500000000002   5.173500000000000   0.000000000000000 
12 1   0.000000000000001  15.520500000000002   8.622500000000000 
13 1   1.724500000000001  15.520500000000002   6.898000000000001 
14 1   5.173500000000000   0.000000000000000   5.173500000000000 
15 1   1.724500000000002  13.796000000000003  15.520500000000002 
16 1   3.449000000000000   1.724500000000000   1.724500000000000 
17 1  15.520500000000002   1.724500000000001  10.347000000000000 
18 1  13.796000000000001   0.000000000000001  13.796000000000001 
19 1   3.449000000000001   1.724500000000001  12.071500000000000 
20 1   3.449000000000000   0.000000000000000   0.000000000000000 
21 1  13.796000000000003  15.520500000000002   1.724500000000000 
22 1  15.520500000000002  12.071500000000000   0.000000000000000 
23 1  13.796000000000001  12.071500000000000   5.173500000000000 
24 1   0.000000000000000   6.898000000000001   0.000000000000000 
25 1   0.000000000000001   5.173500000000001  15.520500000000002 
26 1  13.796000000000001  10.347000000000000  10.347000000000000 
27 1  13.796000000000001  12.071500000000000  12.071500000000000 
28 1  15.520500000000002  12.071500000000000  10.347000000000000 
29 1  13.796000000000001  10.347000000000000  13.796000000000001 
30 1   0.000000000000001   5.173500000000001  12.071500000000000 
31 1  15.520500000000004  10.347000000000001  15.520500000000002 
32 1  13.796000000000001  13.796000000000001   0.000000000000000 
33 1   0.000000000000001   8.622500000000000   5.173500000000000 
34 1  13.796000000000001  13.796000000000001   3.449000000000000 
35 1   0.000000000000000   3.449000000000000   3.449000000000000 
36 1   0.000000000000000   5.173500000000000   1.724500000000000 
37 1   1.724500000000001   1.724500000000001  13.796000000000001 
38 1   1.724500000000001   0.000000000000001  15.520500000000002 
39 1   0.000000000000001   0.000000000000001  13.796000000000001 
40 1   0.000000000000001   1.724500000000001  12.071500000000000 
41 1   0.000000000000001   0.000000000000001  10.347000000000000 
42 1   0.000000000000000   0.000000000000000   3.449000000000000 
43 1  13.796000000000005  15.520500000000004  15.520500000000002 
44 1   0.000000000000000   1.724500000000000   1.724500000000000 
45 1  15.520500000000002   8.622500000000000   3.449000000000000 
46 1   0.000000000000001  13.796000000000001   0.000000000000000 
47 1   0.000000000000002  12.071500000000002  15.520500000000002 
48 1  13.796000000000001   3.449000000000001  13.796000000000001 
49 1   0.000000000000001  12.071500000000000  12.071500000000000 
50 1  15.520500000000004   3.449000000000001  15.520500000000002 
51 1   0.000000000000001  10.347000000000000  10.347000000000000 
52 1  13.796000000000001   6.898000000000001   0.000000000000000 
53 1  13.796000000000001   8.622500000000000   1.724500000000000 
54 1   1.724500000000001  12.071500000000000   6.898000000000001 
55 1   1.724500000000001  12.071500000000000   3.449000000000000 
56 1   1.724500000000001  10.347000000000000   5.173500000000000 
57 1  15.520500000000002   5.173500000000000   6.898000000000001 
58 1   1.724500000000001  12.071500000000000   0.000000000000000 
59 1   1.724500000000001   8.622500000000000  13.796000000000001 
60 1   1.724500000000001   6.898000000000001  15.520500000000002 
61 1  13.796000000000001   6.898000000000001  10.347000000000000 
62 1   0.000000000000001   8.622500000000000  12.071500000000000 
63 1   0.000000000000001   6.898000000000001  10.347000000000000 
64 1   1.724500000000001   8.622500000000000   6.898000000000001 
65 1   1.724500000000001   6.898000000000001   8.622500000000000 
66 1  15.520500000000002   8.622500000000000  13.796000000000001 
67 1   1.724500000000001   8.622500000000000   3.449000000000000 
68 1   8.622500000000000   0.000000000000000   5.173500000000000 
69 1   6.898000000000002  13.796000000000001  10.347000000000000 
70 1   6.898000000000001   1.724500000000001  15.520500000000002 
71 1   8.622500000000000  13.796000000000001  12.071500000000000 
72 1   8.622500000000002  15.520500000000002  10.347000000000000 
73 1   6.898000000000002  13.796000000000001  13.796000000000001 
74 1   6.898000000000001   0.000000000000001  13.796000000000001 
75 1   8.622500000000002  15.520500000000002  13.796000000000001 
76 1  10.347000000000000   1.724500000000000   1.724500000000000 
77 1   6.898000000000001   0.000000000000001  10.347000000000000 
78 1  10.347000000000000   1.724500000000000   5.173500000000000 
79 1   6.898000000000001   1.724500000000001   8.622500000000000 
80 1  12.071500000000000   1.724500000000000   3.449000000000000 
81 1   8.622500000000000   1.724500000000001  13.796000000000001 
82 1   6.898000000000001   1.724500000000000   5.173500000000000 
83 1  10.347000000000000   0.000000000000001  10.347000000000000 
84 1  10.347000000000000   1.724500000000001  12.071500000000000 
85 1   6.898000000000001   0.000000000000000   3.449000000000000 
86 1   8.622500000000000   1.724500000000000   0.000000000000000 
87 1  10.347000000000000   0.000000000000001  13.796000000000001 
88 1   6.898000000000001   1.724500000000000   1.724500000000000 
89 1   6.898000000000001   0.000000000000000   0.000000000000000 
90 1   3.449000000000002  15.520500000000004  15.520500000000002 
91 1  12.071500000000000   3.449000000000000   1.724500000000000 
92 1  10.347000000000000   3.449000000000000   3.449000000000000 
93 1   8.622500000000000  12.071500000000000  10.347000000000000 
94 1   8.622500000000000   8.622500000000000  10.347000000000000 
95 1   6.898000000000002   8.622500000000000   8.622500000000000 
96 1   8.622500000000000   6.898000000000001   5.173500000000000 
97 1   6.898000000000001   8.622500000000000   1.724500000000000 
98 1   8.622500000000000  10.347000000000000   5.173500000000000 
99 1   8.622500000000000   5.173500000000001  13.796000000000001 
100 1   8.622500000000002   3.449000000000001  15.520500000000002 
101 1   8.622500000000000  10.347000000000000   8.622500000000000 
102 1   8.622500000000000   5.173500000000001  10.347000000000000 
103 1   8.622500000000000   3.449000000000001  12.071500000000000 
104 1   6.898000000000001   3.449000000000001  10.347000000000000 
105 1  10.347000000000000   5.173500000000000   5.173500000000000 
106 1   6.898000000000002  10.347000000000000  13.796000000000001 
107 1   8.622500000000000   3.449000000000001   8.622500000000000 
108 1   8.622500000000002  10.347000000000001  15.520500000000002 
109 1   6.898000000000001   5.173500000000001   8.622500000000000 
110 1   6.898000000000001   3.449000000000001   6.898000000000001 
111 1   8.622500000000000  13.796000000000001   1.724500000000000 
112 1   6.898000000000001  13.796000000000001   3.449000000000000 
113 1   6.898000000000001   5.173500000000000   5.173500000000000 
114 1   8.622500000000000   5.173500000000000   0.000000000000000 
115 1   8.622500000000002  15.520500000000002   3.449000000000000 
116 1   6.898000000000001  13.796000000000001   6.898000000000001 
117 1   3.449000000000002   5.173500000000001  15.520500000000002 
118 1  12.071500000000000  12.071500000000000   0.000000000000000 
119 1   3.449000000000002   8.622500000000002  15.520500000000002 
120 1  10.347000000000000  12.071500000000000   5.173500000000000 
121 1   5.173500000000001   8.622500000000000   6.898000000000001 
122 1   3.449000000000001   6.898000000000001   6.898000000000001 
123 1  10.347000000000000  10.347000000000000  10.347000000000000 
124 1  10.347000000000000  12.071500000000000  12.071500000000000 
125 1   3.449000000000001   6.898000000000001   3.449000000000000 
126 1   3.449000000000001   8.622500000000000   1.724500000000000 
127 1   3.449000000000001   6.898000000000001   0.000000000000000 
128 1  12.071500000000002  15.520500000000002   0.000000000000000 
129 1   5.173500000000001   3.449000000000001  15.520500000000002 
130 1  12.071500000000002   6.898000000000001  15.520500000000002 
131 1   5.173500000000001   3.449000000000001  12.071500000000000 
132 1  12.071500000000002  15.520500000000002   3.449000000000000 
133 1   3.449000000000001   5.173500000000001   8.622500000000000 
134 1   3.449000000000001   3.449000000000001   6.898000000000001 
135 1  12.071500000000000  13.796000000000001   8.622500000000000 
136 1  12.071500000000000  13.796000000000001  12.071500000000000 
137 1  12.071500000000002  15.520500000000002  10.347000000000000 
138 1   3.449000000000001   5.173500000000000   1.724500000000000 
139 1  12.071500000000002  13.796000000000003  15.520500000000002 
140 1   5.173500000000001   0.000000000000001  15.520500000000002 
141 1  13.796000000000001   1.724500000000000   1.724500000000000 
142 1  10.347000000000000   8.622500000000000   1.724500000000000 
143 1  12.071500000000000   3.449000000000001   5.173500000000000 
144 1   5.173500000000002  13.796000000000001   8.622500000000000 
145 1  10.347000000000000   5.173500000000001   8.622500000000000 
146 1   5.173500000000001  13.796000000000001   5.173500000000000 
147 1  10.347000000000000   3.449000000000001  10.347000000000000 
148 1  10.347000000000000   5.173500000000001  12.071500000000000 
149 1   3.449000000000001  13.796000000000001   3.449000000000000 
150 1  12.071500000000000   5.173500000000001  10.347000000000000 
151 1   5.173500000000001  15.520500000000002   0.000000000000000 
152 1   3.449000000000001  15.520500000000002   1.724500000000000 
153 1  12.071500000000000   5.173500000000001  13.796000000000001 
154 1   5.173500000000001   0.000000000000001  12.071500000000000 
155 1  12.071500000000000   6.898000000000001   1.724500000000000 
156 1  12.071500000000000   8.622500000000000   0.000000000000000 
157 1   5.173500000000002  10.347000000000001  15.520500000000002 
158 1  10.347000000000000   8.622500000000000   5.173500000000000 
159 1   5.173500000000002  12.071500000000000  10.347000000000000 
160 1  10.347000000000000   6.898000000000001   6.898000000000001 
161 1  10.347000000000000   8.622500000000000   8.622500000000000 
162 1  12.071500000000000   8.622500000000000   6.898000000000001 
163 1   3.449000000000001  10.347000000000000   6.898000000000001 
164 1   3.449000000000002  12.071500000000000   5.173500000000000 
165 1   5.173500000000001  10.347000000000000   1.724500000000000 
166 2  12.071500000000000   1.724500000000001  13.796000000000001 
167 2   6.898000000000002  12.071500000000000  12.071500000000000 
168 2  15.520500000000004  15.520500000000002   6.898000000000001 
169 2  12.071500000000000   0.000000000000001  12.071500000000000 
170 2  13.796000000000003  15.520500000000002   8.622500000000000 
171 2   6.898000000000002  10.347000000000000  10.347000000000000 
172 2  10.347000000000001   1.724500000000001  15.520500000000002 
173 2  15.520500000000002  12.071500000000000   3.449000000000000 
174 2  15.520500000000002  10.347000000000000   8.622500000000000 
175 2  15.520500000000004  15.520500000000002  10.347000000000000 
176 2   8.622500000000000  12.071500000000000   6.898000000000001 
177 2   6.898000000000002  12.071500000000000   8.622500000000000 
178 2  10.347000000000000   3.449000000000000   0.000000000000000 
179 2   8.622500000000002   6.898000000000001  15.520500000000002 
180 2  12.071500000000002   3.449000000000001  15.520500000000002 
181 2  15.520500000000002  10.347000000000000   5.173500000000000 
182 2  12.071500000000000   0.000000000000000   1.724500000000000 
183 2  15.520500000000002  13.796000000000001   5.173500000000000 
184 2   6.898000000000002  15.520500000000002  12.071500000000000 
185 2  15.520500000000002  12.071500000000000  13.796000000000001 
186 2   8.622500000000002  13.796000000000003  15.520500000000002 
187 2   6.898000000000001  10.347000000000000   0.000000000000000 
188 2  13.796000000000003  15.520500000000002  12.071500000000000 
189 2  13.796000000000003  12.071500000000002  15.520500000000002 
190 2  15.520500000000002  10.347000000000000  12.071500000000000 
191 2  12.071500000000000   0.000000000000001   8.622500000000000 
192 2  15.520500000000002  12.071500000000000   6.898000000000001 
193 2  10.347000000000000   0.000000000000000   3.449000000000000 
194 2  12.071500000000000   0.000000000000000   5.173500000000000 
195 2   8.622500000000000  12.071500000000000  13.796000000000001 
196 2  15.520500000000002  13.796000000000001  12.071500000000000 
197 2   6.898000000000001  12.071500000000000   1.724500000000000 
198 2   8.622500000000002  15.520500000000002   6.898000000000001 
199 2  13.796000000000001   3.449000000000001   6.898000000000001 
200 2  12.071500000000000  10.347000000000000   8.622500000000000 
201 2  12.071500000000000  12.071500000000000   6.898000000000001 
202 2  12.071500000000000  10.347000000000000  12.071500000000000 
203 2  12.071500000000000  12.071500000000000  10.347000000000000 
204 2  10.347000000000001  12.071500000000002  15.520500000000002 
205 2  15.520500000000002   5.173500000000001  10.347000000000000 
206 2  10.347000000000000  13.796000000000001   0.000000000000000 
207 2  10.347000000000001  15.520500000000002   1.724500000000000 
208 2  15.520500000000002   3.449000000000001  12.071500000000000 
209 2  13.796000000000001   5.173500000000001  12.071500000000000 
210 2  13.796000000000001   3.449000000000001  10.347000000000000 
211 2  15.520500000000002   3.449000000000001   8.622500000000000 
212 2  12.071500000000000  13.796000000000001   5.173500000000000 
213 2  13.796000000000001   5.173500000000001   8.622500000000000 
214 2  13.796000000000003   5.173500000000001  15.520500000000002 
215 2   8.622500000000000   6.898000000000001   8.622500000000000 
216 2  10.347000000000001  15.520500000000002   8.622500000000000 
217 2  10.347000000000000  13.796000000000001  10.347000000000000 
218 2  13.796000000000001   5.173500000000000   5.173500000000000 
219 2  15.520500000000002   3.449000000000000   1.724500000000000 
220 2  10.347000000000000  13.796000000000001  13.796000000000001 
221 2  15.520500000000002   1.724500000000000   0.000000000000000 
222 2  15.520500000000004   0.000000000000001  15.520500000000002 
223 2  13.796000000000003   1.724500000000001  15.520500000000002 
224 2  13.796000000000001   0.000000000000000   6.898000000000001 
225 2  13.796000000000001   1.724500000000001   8.622500000000000 
226 2  15.520500000000002   0.000000000000001   8.622500000000000 
227 2  13.796000000000001   1.724500000000001  12.071500000000000 
228 2  15.520500000000002   1.724500000000001   6.898000000000001 
229 2  10.347000000000000   8.622500000000000  12.071500000000000 
230 2  13.796000000000001  12.071500000000000   1.724500000000000 
231 2  10.347000000000000   3.449000000000001   6.898000000000001 
232 2  13.796000000000003   8.622500000000002  15.520500000000002 
233 2  12.071500000000000   3.449000000000001   8.622500000000000 
234 2  15.520500000000002   8.622500000000000  10.347000000000000 
235 2  12.071500000000000   3.449000000000001  12.071500000000000 
236 2  10.347000000000000   3.449000000000001  13.796000000000001 
237 2  13.796000000000001   8.622500000000000  12.071500000000000 
238 2  13.796000000000001   0.000000000000001  10.347000000000000 
239 2  10.347000000000000   6.898000000000001   0.000000000000000 
240 2  15.520500000000002   8.622500000000000   6.898000000000001 
241 2  12.071500000000000   6.898000000000001   8.622500000000000 
242 2  15.520500000000002   6.898000000000001   8.622500000000000 
243 2  10.347000000000000   6.898000000000001  10.347000000000000 
244 2  13.796000000000001  10.347000000000000   3.449000000000000 
245 2  13.796000000000001   8.622500000000000   8.622500000000000 
246 2  12.071500000000000   8.622500000000000  10.347000000000000 
247 2  13.796000000000001   6.898000000000001   6.898000000000001 
248 2  10.347000000000000   6.898000000000001  13.796000000000001 
249 2  13.796000000000001   8.622500000000000   5.173500000000000 
250 2  10.347000000000001   8.622500000000002  15.520500000000002 
251 2  12.071500000000000   8.622500000000000  13.796000000000001 
252 2  10.347000000000000  10.347000000000000   0.000000000000000 
253 2  13.796000000000001   6.898000000000001   3.449000000000000 
254 2  12.071500000000000  10.347000000000000   1.724500000000000 
255 2  10.347000000000000  10.347000000000000   3.449000000000000 
256 2  15.520500000000002   8.622500000000000   0.000000000000000 
257 2  15.520500000000002   6.898000000000001   1.724500000000000 
258 2  15.520500000000002   5.173500000000001  13.796000000000001 
259 2   0.000000000000001   6.898000000000001   6.898000000000001 
260 2   3.449000000000002  15.520500000000002   8.622500000000000 
261 2   0.000000000000001  10.347000000000000   0.000000000000000 
262 2   3.449000000000001   8.622500000000000   8.622500000000000 
263 2   5.173500000000002  13.796000000000001  12.071500000000000 
264 2   1.724500000000001   6.898000000000001  12.071500000000000 
265 2   5.173500000000002  15.520500000000002  13.796000000000001 
266 2   1.724500000000002  15.520500000000002  10.347000000000000 
267 2   5.173500000000001   8.622500000000000   3.449000000000000 
268 2   8.622500000000000   0.000000000000000   1.724500000000000 
269 2   3.449000000000001   8.622500000000000   5.173500000000000 
270 2   3.449000000000002   8.622500000000000  12.071500000000000 
271 2   5.173500000000001   8.622500000000000   0.000000000000000 
272 2   5.173500000000000   6.898000000000001   1.724500000000000 
273 2   1.724500000000001   8.622500000000000   0.000000000000000 
274 2   6.898000000000001   6.898000000000001  13.796000000000001 
275 2   8.622500000000000   1.724500000000000   3.449000000000000 
276 2   6.898000000000001   0.000000000000000   6.898000000000001 
277 2   1.724500000000001   6.898000000000001   1.724500000000000 
278 2   0.000000000000001   8.622500000000000   1.724500000000000 
279 2   8.622500000000000   0.000000000000001   8.622500000000000 
280 2   8.622500000000000   1.724500000000001   6.898000000000001 
281 2   5.173500000000002   8.622500000000000  13.796000000000001 
282 2   0.000000000000001  15.520500000000002   1.724500000000000 
283 2   5.173500000000001  12.071500000000000   6.898000000000001 
284 2   3.449000000000001  10.347000000000000  10.347000000000000 
285 2   5.173500000000001  12.071500000000000   3.449000000000000 
286 2   5.173500000000002  10.347000000000000  12.071500000000000 
287 2   1.724500000000002  10.347000000000001  15.520500000000002 
288 2   3.449000000000002  12.071500000000002  15.520500000000002 
289 2   0.000000000000001  10.347000000000000  13.796000000000001 
290 2   3.449000000000001  12.071500000000000   1.724500000000000 
291 2   3.449000000000001  10.347000000000000   0.000000000000000 
292 2   1.724500000000002  15.520500000000002  13.796000000000001 
293 2   5.173500000000002  12.071500000000000  13.796000000000001 
294 2   5.173500000000001   6.898000000000001  15.520500000000002 
295 2   3.449000000000001  13.796000000000001   0.000000000000000 
296 2   0.000000000000001  13.796000000000001   6.898000000000001 
297 2   3.449000000000002   6.898000000000001  13.796000000000001 
298 2   0.000000000000001  12.071500000000000   5.173500000000000 
299 2   0.000000000000001  10.347000000000000   3.449000000000000 
300 2   5.173500000000001   6.898000000000001  12.071500000000000 
301 2   5.173500000000001  15.520500000000002   3.449000000000000 
302 2   0.000000000000001   3.449000000000001   6.898000000000001 
303 2   6.898000000000001   6.898000000000001   3.449000000000000 
304 2   3.449000000000001   0.000000000000000   6.898000000000001 
305 2   8.622500000000000   3.449000000000001   5.173500000000000 
306 2   1.724500000000000   1.724500000000000   0.000000000000000 
307 2   1.724500000000001   5.173500000000000   6.898000000000001 
308 2   8.622500000000000   5.173500000000000   3.449000000000000 
309 2   1.724500000000001   3.449000000000001   8.622500000000000 
310 2   5.173500000000000   3.449000000000001   5.173500000000000 
311 2   1.724500000000001   5.173500000000001  13.796000000000001 
312 2   3.449000000000001   5.173500000000000   5.173500000000000 
313 2   3.449000000000000   3.449000000000000   3.449000000000000 
314 2   0.000000000000000   3.449000000000000   0.000000000000000 
315 2   8.622500000000000   5.173500000000000   6.898000000000001 
316 2   3.449000000000001   1.724500000000001   8.622500000000000 
317 2   3.449000000000000   3.449000000000000   0.000000000000000 
318 2   6.898000000000001   3.449000000000001  13.796000000000001 
319 2   1.724500000000001   1.724500000000001  10.347000000000000 
320 2   3.449000000000000   0.000000000000000   3.449000000000000 
321 2   6.898000000000001   1.724500000000001  12.071500000000000 
322 2   1.724500000000001   3.449000000000001  15.520500000000002 
323 2   8.622500000000000   1.724500000000001  10.347000000000000 
324 2   1.724500000000000   0.000000000000000   1.724500000000000 
325 2   5.173500000000001   5.173500000000001  13.796000000000001 
326 2   1.724500000000001   5.173500000000001  10.347000000000000 
327 2   8.622500000000000   8.622500000000000   3.449000000000000 
328 2   3.449000000000001   1.724500000000001  15.520500000000002 
329 2   1.724500000000001   3.449000000000001  12.071500000000000 
330 2   6.898000000000001   8.622500000000000   5.173500000000000 
331 2   8.622500000000002   0.000000000000001  15.520500000000002 
332 2   5.173500000000000   0.000000000000000   1.724500000000000 
333 2   6.898000000000001   3.449000000000000   0.000000000000000 
334 2   5.173500000000000   1.724500000000000   0.000000000000000 
335 2   0.000000000000001   3.449000000000001  10.347000000000000 
336 3   3.449000000000001  10.347000000000000   3.449000000000000 
337 3  12.071500000000002  10.347000000000001  15.520500000000002 
338 3  10.347000000000000  10.347000000000000  13.796000000000001 
339 3   5.173500000000000   6.898000000000001   5.173500000000000 
340 3   5.173500000000001   6.898000000000001   8.622500000000000 
341 3  10.347000000000000  12.071500000000000   8.622500000000000 
342 3   3.449000000000001   6.898000000000001  10.347000000000000 
343 3  10.347000000000000  10.347000000000000   6.898000000000001 
344 3  12.071500000000000  12.071500000000000   3.449000000000000 
345 3   5.173500000000002   8.622500000000000  10.347000000000000 
346 3  12.071500000000000  10.347000000000000   5.173500000000000 
347 3  10.347000000000000  12.071500000000000   1.724500000000000 
348 3   5.173500000000001  12.071500000000000   0.000000000000000 
349 3  12.071500000000000  13.796000000000001   1.724500000000000 
350 3   5.173500000000001  10.347000000000000   5.173500000000000 
351 3  12.071500000000000   6.898000000000001  12.071500000000000 
352 3   3.449000000000002  12.071500000000000   8.622500000000000 
353 3   5.173500000000002  10.347000000000000   8.622500000000000 
354 3   3.449000000000002  12.071500000000000  12.071500000000000 
355 3  12.071500000000000   8.622500000000000   3.449000000000000 
356 3   3.449000000000002  10.347000000000000  13.796000000000001 
357 3  12.071500000000000   6.898000000000001   5.173500000000000 
358 3  10.347000000000000   6.898000000000001   3.449000000000000 
359 3  10.347000000000001   5.173500000000001  15.520500000000002 
360 3   5.173500000000001  13.796000000000001   1.724500000000000 
361 3   3.449000000000002  15.520500000000002   5.173500000000000 
362 3   5.173500000000000   3.449000000000000   1.724500000000000 
363 3   3.449000000000001   1.724500000000000   5.173500000000000 
364 3   5.173500000000000   1.724500000000000   3.449000000000000 
365 3  15.520500000000002   1.724500000000000   3.449000000000000 
366 3  15.520500000000002   0.000000000000000   5.173500000000000 
367 3   3.449000000000001   0.000000000000001  10.347000000000000 
368 3  15.520500000000002   0.000000000000000   1.724500000000000 
369 3   5.173500000000001   1.724500000000001  10.347000000000000 
370 3   3.449000000000001   0.000000000000001  13.796000000000001 
371 3  13.796000000000001   0.000000000000000   0.000000000000000 
372 3  12.071500000000002  15.520500000000002  13.796000000000001 
373 3   5.173500000000001   1.724500000000001  13.796000000000001 
374 3  10.347000000000003  15.520500000000004  15.520500000000002 
375 3  12.071500000000000   5.173500000000000   6.898000000000001 
376 3   5.173500000000000   5.173500000000000   0.000000000000000 
377 3  10.347000000000001  15.520500000000002  12.071500000000000 
378 3  12.071500000000002  15.520500000000002   6.898000000000001 
379 3   5.173500000000000   5.173500000000000   3.449000000000000 
380 3   5.173500000000001   3.449000000000001   8.622500000000000 
381 3   5.173500000000000   5.173500000000000   6.898000000000001 
382 3   3.449000000000001   3.449000000000001  10.347000000000000 
383 3   3.449000000000002   5.173500000000001  12.071500000000000 
384 3   5.173500000000001   5.173500000000001  10.347000000000000 
385 3   3.449000000000001   3.449000000000001  13.796000000000001 
386 3  10.347000000000001  15.520500000000002   5.173500000000000 
387 3  10.347000000000000  13.796000000000001   3.449000000000000 
388 3   8.622500000000000   6.898000000000001   1.724500000000000 
389 3   6.898000000000001  15.520500000000002   5.173500000000000 
390 3   8.622500000000002  15.520500000000002   0.000000000000000 
391 3   6.898000000000001  15.520500000000002   1.724500000000000 
392 3   6.898000000000001  13.796000000000001   0.000000000000000 
393 3   6.898000000000002  12.071500000000002  15.520500000000002 
394 3   8.622500000000000  10.347000000000000  12.071500000000000 
395 3   6.898000000000001   5.173500000000001  12.071500000000000 
396 3   6.898000000000001   5.173500000000001  15.520500000000002 
397 3   6.898000000000001  10.347000000000000   6.898000000000001 
398 3   8.622500000000000  12.071500000000000   3.449000000000000 
399 3   6.898000000000001   6.898000000000001   0.000000000000000 
400 3   6.898000000000001  12.071500000000000   5.173500000000000 
401 3   6.898000000000001   3.449000000000000   3.449000000000000 
402 3   8.622500000000000   8.622500000000000   0.000000000000000 
403 3   6.898000000000001  10.347000000000000   3.449000000000000 
404 3   8.622500000000000  12.071500000000000   0.000000000000000 
405 3   8.622500000000000  10.347000000000000   1.724500000000000 
406 3   6.898000000000001   6.898000000000001   6.898000000000001 
407 3   0.000000000000000   0.000000000000000   0.000000000000000 
408 3   8.622500000000000   8.622500000000000   6.898000000000001 
409 3   6.898000000000001   6.898000000000001  10.347000000000000 
410 3   6.898000000000002   8.622500000000000  12.071500000000000 
411 3   8.622500000000000   6.898000000000001  12.071500000000000 
412 3   8.622500000000000   8.622500000000000  13.796000000000001 
413 3   6.898000000000002   8.622500000000002  15.520500000000002 
414 3  12.071500000000000   1.724500000000001   6.898000000000001 
415 3   3.449000000000002  13.796000000000001   6.898000000000001 
416 3  12.071500000000000   5.173500000000000   3.449000000000000 
417 3   5.173500000000001  15.520500000000002   6.898000000000001 
418 3   3.449000000000002  13.796000000000001  10.347000000000000 
419 3   3.449000000000002  15.520500000000002  12.071500000000000 
420 3  12.071500000000000   5.173500000000000   0.000000000000000 
421 3   5.173500000000002  15.520500000000002  10.347000000000000 
422 3   3.449000000000002  13.796000000000001  13.796000000000001 
423 3  10.347000000000000   5.173500000000000   1.724500000000000 
424 3   5.173500000000002  13.796000000000003  15.520500000000002 
425 3  12.071500000000002   0.000000000000001  15.520500000000002 
426 3  12.071500000000000   1.724500000000001  10.347000000000000 
427 3  10.347000000000000  13.796000000000001   6.898000000000001 
428 3  10.347000000000000   1.724500000000001   8.622500000000000 
429 3  10.347000000000000   0.000000000000000   6.898000000000001 
430 3  12.071500000000000   1.724500000000000   0.000000000000000 
431 3  10.347000000000000   0.000000000000000   0.000000000000000 
432 3   8.622500000000000   0.000000000000001  12.071500000000000 
433 3   6.898000000000002  15.520500000000004  15.520500000000002 
434 3   8.622500000000000  13.796000000000001   8.622500000000000 
435 3   6.898000000000002  15.520500000000002   8.622500000000000 
436 3   6.898000000000001   5.173500000000000   1.724500000000000 
437 3   8.622500000000000   3.449000000000000   1.724500000000000 
438 3   8.622500000000000  13.796000000000001   5.173500000000000 
439 3   0.000000000000001  12.071500000000000   8.622500000000000 
440 3  15.520500000000002  13.796000000000001   1.724500000000000 
441 3  15.520500000000004  15.520500000000002   0.000000000000000 
442 3   0.000000000000001   5.173500000000001   8.622500000000000 
443 3  13.796000000000003  15.520500000000002   5.173500000000000 
444 3   1.724500000000001   5.173500000000000   3.449000000000000 
445 3   1.724500000000001   3.449000000000001   5.173500000000000 
446 3   0.000000000000001   5.173500000000000   5.173500000000000 
447 3   0.000000000000001  10.347000000000000   6.898000000000001 
448 3  15.520500000000002   6.898000000000001   5.173500000000000 
449 3   1.724500000000001  10.347000000000000   8.622500000000000 
450 3   1.724500000000000   5.173500000000000   0.000000000000000 
451 3   1.724500000000000   3.449000000000000   1.724500000000000 
452 3  15.520500000000004  15.520500000000002   3.449000000000000 
453 3  13.796000000000001  13.796000000000001   6.898000000000001 
454 3   1.724500000000001  10.347000000000000  12.071500000000000 
455 3   1.724500000000001  12.071500000000000  10.347000000000000 
456 3  15.520500000000002  13.796000000000001   8.622500000000000 
457 3  13.796000000000001  12.071500000000000   8.622500000000000 
458 3  15.520500000000002  10.347000000000000   1.724500000000000 
459 3   0.000000000000001   6.898000000000001   3.449000000000000 
460 3   1.724500000000001   6.898000000000001   5.173500000000000 
461 3  13.796000000000001  10.347000000000000   0.000000000000000 
462 3  15.520500000000004   6.898000000000001  15.520500000000002 
463 3   0.000000000000001   8.622500000000000   8.622500000000000 
464 3  13.796000000000001   6.898000000000001  13.796000000000001 
465 3  13.796000000000001  10.347000000000000   6.898000000000001 
466 3  15.520500000000004  15.520500000000002  13.796000000000001 
467 3  15.520500000000002   6.898000000000001  12.071500000000000 
468 3   0.000000000000001   3.449000000000001  13.796000000000001 
469 3   1.724500000000001   8.622500000000000  10.347000000000000 
470 3   0.000000000000001   6.898000000000001  13.796000000000001 
471 3   0.000000000000001   8.622500000000002  15.520500000000002 
472 3   0.000000000000001  12.071500000000000   1.724500000000000 
473 3   1.724500000000001  10.347000000000000   1.724500000000000 
474 3   0.000000000000002  13.796000000000001  13.796000000000001 
475 3  15.520500000000002   3.449000000000001   5.173500000000000 
476 3   0.000000000000001   1.724500000000001   8.622500000000000 
477 3   0.000000000000000   0.000000000000000   6.898000000000001 
478 3   1.724500000000001  13.796000000000001   8.622500000000000 
479 3  13.796000000000001   5.173500000000000   1.724500000000000 
480 3   0.000000000000001  13.796000000000001  10.347000000000000 
481 3   0.000000000000002  15.520500000000002  12.071500000000000 
482 3   1.724500000000002  13.796000000000001  12.071500000000000 
483 3  13.796000000000001   3.449000000000000   0.000000000000000 
484 3   1.724500000000002  12.071500000000000  13.796000000000001 
485 3   0.000000000000002  15.520500000000004  15.520500000000002 
486 3   1.724500000000000   1.724500000000000   3.449000000000000 
487 3  15.520500000000002   1.724500000000001  13.796000000000001 
488 3   1.724500000000000   0.000000000000000   5.173500000000000 
489 3   0.000000000000000   1.724500000000000   5.173500000000000 
490 3  13.796000000000001  13.796000000000001  13.796000000000001 
491 3  15.520500000000002   0.000000000000001  12.071500000000000 
492 3  15.520500000000004  13.796000000000003  15.520500000000002 
493 3   1.724500000000001   0.000000000000001   8.622500000000000 
494 3   0.000000000000001   1.724500000000001  15.520500000000002 
495 3  13.796000000000001  13.796000000000001  10.347000000000000 
496 3   1.724500000000001   0.000000000000001  12.071500000000000 
497 3   1.724500000000001  13.796000000000001   1.724500000000000 
498 3   0.000000000000001  13.796000000000001   3.449000000000000 
499 3   1.724500000000001   1.724500000000001   6.898000000000001 
500 3  15.520500000000002   5.173500000000000   3.449000000000000 
