LAMMPS data file via write_data, version 29 Aug 2024, timestep = 26, units = metal

500 atoms
3 atom types

0 17.5618583741212 xlo xhi
0 17.5618583741212 ylo yhi
0 17.5618583741212 zlo zhi

Masses

1 56.0288
2 58.71
3 58.71

Atoms # atomic

1 2 0.002917205096608423 0.002917205096608146 0 0 0 0
2 3 1.753268632315511 1.7532686323155122 2.10273712703296e-19 0 0 0
3 1 1.7526158715676934 0.0035699658444264502 1.748908017008373 0 0 0
4 1 0.0035699658444257316 1.7526158715676938 1.7489080170083728 0 0 0
5 1 3.508736178828432 0.0035385056208329002 0 0 0 0
8 1 3.5082757214931193 1.7557593773411688 1.752240783537946 0 0 0
21 1 0.0035385056208340868 3.5087361788284315 1.5653503164732586e-19 0 0 0
23 1 1.7557593773411686 3.5082757214931193 1.7522407835379457 0 0 0
25 1 3.5085181455075456 3.5085181455075465 1.4975325108822884e-17 0 0 0
51 1 0.00046212679795449077 0.0004621267979547507 3.5114873449694177 0 0 0
52 1 1.7557237106141645 1.7557237106141643 3.5114873449694186 0 0 0
53 1 1.756080601697457 0.00010523571466346464 5.268524291037177 0 0 0
54 1 0.00010523571466313822 1.7560806016974568 5.268524291037177 0 0 0
55 1 3.5114113812642933 0.0004498609578758796 3.5112142875553616 0 0 0
58 1 3.5120351796584637 1.756085411478736 5.2682956230790206 0 0 0
71 1 0.0004498609578763801 3.511411381264293 3.5112142875553616 0 0 0
73 1 1.7560854114787363 3.5120351796584632 5.2682956230790206 0 0 0
75 1 3.511667769246599 3.5116677692465985 3.511490137881656 0 0 0
6 1 5.268353325753904 1.7561193187617554 0 0 0 0
7 1 5.267967936684671 0.00044554101141123137 1.7556463327718186 0 0 0
9 1 7.024799734110996 0.00010738265939997131 5.149845611906349e-17 0 0 0
12 1 7.02474720473922 1.756173844939069 1.7560655392272795 0 0 0
27 1 5.267758349539291 3.5117378694617294 1.7556749148712782 0 0 0
29 1 7.024697959694308 3.5122352761291826 4.285702035978507e-17 0 0 0
56 1 5.267849275421474 1.756092702260991 3.511660259497513 0 0 0
57 1 5.268084492097954 9.853575599534676e-05 5.2680744296226205 0 0 0
59 1 7.0244708505420075 9.69296872231409e-05 3.51209773003387 0 0 0
62 1 7.02440590485683 1.7561420053490977 5.268223453255648 0 0 0
77 1 5.268192624642177 3.512169035029639 5.2681856967732985 0 0 0
79 1 7.0244368532171 3.5122069701664698 3.5120881032595386 0 0 0
60 1 8.780881741855747 1.756169571624097 3.5122986173271955 0 0 0
61 1 8.780824829169635 4.288133414106028e-05 5.26840987110904 0 0 0
81 1 8.780829340542532 3.512273487624087 5.268402302830481 0 0 0
10 1 8.780989297676632 1.7561949611903211 2.652004354957506e-16 0 0 0
11 1 8.780930890723509 2.1001333734499804e-05 1.7561698634984044 0 0 0
14 1 12.293244477422325 1.7560784547527195 0 0 0 0
15 1 12.2932970067941 1.1992473050001189e-05 1.7560655392272801 0 0 0
16 1 10.53711332080981 1.7561648360783841 1.7561698634984042 0 0 0
31 1 8.780933670276811 3.512333915983611 1.7561509118950915 0 0 0
33 1 10.537165270956656 3.5123260296462306 5.1713312107462254e-17 0 0 0
35 1 12.29352198424765 3.5121310055478445 1.7560693796027786 0 0 0
63 1 10.537162469677572 1.626578802198284e-05 3.5122986173271955 0 0 0
64 1 12.293573360991312 1.7560889077248965 3.512097730033871 0 0 0
65 1 12.293638306676492 4.383206302181791e-05 5.268223453255648 0 0 0
66 1 10.537219382363684 1.7561429560779787 5.26840987110904 0 0 0
83 1 10.537206415038794 3.5122809135933837 3.5122781524263176 0 0 0
85 1 12.293556417779202 3.5122187880025946 5.268307987137997 0 0 0
17 1 14.049690885779416 6.651865036522726e-05 0 0 0 0
18 1 15.809308032704887 1.7526473317912863 6.165807353436652e-19 0 0 0
19 1 15.809768490040202 0.0004264600709497679 1.7522407835379472 0 0 0
20 1 14.05007627484865 1.7557402964007103 1.7556463327718184 0 0 0
37 1 14.049963616394496 3.5117894497149793 3.4168036862711487e-17 0 0 0
39 1 15.806746063754671 3.5112981477786467 1.7552643494417124 0 0 0
67 1 14.050194936111845 9.313515112768092e-05 3.5116602594975133 0 0 0
68 1 15.806632830269027 1.7557359764542435 3.511214287555361 0 0 0
69 1 15.806009031874856 0.0001004259333833015 5.268295623079021 0 0 0
70 1 14.049959719435366 1.7560873016561236 5.2680744296226205 0 0 0
87 1 14.049997803989976 3.511996857325854 3.511861978309465 0 0 0
89 1 15.806003930624504 3.5120402809088165 5.268076449676912 0 0 0
22 1 1.7561193187617554 5.268353325753903 7.174626225493722e-17 0 0 0
24 1 0.0004455410114112741 5.267967936684672 1.7556463327718186 0 0 0
28 1 3.51173786946173 5.267758349539291 1.755674914871278 0 0 0
41 1 0.00010738265940032382 7.024799734110995 4.062741279396244e-20 0 0 0
42 1 1.7561738449390687 7.024747204739219 1.7560655392272801 0 0 0
43 1 3.5122352761291844 7.024697959694307 6.739359158996178e-19 0 0 0
72 1 1.756092702260991 5.267849275421475 3.5116602594975133 0 0 0
74 1 9.853575599577872e-05 5.268084492097954 5.2680744296226205 0 0 0
78 1 3.512169035029639 5.268192624642177 5.268185696773299 0 0 0
91 1 9.692968722359801e-05 7.0244708505420075 3.5120977300338705 0 0 0
92 1 1.756142005349097 7.02440590485683 5.268223453255648 0 0 0
93 1 3.5122069701664698 7.0244368532171 3.5120881032595386 0 0 0
301 1 1.7561695716240968 8.780881741855747 3.512298617327196 0 0 0
302 1 4.288133414068721e-05 8.780824829169635 5.26840987110904 0 0 0
304 1 3.5122734876240864 8.780829340542534 5.268402302830481 0 0 0
26 1 5.267886158845075 5.267886158845075 0 0 0 0
32 1 7.024429618940017 5.26825032035043 1.7560591259500413 0 0 0
44 1 5.26825032035043 7.024429618940017 1.7560591259500415 0 0 0
45 1 7.02444412863946 7.02444412863946 0 0 0 0
76 1 5.268157771129605 5.268157771129605 3.512011569053031 0 0 0
82 1 7.024544244157449 5.268383820991553 5.268356226736469 0 0 0
94 1 5.268383820991552 7.024544244157449 5.268356226736469 0 0 0
95 1 7.024551509826172 7.024551509826173 3.5122221832394533 0 0 0
30 1 8.780884732402214 5.268464513787289 0 0 0 0
46 1 8.780833030418988 7.024594859190659 1.7561182271362101 0 0 0
80 1 8.780844170397483 5.268426229557978 3.5122534403808734 0 0 0
96 1 8.780872371845545 7.024636596250343 5.268447412248889 0 0 0
253 1 5.268464513787288 8.780884732402214 0 0 0 0
256 1 7.024594859190659 8.780833030418988 1.7561182271362095 0 0 0
303 1 5.268426229557979 8.780844170397481 3.512253440380874 0 0 0
306 1 7.024636596250343 8.780872371845545 5.26844741224889 0 0 0
255 1 8.780848602894388 8.780848602894388 0 0 0 0
305 1 8.78087443290016 8.780874432900157 3.5122758860448546 0 0 0
34 1 12.293580833845292 5.268276515780859 7.468783477252694e-17 0 0 0
36 1 10.537218929720177 5.268436251022755 1.7561299338763185 0 0 0
47 1 10.537202504375475 7.024612139181007 0 0 0 0
48 1 12.293508020687526 7.024536190845794 1.7561055795136244 0 0 0
84 1 12.293539761001833 5.268336715362467 3.512192575711496 0 0 0
86 1 10.537181944566802 5.268429761826129 5.268432653842619 0 0 0
97 1 10.537176444104535 7.024624159378676 3.51226857702605 0 0 0
98 1 12.293437398571381 7.024606812961938 5.2684228793904335 0 0 0
257 1 12.293432072352314 8.780841707157846 0 0 0 0
258 1 10.537169510335751 8.780874701197568 1.756126662824179 0 0 0
307 1 12.293420052154643 8.780867767428784 3.5122685770260507 0 0 0
308 1 10.53715464492421 8.780889566609112 5.268464780691105 0 0 0
100 1 15.805825423530726 7.024487793754117 5.268307987137996 0 0 0
38 1 15.80625476181834 5.268080595138826 1.0730416673228901e-18 0 0 0
40 1 14.049942364939723 5.2681018465935985 1.7559916749466546 0 0 0
49 1 14.049767695752461 7.024463377688029 1.6113548868428924e-18 0 0 0
50 1 15.805913205985476 7.0245222272856696 1.756069379602779 0 0 0
88 1 15.806047354207466 5.268046407543345 3.511861978309466 0 0 0
90 1 14.049744882324012 5.26829932920931 5.268264777321421 0 0 0
99 1 14.049707496170853 7.024504450531485 3.512192575711497 0 0 0
259 1 15.805718181887089 8.780878940576665 5.544446922470168e-19 0 0 0
260 1 14.049607960510565 8.780825281813142 1.7561299338763177 0 0 0
309 1 15.805763297939937 8.780837796494525 3.5122781524263167 0 0 0
310 1 14.049614449707192 8.780862266966519 5.268432653842619 0 0 0
101 1 2.3057156822590304e-05 2.3057156824007413e-05 7.024791044154832 0 0 0
102 1 1.7561627802552962 1.756162780255296 7.024791044154832 0 0 0
105 1 3.512289116582011 2.478452975115772e-05 7.024683329552244 0 0 0
108 1 3.512346140432002 1.7561669934517214 8.7809291870606 0 0 0
121 1 2.4784529750865704e-05 3.512289116582011 7.024683329552244 0 0 0
123 1 1.7561669934517214 3.512346140432002 8.7809291870606 0 0 0
125 1 3.5122693057229575 3.512269305722957 7.024641195877285 0 0 0
151 1 2.305715682234607e-05 2.305715682456668e-05 10.537067329966368 0 0 0
152 1 1.7561627802552957 1.7561627802552957 10.537067329966368 0 0 0
153 1 3.5122891165820116 2.4784529751393494e-05 10.537175044568958 0 0 0
161 1 2.4784529751084547e-05 3.5122891165820116 10.537175044568958 0 0 0
163 1 3.512269305722957 3.5122693057229575 10.537217178243917 0 0 0
106 1 5.26839058671557 1.7561408602277628 7.024579667032876 0 0 0
107 1 5.268473797554766 2.0509623609448768e-05 8.7809291870606 0 0 0
109 1 7.02454245328676 4.396376543761602e-05 7.024548091945513 0 0 0
112 1 7.024629827243641 1.7561498782534921 8.7809291870606 0 0 0
127 1 5.268463848854466 3.5122933056549592 8.7809291870606 0 0 0
129 1 7.024579873154921 3.512267886597596 7.024584826269871 0 0 0
154 1 5.268390586715569 1.7561408602277624 10.537278707088324 0 0 0
155 1 7.0245424532867595 4.3963765436911126e-05 10.537310282175687 0 0 0
165 1 7.024579873154922 3.5122678865975963 10.53727354785133 0 0 0
110 1 8.780841043314616 1.7561505106527147 7.0246066617030465 0 0 0
111 1 8.780868062178733 3.5184093448728275e-05 8.7809291870606 0 0 0
131 1 8.780876065333135 3.512283437850128 8.7809291870606 0 0 0
156 1 8.780841043314616 1.7561505106527149 10.537251712418154 0 0 0
113 1 10.537203168218703 3.5326759406125725e-05 7.0246066617030465 0 0 0
114 1 12.29350175824656 1.7561418736466816 7.024548091945512 0 0 0
115 1 12.293414384289678 3.595915862911212e-05 8.7809291870606 0 0 0
116 1 10.537176149354586 1.7561506533186697 8.7809291870606 0 0 0
133 1 10.537180021338436 3.5122761629052066 7.0246341319428796 0 0 0
135 1 12.293428727030832 3.5122770330096027 8.7809291870606 0 0 0
157 1 10.537203168218703 3.5326759405923535e-05 10.537251712418154 0 0 0
158 1 12.29350175824656 1.756141873646681 10.537310282175687 0 0 0
167 1 10.537180021338434 3.512276162905207 10.537224242178322 0 0 0
104 1 17.56185698693482 1.756187224598499 8.7809291870606 -1 0 0
117 1 14.04965362481775 4.497718435581588e-05 7.024579667032875 0 0 0
118 1 15.805755094951309 1.7561610528823686 7.024683329552244 0 0 0
119 1 15.80569807110132 1.884396039892087e-05 8.7809291870606 0 0 0
120 1 14.049570413978554 1.7561653277885105 8.7809291870606 0 0 0
137 1 14.049676231012324 3.512246844298507 7.024539593376475 0 0 0
139 1 15.805721419077408 3.51232279245591 8.7809291870606 0 0 0
159 1 14.049653624817749 4.4977184357486945e-05 10.537278707088326 0 0 0
160 1 15.805755094951309 1.7561610528823681 10.537175044568958 0 0 0
169 1 14.049676231012324 3.512246844298507 10.537318780744727 0 0 0
122 1 1.7561408602277628 5.26839058671557 7.024579667032876 0 0 0
124 1 2.0509623609358223e-05 5.268473797554766 8.7809291870606 0 0 0
128 1 3.5122933056549592 5.268463848854466 8.7809291870606 0 0 0
141 1 4.3963765438516185e-05 7.024542453286761 7.024548091945514 0 0 0
142 1 1.7561498782534906 7.024629827243641 8.780929187060599 0 0 0
143 1 3.5122678865975954 7.024579873154921 7.024584826269871 0 0 0
162 1 1.7561408602277624 5.268390586715569 10.537278707088326 0 0 0
171 1 4.3963765437361734e-05 7.02454245328676 10.537310282175687 0 0 0
172 1 3.5122678865975963 7.024579873154921 10.537273547851331 0 0 0
351 1 1.7561505106527142 8.780841043314616 7.0246066617030465 0 0 0
352 1 3.518409344882196e-05 8.780868062178733 8.7809291870606 0 0 0
354 1 3.512283437850128 8.780876065333137 8.7809291870606 0 0 0
401 1 1.7561505106527147 8.780841043314616 10.537251712418154 0 0 0
126 1 5.2684093245337325 5.268409324533733 7.024592990219993 0 0 0
132 1 7.024641658696095 5.268446573394091 8.7809291870606 0 0 0
144 1 5.268446573394092 7.024641658696094 8.7809291870606 0 0 0
145 1 7.02463812643165 7.02463812643165 7.024654387064633 0 0 0
164 1 5.2684093245337325 5.2684093245337325 10.53726538390121 0 0 0
173 1 7.0246381264316495 7.02463812643165 10.537203987056568 0 0 0
130 1 8.780874959246614 5.268444698069361 7.024654265606695 0 0 0
146 1 8.780893608305474 7.0246591951604325 8.7809291870606 0 0 0
166 1 8.780874959246614 5.268444698069361 10.537204108514505 0 0 0
353 1 5.268444698069361 8.780874959246615 7.024654265606696 0 0 0
356 1 7.0246591951604325 8.780893608305472 8.7809291870606 0 0 0
402 1 5.268444698069361 8.780874959246614 10.537204108514505 0 0 0
355 1 8.780894460385573 8.780894460385573 7.024685487417621 0 0 0
403 1 8.780894460385573 8.780894460385573 10.537172886703582 0 0 0
134 1 12.293438162271302 5.2684221302828025 7.024624934662711 0 0 0
136 1 10.537160026744113 5.268449398379252 8.7809291870606 0 0 0
147 1 10.53715547109139 7.024652088198522 7.024675952491063 0 0 0
148 1 12.293398101628384 7.024646109904936 8.7809291870606 0 0 0
168 1 12.293438162271302 5.2684221302828025 10.53723343945849 0 0 0
174 1 10.53715547109139 7.024652088198522 10.537182421630138 0 0 0
357 1 12.2933921233348 8.78088874044193 7.024675952491063 0 0 0
358 1 10.537147559576876 8.780896651956445 8.7809291870606 0 0 0
404 1 12.2933921233348 8.78088874044193 10.537182421630138 0 0 0
175 1 14.049622081250517 7.024606049262017 10.53723343945849 0 0 0
138 1 15.805797367234813 5.268367980520996 7.024539593376473 0 0 0
140 1 14.049613811178173 5.268430400355146 8.7809291870606 0 0 0
149 1 14.049622081250515 7.024606049262017 7.02462493466271 0 0 0
150 1 15.805767178523718 7.024615484502489 8.7809291870606 0 0 0
170 1 15.805797367234813 5.268367980520996 10.537318780744727 0 0 0
359 1 15.805768048628112 8.780864190194885 7.0246341319428796 0 0 0
360 1 14.04959481315407 8.780884184789207 8.7809291870606 0 0 0
405 1 15.805768048628112 8.780864190194885 10.53722424217832 0 0 0
176 1 1.7560806016974564 0.00010523571466353181 12.293334083084023 0 0 0
177 1 0.00010523571466338032 1.7560806016974562 12.293334083084023 0 0 0
179 1 3.5120351796584637 1.756085411478736 12.29356275104218 0 0 0
186 1 1.7560854114787356 3.512035179658464 12.29356275104218 0 0 0
201 1 0.00046212679795396163 0.0004621267979541682 14.050371029151782 0 0 0
202 1 1.755723710614164 1.7557237106141639 14.050371029151782 0 0 0
203 1 1.7526158715676934 0.003569965844425981 15.812950357112827 0 0 0
204 1 0.003569965844425978 1.7526158715676936 15.812950357112827 0 0 0
205 1 3.511411381264293 0.0004498609578760376 14.05064408656584 0 0 0
208 1 3.508275721493119 1.7557593773411684 15.809617590583255 0 0 0
221 1 0.0004498609578759492 3.511411381264293 14.050644086565839 0 0 0
223 1 1.7557593773411682 3.5082757214931184 15.809617590583256 0 0 0
225 1 3.5116677692465994 3.511667769246598 14.050368236239546 0 0 0
178 1 5.268084492097954 9.853575599580527e-05 12.293783944498578 0 0 0
181 1 7.02440590485683 1.7561420053490968 12.293634920865554 0 0 0
188 1 5.268192624642176 3.5121690350296393 12.293672677347901 0 0 0
206 1 5.267849275421474 1.7560927022609905 14.050198114623688 0 0 0
207 1 5.267967936684671 0.0004455410114107114 15.806212041349381 0 0 0
209 1 7.0244708505420075 9.692968722229348e-05 14.04976064408733 0 0 0
212 1 7.024747204739219 1.756173844939069 15.80579283489392 0 0 0
227 1 5.267758349539291 3.51173786946173 15.80618345924992 0 0 0
229 1 7.0244368532171 3.51220697016647 14.04977027086166 0 0 0
180 1 8.780824829169635 4.288133414052225e-05 12.293448503012161 0 0 0
190 1 8.780829340542532 3.5122734876240873 12.29345607129072 0 0 0
210 1 8.780881741855747 1.7561695716240966 14.049559756794004 0 0 0
182 1 12.293638306676492 4.38320630211099e-05 12.293634920865554 0 0 0
183 1 10.537219382363684 1.7561429560779782 12.293448503012161 0 0 0
192 1 12.2935564177792 3.5122187880025955 12.293550386983203 0 0 0
211 1 8.780930890723509 2.100133373397e-05 15.805688510622796 0 0 0
213 1 10.537162469677572 1.6265788023100946e-05 14.049559756794004 0 0 0
214 1 12.293573360991312 1.7560889077248958 14.04976064408733 0 0 0
215 1 12.2932970067941 1.1992473050764438e-05 15.80579283489392 0 0 0
216 1 10.53711332080981 1.7561648360783844 15.805688510622796 0 0 0
231 1 8.780933670276811 3.512333915983611 15.805707462226108 0 0 0
233 1 10.537206415038796 3.512280913593384 14.049580221694884 0 0 0
235 1 12.29352198424765 3.5121310055478445 15.805788994518423 0 0 0
184 1 15.806009031874856 0.00010042593338270366 12.29356275104218 0 0 0
185 1 14.049959719435364 1.7560873016561227 12.293783944498578 0 0 0
194 1 15.806003930624504 3.512040280908817 12.293781924444287 0 0 0
217 1 14.050194936111843 9.313515112940213e-05 14.050198114623688 0 0 0
218 1 15.806632830269027 1.7557359764542435 14.05064408656584 0 0 0
219 1 15.809768490040202 0.00042646007095131067 15.809617590583255 0 0 0
220 1 14.05007627484865 1.7557402964007098 15.806212041349381 0 0 0
237 1 14.049997803989978 3.511996857325854 14.049996395811736 0 0 0
239 1 15.806746063754671 3.5112981477786476 15.80659402467949 0 0 0
187 1 9.853575599703483e-05 5.268084492097954 12.29378394449858 0 0 0
189 1 3.5121690350296393 5.268192624642176 12.293672677347901 0 0 0
196 1 1.7561420053490975 7.02440590485683 12.293634920865554 0 0 0
222 1 1.7560927022609905 5.267849275421475 14.050198114623688 0 0 0
224 1 0.00044554101140978857 5.267967936684672 15.806212041349381 0 0 0
228 1 3.5117378694617303 5.267758349539291 15.806183459249922 0 0 0
241 1 9.692968722339922e-05 7.0244708505420075 14.04976064408733 0 0 0
242 1 1.7561738449390687 7.024747204739219 15.80579283489392 0 0 0
243 1 3.5122069701664693 7.0244368532171 14.04977027086166 0 0 0
426 1 4.2881334140060054e-05 8.780824829169635 12.293448503012161 0 0 0
427 1 3.5122734876240864 8.780829340542532 12.293456071290718 0 0 0
451 1 1.7561695716240968 8.780881741855747 14.049559756794004 0 0 0
191 1 7.0245442441574495 5.268383820991552 12.293502147384732 0 0 0
197 1 5.268383820991552 7.024544244157449 12.293502147384732 0 0 0
226 1 5.268157771129605 5.268157771129604 14.04984680506817 0 0 0
232 1 7.024429618940017 5.26825032035043 15.805799248171159 0 0 0
244 1 5.268250320350429 7.024429618940017 15.805799248171159 0 0 0
245 1 7.024551509826172 7.024551509826173 14.049636190881747 0 0 0
198 1 8.780872371845545 7.024636596250344 12.29341096187231 0 0 0
230 1 8.780844170397481 5.268426229557979 14.049604933740328 0 0 0
246 1 8.780833030418988 7.0245948591906595 15.80574014698499 0 0 0
428 1 7.024636596250343 8.780872371845545 12.29341096187231 0 0 0
453 1 5.268426229557979 8.780844170397483 14.049604933740328 0 0 0
456 1 7.024594859190659 8.780833030418988 15.80574014698499 0 0 0
455 1 8.780874432900157 8.780874432900157 14.049582488076346 0 0 0
193 1 10.537181944566802 5.268429761826129 12.293425720278583 0 0 0
199 1 12.293437398571381 7.024606812961938 12.293435494730767 0 0 0
234 1 12.293539761001833 5.268336715362466 14.049665798409704 0 0 0
236 1 10.53721892972018 5.268436251022755 15.805728440244883 0 0 0
247 1 10.537176444104537 7.024624159378676 14.04958979709515 0 0 0
248 1 12.293508020687527 7.024536190845794 15.805752794607576 0 0 0
429 1 10.53715464492421 8.780889566609112 12.293393593430096 0 0 0
457 1 12.293420052154643 8.780867767428784 14.049589797095148 0 0 0
458 1 10.537169510335751 8.780874701197568 15.805731711297021 0 0 0
195 1 14.049744882324012 5.268299329209309 12.293593596799779 0 0 0
200 1 15.805825423530726 7.024487793754118 12.293550386983203 0 0 0
238 1 15.806047354207466 5.268046407543343 14.049996395811736 0 0 0
240 1 14.049942364939723 5.2681018465935985 15.805866699174548 0 0 0
249 1 14.049707496170852 7.024504450531486 14.049665798409706 0 0 0
250 1 15.805913205985476 7.0245222272856696 15.805788994518423 0 0 0
430 1 14.04961444970719 8.780862266966519 12.293425720278583 0 0 0
459 1 15.805763297939937 8.780837796494527 14.049580221694885 0 0 0
460 1 14.049607960510565 8.780825281813142 15.805728440244884 0 0 0
251 1 1.756194961190321 8.780989297676632 0 0 0 0
252 1 2.1001333735347705e-05 8.780930890723509 1.7561698634984044 0 0 0
254 1 3.512333915983612 8.780933670276813 1.7561509118950913 0 0 0
262 1 1.756078454752719 12.293244477422325 8.771804236145781e-17 0 0 0
263 1 1.7561648360783841 10.53711332080981 1.756169863498404 0 0 0
264 1 1.1992473049876981e-05 12.293297006794102 1.75606553922728 0 0 0
265 1 3.51232602964623 10.537165270956654 0 0 0 0
268 1 3.5121310055478445 12.29352198424765 1.7560693796027789 0 0 0
311 1 1.6265788023227537e-05 10.537162469677574 3.512298617327196 0 0 0
312 1 1.756088907724895 12.293573360991312 3.512097730033871 0 0 0
313 1 1.756142956077978 10.537219382363684 5.26840987110904 0 0 0
314 1 4.3832063022279943e-05 12.293638306676492 5.268223453255647 0 0 0
315 1 3.512280913593384 10.537206415038794 3.512278152426317 0 0 0
318 1 3.512218788002595 12.293556417779202 5.268307987137996 0 0 0
266 1 5.268276515780859 12.293580833845292 1.2712734608787633e-16 0 0 0
267 1 5.268436251022754 10.537218929720177 1.7561299338763185 0 0 0
269 1 7.024612139181008 10.537202504375474 3.8715534544834794e-19 0 0 0
272 1 7.024536190845794 12.293508020687527 1.7561055795136247 0 0 0
316 1 5.268336715362467 12.293539761001833 3.512192575711496 0 0 0
317 1 5.2684297618261295 10.537181944566802 5.268432653842619 0 0 0
319 1 7.024624159378676 10.537176444104535 3.5122685770260507 0 0 0
322 1 7.024606812961938 12.293437398571381 5.2684228793904335 0 0 0
270 1 8.780841707157846 12.293432072352312 9.382544841429667e-19 0 0 0
271 1 8.78087470119757 10.537169510335751 1.7561266628241778 0 0 0
320 1 8.780867767428782 12.293420052154644 3.51226857702605 0 0 0
321 1 8.78088956660911 10.53715464492421 5.268464780691107 0 0 0
273 1 10.537195608638932 10.537195608638934 0 0 0 0
274 1 12.293600082893859 12.293600082893859 9.640982143574624e-19 0 0 0
275 1 12.29344935234266 10.537211181114332 1.7561182271362097 0 0 0
276 1 10.537211181114332 12.29344935234266 1.7561182271362095 0 0 0
323 1 10.537169778633162 10.537169778633162 3.5122758860448555 0 0 0
324 1 12.293492701707146 12.293492701707146 3.512222183239453 0 0 0
325 1 12.293407615282975 10.537171839687776 5.268447412248889 0 0 0
326 1 10.537171839687776 12.293407615282977 5.268447412248889 0 0 0
261 1 17.561849250343 10.53705491385669 7.648590982734701e-17 -1 0 0
277 1 14.04957969774603 10.537159479131105 1.1996678157759724e-16 0 0 0
278 1 15.805808935404137 12.293346251839015 6.820248874509905e-16 0 0 0
279 1 15.805710295549707 10.537110541256508 1.7561509118950918 0 0 0
280 1 14.049793891182892 12.293614592593302 1.7560591259500424 0 0 0
327 1 14.049617981975342 10.537200041135838 3.512253440380874 0 0 0
328 1 15.80583724136685 12.293607358316219 3.5120881032595386 0 0 0
329 1 15.805770723909232 10.537214870990788 5.268402302830481 0 0 0
330 1 14.049660390541769 12.29349996737587 5.2683562267364685 0 0 0
281 1 6.651865036270114e-05 14.049690885779416 0 0 0 0
282 1 1.752647331791286 15.80930803270489 3.619125779403345e-19 0 0 0
283 1 1.7557402964007094 14.05007627484865 1.7556463327718188 0 0 0
284 1 0.00042646007095119813 15.809768490040202 1.7522407835379463 0 0 0
285 1 3.5117894497149797 14.049963616394496 1.5826323702266648e-19 0 0 0
288 1 3.511298147778647 15.806746063754671 1.7552643494417124 0 0 0
331 1 9.313515112985935e-05 14.050194936111845 3.5116602594975137 0 0 0
332 1 1.7557359764542435 15.806632830269027 3.5112142875553616 0 0 0
333 1 1.7560873016561231 14.049959719435364 5.2680744296226205 0 0 0
334 1 0.00010042593338311705 15.806009031874856 5.2682956230790206 0 0 0
335 1 3.511996857325855 14.049997803989976 3.5118619783094656 0 0 0
338 1 3.512040280908817 15.806003930624504 5.268076449676912 0 0 0
341 1 8.780862266966519 14.049614449707192 5.268432653842618 0 0 0
340 1 8.780837796494525 15.805763297939937 3.512278152426317 0 0 0
286 1 5.268080595138825 15.80625476181834 0 0 0 0
287 1 5.2681018465935985 14.04994236493972 1.7559916749466542 0 0 0
289 1 7.02446337768803 14.049767695752461 2.0004055199571674e-16 0 0 0
292 1 7.02452222728567 15.805913205985476 1.7560693796027789 0 0 0
336 1 5.268046407543343 15.806047354207466 3.5118619783094664 0 0 0
337 1 5.2682993292093085 14.049744882324012 5.268264777321421 0 0 0
339 1 7.024504450531486 14.049707496170853 3.512192575711496 0 0 0
342 1 7.024487793754116 15.805825423530726 5.268307987137997 0 0 0
290 1 8.780878940576665 15.805718181887089 1.3601106519206677e-16 0 0 0
291 1 8.780825281813142 14.049607960510567 1.7561299338763188 0 0 0
346 1 10.537214870990788 15.805770723909234 5.268402302830481 0 0 0
345 1 12.29349996737587 14.049660390541769 5.2683562267364685 0 0 0
344 1 12.293607358316219 15.805837241366852 3.512088103259539 0 0 0
343 1 10.537200041135838 14.049617981975342 3.5122534403808747 0 0 0
296 1 10.537110541256508 15.805710295549709 1.7561509118950915 0 0 0
295 1 12.293614592593302 14.049793891182892 1.756059125950041 0 0 0
294 1 12.293346251839013 15.805808935404135 2.7523715567411175e-16 0 0 0
293 1 10.537159479131107 14.049579697746031 0 0 0 0
13 1 10.53705491385669 17.561849250343 3.747365811857443e-17 0 -1 0
350 1 14.049851586891142 15.805875176503681 5.2681856967732985 0 0 0
349 1 15.805875176503681 14.049851586891142 5.268185696773299 0 0 0
348 1 15.806376442286721 15.806376442286721 3.511490137881656 0 0 0
347 1 14.049886440403714 14.049886440403714 3.5120115690530307 0 0 0
300 1 14.050285861994029 15.80630634207159 1.755674914871279 0 0 0
299 1 15.80630634207159 14.050285861994027 1.7556749148712774 0 0 0
298 1 15.809526066025773 15.809526066025773 1.0081802316018754e-16 0 0 0
297 1 14.050158052688245 14.050158052688245 2.312177757538745e-19 0 0 0
361 1 3.532675940538265e-05 10.537203168218703 7.0246066617030465 0 0 0
362 1 1.756141873646681 12.29350175824656 7.024548091945513 0 0 0
363 1 1.7561506533186702 10.537176149354586 8.7809291870606 0 0 0
364 1 3.5959158628214336e-05 12.29341438428968 8.7809291870606 0 0 0
365 1 3.512276162905207 10.537180021338434 7.0246341319428796 0 0 0
368 1 3.5122770330096023 12.293428727030834 8.780929187060602 0 0 0
406 1 3.532675940541515e-05 10.537203168218703 10.537251712418154 0 0 0
407 1 1.756141873646681 12.29350175824656 10.537310282175687 0 0 0
408 1 3.5122761629052066 10.537180021338434 10.53722424217832 0 0 0
366 1 5.268422130282803 12.293438162271302 7.024624934662711 0 0 0
367 1 5.268449398379252 10.537160026744113 8.7809291870606 0 0 0
369 1 7.024652088198522 10.53715547109139 7.024675952491063 0 0 0
372 1 7.024646109904936 12.293398101628384 8.7809291870606 0 0 0
409 1 5.268422130282803 12.293438162271302 10.53723343945849 0 0 0
410 1 7.024652088198522 10.537155471091392 10.537182421630138 0 0 0
370 1 8.78088874044193 12.2933921233348 7.024675952491063 0 0 0
371 1 8.780896651956445 10.537147559576875 8.7809291870606 0 0 0
411 1 8.78088874044193 12.2933921233348 10.537182421630138 0 0 0
373 1 10.537149751147748 10.537149751147748 7.02468548741762 0 0 0
374 1 12.29340608510167 12.29340608510167 7.024654387064634 0 0 0
375 1 12.293385016372888 10.537150603227849 8.7809291870606 0 0 0
376 1 10.537150603227849 12.293385016372888 8.7809291870606 0 0 0
412 1 10.537149751147748 10.537149751147748 10.537172886703582 0 0 0
413 1 12.293406085101669 12.293406085101669 10.537203987056566 0 0 0
377 1 14.049599513463958 10.537169252286706 7.024654265606695 0 0 0
378 1 15.805776324935724 12.2934643383784 7.02458482626987 0 0 0
379 1 15.805760773683193 10.537168146200184 8.7809291870606 0 0 0
380 1 14.049597638139229 12.293402552837225 8.7809291870606 0 0 0
414 1 14.049599513463958 10.537169252286706 10.537204108514505 0 0 0
415 1 15.805776324935724 12.2934643383784 10.53727354785133 0 0 0
381 1 4.497718435659685e-05 14.04965362481775 7.024579667032876 0 0 0
382 1 1.7561610528823692 15.805755094951309 7.024683329552244 0 0 0
383 1 1.7561653277885099 14.049570413978554 8.7809291870606 0 0 0
384 1 1.8843960397943416e-05 15.805698071101318 8.7809291870606 0 0 0
385 1 3.5122468442985064 14.049676231012324 7.024539593376474 0 0 0
388 1 3.5123227924559104 15.80572141907741 8.7809291870606 0 0 0
416 1 4.4977184357121996e-05 14.049653624817749 10.537278707088324 0 0 0
417 1 1.756161052882369 15.805755094951309 10.537175044568958 0 0 0
418 1 3.512246844298506 14.049676231012324 10.537318780744728 0 0 0
103 1 1.756187224598499 17.56185698693482 8.7809291870606 0 -1 0
421 1 8.780864190194885 15.805768048628112 10.53722424217832 0 0 0
391 1 8.780884184789207 14.04959481315407 8.7809291870606 0 0 0
390 1 8.780864190194883 15.805768048628112 7.0246341319428796 0 0 0
386 1 5.268367980520997 15.805797367234813 7.024539593376474 0 0 0
387 1 5.268430400355147 14.049613811178173 8.7809291870606 0 0 0
389 1 7.024606049262017 14.049622081250517 7.024624934662711 0 0 0
392 1 7.024615484502488 15.805767178523718 8.7809291870606 0 0 0
419 1 5.268367980520997 15.805797367234815 10.537318780744728 0 0 0
420 1 7.024606049262018 14.049622081250517 10.53723343945849 0 0 0
423 1 12.2934643383784 15.805776324935724 10.53727354785133 0 0 0
422 1 10.537169252286706 14.049599513463958 10.537204108514505 0 0 0
396 1 10.537168146200184 15.805760773683193 8.7809291870606 0 0 0
395 1 12.293402552837225 14.049597638139229 8.7809291870606 0 0 0
394 1 12.2934643383784 15.805776324935724 7.02458482626987 0 0 0
393 1 10.537169252286706 14.049599513463958 7.024654265606695 0 0 0
425 1 15.805774905810363 15.805774905810363 10.537217178243917 0 0 0
424 1 14.049634886999588 14.049634886999588 10.53726538390121 0 0 0
400 1 14.049580362678855 15.80575090587836 8.7809291870606 0 0 0
399 1 15.80575090587836 14.049580362678855 8.7809291870606 0 0 0
398 1 15.805774905810363 15.805774905810363 7.024641195877285 0 0 0
397 1 14.049634886999588 14.049634886999588 7.024592990219993 0 0 0
431 1 1.756142956077978 10.537219382363684 12.29344850301216 0 0 0
432 1 4.383206302214318e-05 12.293638306676492 12.293634920865554 0 0 0
434 1 3.5122187880025955 12.293556417779202 12.293550386983203 0 0 0
452 1 2.100133373489544e-05 8.780930890723509 15.805688510622796 0 0 0
454 1 3.5123339159836116 8.780933670276813 15.80570746222611 0 0 0
461 1 1.626578802128797e-05 10.537162469677572 14.049559756794006 0 0 0
462 1 1.7560889077248956 12.293573360991312 14.04976064408733 0 0 0
463 1 1.7561648360783846 10.537113320809812 15.805688510622796 0 0 0
464 1 1.1992473051180452e-05 12.2932970067941 15.80579283489392 0 0 0
465 1 3.512280913593384 10.537206415038794 14.049580221694884 0 0 0
468 1 3.5121310055478445 12.29352198424765 15.805788994518423 0 0 0
433 1 5.2684297618261295 10.537181944566802 12.293425720278583 0 0 0
436 1 7.024606812961938 12.293437398571381 12.293435494730765 0 0 0
466 1 5.268336715362466 12.293539761001833 14.049665798409706 0 0 0
467 1 5.268436251022755 10.53721892972018 15.805728440244883 0 0 0
469 1 7.024624159378676 10.537176444104537 14.04958979709515 0 0 0
472 1 7.024536190845795 12.293508020687527 15.805752794607576 0 0 0
435 1 8.78088956660911 10.53715464492421 12.293393593430094 0 0 0
470 1 8.780867767428784 12.293420052154644 14.04958979709515 0 0 0
471 1 8.780874701197568 10.537169510335751 15.805731711297023 0 0 0
437 1 12.293407615282975 10.537171839687776 12.29341096187231 0 0 0
438 1 10.537171839687774 12.293407615282977 12.29341096187231 0 0 0
473 1 10.537169778633162 10.537169778633162 14.049582488076346 0 0 0
474 1 12.293492701707146 12.293492701707146 14.049636190881749 0 0 0
475 1 12.29344935234266 10.537211181114333 15.805740146984991 0 0 0
476 1 10.537211181114332 12.29344935234266 15.805740146984991 0 0 0
439 1 15.805770723909234 10.537214870990786 12.29345607129072 0 0 0
440 1 14.049660390541769 12.29349996737587 12.293502147384732 0 0 0
477 1 14.04961798197534 10.53720004113584 14.049604933740328 0 0 0
478 1 15.80583724136685 12.293607358316219 14.04977027086166 0 0 0
479 1 15.805710295549709 10.537110541256508 15.805707462226108 0 0 0
480 1 14.04979389118289 12.293614592593302 15.805799248171157 0 0 0
441 1 1.756087301656123 14.049959719435366 12.293783944498578 0 0 0
442 1 0.00010042593338297071 15.806009031874856 12.293562751042181 0 0 0
444 1 3.5120402809088165 15.806003930624504 12.293781924444287 0 0 0
481 1 9.313515113032358e-05 14.050194936111845 14.050198114623688 0 0 0
482 1 1.7557359764542433 15.806632830269027 14.050644086565839 0 0 0
483 1 1.7557402964007094 14.05007627484865 15.806212041349381 0 0 0
484 1 0.00042646007095134547 15.809768490040202 15.809617590583255 0 0 0
485 1 3.511996857325854 14.049997803989978 14.049996395811734 0 0 0
488 1 3.511298147778647 15.806746063754671 15.80659402467949 0 0 0
491 1 8.780825281813142 14.049607960510565 15.805728440244883 0 0 0
490 1 8.780837796494525 15.805763297939937 14.049580221694885 0 0 0
443 1 5.2682993292093085 14.049744882324012 12.293593596799779 0 0 0
446 1 7.024487793754117 15.805825423530726 12.293550386983203 0 0 0
486 1 5.268046407543344 15.806047354207466 14.049996395811734 0 0 0
487 1 5.2681018465935985 14.04994236493972 15.805866699174548 0 0 0
489 1 7.024504450531486 14.049707496170853 14.049665798409706 0 0 0
492 1 7.02452222728567 15.805913205985476 15.805788994518421 0 0 0
445 1 8.780862266966519 14.049614449707192 12.293425720278583 0 0 0
496 1 10.537110541256508 15.805710295549709 15.80570746222611 0 0 0
495 1 12.293614592593302 14.049793891182892 15.805799248171159 0 0 0
494 1 12.293607358316219 15.80583724136685 14.04977027086166 0 0 0
493 1 10.537200041135838 14.04961798197534 14.049604933740328 0 0 0
448 1 10.537214870990788 15.805770723909232 12.29345607129072 0 0 0
447 1 12.29349996737587 14.049660390541769 12.29350214738473 0 0 0
500 1 14.050285861994029 15.806306342071588 15.806183459249922 0 0 0
499 1 15.80630634207159 14.050285861994029 15.806183459249922 0 0 0
498 1 15.806376442286721 15.806376442286721 14.050368236239544 0 0 0
497 1 14.049886440403714 14.049886440403714 14.04984680506817 0 0 0
450 1 14.049851586891142 15.805875176503681 12.293672677347901 0 0 0
449 1 15.805875176503681 14.049851586891142 12.293672677347901 0 0 0

Velocities

1 6.634472459075205e-09 6.634474081798201e-09 -4.378957344699967e-16
2 -6.634473800130893e-09 -6.634478447071304e-09 2.10273712703296e-16
3 -1.0301141741810105e-09 1.0301141834416707e-09 -7.794778545168032e-09
4 1.0301132708185378e-09 -1.0301152782906993e-09 -7.794778556519809e-09
5 1.334631071131934e-09 -2.73719136943325e-09 -2.7961500256875614e-16
8 4.356489173135163e-09 -4.040543786439991e-09 -3.0759746747126812e-09
21 -2.737195234827712e-09 1.3346334838886771e-09 1.5653503164732585e-16
23 -4.040543273593878e-09 4.356490084077935e-09 -3.0759720922230654e-09
25 6.716175528191911e-09 6.7161721607889885e-09 -4.3617873236491373e-16
51 1.4148993976217841e-09 1.4148986155440878e-09 -6.311955007165599e-10
52 -1.4148958988845882e-09 -1.4148953336855808e-09 -6.311995050559334e-10
53 -2.188795292193245e-09 2.1887922318437567e-09 -1.2390583345456856e-08
54 2.1887929549220853e-09 -2.188794414820367e-09 -1.2390583343067009e-08
55 2.00489017982936e-09 3.87096712229227e-09 -9.142043122209254e-10
58 -5.823729747355669e-09 -1.5403500076285712e-09 -6.5958103090929614e-09
71 3.870966786875729e-09 2.0048918811396123e-09 -9.142045645844201e-10
73 -1.540349970347539e-09 -5.823729486488844e-09 -6.5958102435518515e-09
75 -6.303285052707467e-09 -6.30328312825101e-09 5.747352532946815e-12
6 2.993737668138603e-10 1.729044376224443e-11 -1.4346555142867985e-15
7 -3.615922471086337e-10 3.2057313819116675e-09 -6.6810745272685624e-09
9 4.871399159379646e-09 3.3513368843255093e-09 -9.583289723752315e-16
12 -5.486311896858567e-10 6.880570254213412e-10 -7.734741428929015e-10
27 -4.0289521962775123e-10 -4.638401530567898e-09 -1.8282465903272137e-09
29 -1.9132256202303147e-09 -6.407431407817784e-09 -9.559274553850554e-16
56 -2.475810079877648e-10 -1.5079519602546004e-09 6.294259274490175e-10
57 9.966240270886392e-10 -2.907430984365655e-09 -2.6718848644263195e-10
59 5.781420611427567e-09 -1.2518619246583064e-09 7.570232463934547e-10
62 -6.709262924950868e-10 -2.9920394212512875e-09 6.649071110324924e-09
77 4.30887736956953e-09 -3.740329896919078e-09 8.242041800968207e-09
79 1.1193102559659934e-09 -2.0740896722500018e-09 4.706614560361317e-09
60 2.121289135597349e-09 -3.3367446743362587e-09 4.525778666427705e-09
61 -6.427235516136941e-10 -1.1040375154673099e-10 3.5794850248377143e-09
81 -1.6367335521445467e-09 -1.636143890772937e-10 8.403645997533455e-09
10 5.21372663816435e-10 2.4438249642648553e-09 -1.2713990356698832e-15
11 2.006347016454719e-09 -1.1992219370605983e-09 5.440404675744606e-09
14 -4.871399393426031e-09 -3.351336754851948e-09 -8.90825107045925e-18
15 5.486312788687223e-10 -6.880555921182847e-10 -7.734757529247474e-10
16 -2.006344941626599e-09 1.199223968431238e-09 5.440405462004536e-09
31 -9.691029710599768e-10 -2.229504572808759e-09 1.3995802904766567e-09
33 -5.882570875252604e-09 -1.345889769843872e-09 -3.395054208726166e-16
35 -7.185480725248921e-09 1.4471275713876192e-10 1.817534572110907e-10
63 -2.121288212252575e-09 3.3367475660521103e-09 4.525779885100724e-09
64 -5.781422123753135e-09 1.251860371257229e-09 7.570211948584741e-10
65 6.709233374015913e-10 2.992039802523033e-09 6.649071153174148e-09
66 6.427236972871999e-10 1.104011131547472e-10 3.5794843544854033e-09
83 -3.6811260998506067e-09 -6.165117723418181e-09 -1.6743070994123164e-09
85 -3.978568622740521e-09 -3.5678642231944403e-09 5.884398634118701e-09
17 -2.9937730748074934e-10 -1.7291800000877404e-11 -6.987317538608687e-16
18 -1.3346275570661048e-09 2.7371905788067132e-09 6.165807353436652e-16
19 -4.356491215521508e-09 4.0405478334235026e-09 -3.0759785558652022e-09
20 3.615934185448164e-10 -3.205737139652507e-09 -6.681072723530927e-09
37 -1.1592906116538934e-10 1.179460306419221e-09 -7.811815033544983e-17
39 -1.1455037634987877e-09 1.1455095050194688e-09 -1.0784111937112132e-08
67 2.475822610323492e-10 1.50795555189713e-09 6.294245973493449e-10
68 -2.004892836481275e-09 -3.870967614509899e-09 -9.142023002036188e-10
69 5.823729336525894e-09 1.5403496166500628e-09 -6.595812643855247e-09
70 -9.966230447118233e-10 2.907434138367304e-09 -2.6718885432982944e-10
87 -1.3276228693312937e-09 1.586642164259763e-09 -3.738138620412904e-09
89 -1.99691215300899e-09 1.9969099892071743e-09 -5.063088735230264e-09
22 1.7289994470855883e-11 2.9937727088620475e-10 -1.4452604639499284e-15
24 3.205731491844667e-09 -3.615956434931288e-10 -6.681073932196458e-09
28 -4.638402671701558e-09 -4.0289589519432545e-10 -1.8282453243076694e-09
41 3.351333615013703e-09 4.871401475889003e-09 4.062741279396244e-17
42 6.880594009300658e-10 -5.486286074552964e-10 -7.734765635100035e-10
43 -6.407437247485594e-09 -1.913222796615845e-09 6.739359158996179e-16
72 -1.507951114248475e-09 -2.4758417242165975e-10 6.294249724060859e-10
74 -2.907432298781951e-09 9.966245034151812e-10 -2.6718787882382594e-10
78 -3.740330146079383e-09 4.308877018258e-09 8.242039787908843e-09
91 -1.2518621947111093e-09 5.781421700003245e-09 7.570229285436959e-10
92 -2.9920375332715166e-09 -6.709250877177266e-10 6.649071535120372e-09
93 -2.0740900450662604e-09 1.1193112466303879e-09 4.706614733358059e-09
301 -3.33674361324383e-09 2.121289404156497e-09 4.525778005784151e-09
302 -1.1040397858227307e-10 -6.427228121425033e-10 3.579484364044794e-09
304 -1.6361349644113011e-10 -1.636736808628552e-09 8.403645728800437e-09
26 -1.5796234082918657e-09 -1.5796276989648802e-09 -2.0014975420555025e-17
32 -2.074661310842358e-09 8.357420644493417e-10 3.646638706364677e-09
44 8.357421617501633e-10 -2.074661335338298e-09 3.6466376434798628e-09
45 -8.667586655882017e-09 -8.667585770742134e-09 -1.2004504287686622e-15
76 2.4544215867949793e-09 2.454421605067783e-09 2.592582587106822e-09
82 -2.951123681177132e-10 -4.039860664056752e-09 9.839426659174873e-09
94 -4.039859689292908e-09 -2.9511099388635063e-10 9.839428439951066e-09
95 -1.1559980050338332e-09 -1.1560010149970333e-09 -1.318192363771189e-09
30 -2.811836604998591e-09 -5.384800735009436e-09 -1.5707836206777956e-15
46 -4.619993795939399e-09 -4.516431667379783e-09 -2.695317859932948e-11
80 -1.5821436745583042e-09 -9.636351597373904e-10 5.069805048508024e-10
96 -3.1705241546312804e-09 4.686463502257025e-09 3.3992507024686577e-09
253 -5.384797312103231e-09 -2.811836548532602e-09 -9.702782114322793e-16
256 -4.516431131456411e-09 -4.619993574411496e-09 -2.6951337819052743e-11
303 -9.636372011189786e-10 -1.5821386485998333e-09 5.069797423073113e-10
306 4.686463562301951e-09 -3.170525006689042e-09 3.3992493586273602e-09
255 -3.4415617713262076e-09 -3.441564649235087e-09 -7.40852821536962e-16
305 -4.401038023318611e-09 -4.401032656806998e-09 -7.170051411154161e-10
34 -7.882197797052751e-09 1.5854360340857786e-09 8.259876490647975e-16
36 -3.941180940827084e-09 1.2459635684781561e-11 -5.950079739050859e-09
47 5.906130089673803e-11 -7.404822626390056e-09 -1.2758800003162762e-15
48 -2.7610833977218354e-09 2.7610878201745664e-09 -4.203178755036695e-09
84 -6.934280808298596e-09 4.134851468691859e-09 -8.785327920238854e-09
86 2.1372674116174444e-09 2.4095431845075735e-09 3.5997519482484177e-09
97 6.329979937518734e-10 -1.5089474768260918e-09 -1.7413134620756563e-09
98 -3.369451378205047e-11 3.369544418912036e-11 -3.266664313758235e-09
257 7.4048223364296335e-09 -5.906465730209977e-11 -4.445595365551205e-16
258 1.0595880186936148e-09 -1.0595874492392226e-09 1.7911812623399068e-09
307 1.5089491899571253e-09 -6.329965367296254e-10 -1.7413151008834531e-09
308 -2.305914779721655e-09 2.3059115933061634e-09 -3.526703194992703e-10
100 3.5678683498325587e-09 3.978571887277299e-09 5.884402207249245e-09
38 -1.1794581155262399e-09 1.1592627639522709e-10 1.0730416673228902e-15
40 -3.2474060412518694e-09 3.2474042839669008e-09 7.52432183848238e-11
49 -1.5854386276599474e-09 7.882198217390573e-09 1.6113548868428924e-15
50 -1.4471049156303668e-10 7.185480570506275e-09 1.817513230769951e-10
88 -1.5866414443367804e-09 1.327621397967351e-09 -3.738142893172562e-09
90 -1.847171982607622e-09 1.8471655859372358e-09 1.9949269240571796e-09
99 -4.1348547154471425e-09 6.934282835979441e-09 -8.785330258307356e-09
259 1.345894042891759e-09 5.882567536618437e-09 5.544446922470168e-16
260 -1.2462821533953359e-11 3.941180705185586e-09 -5.950076784482477e-09
309 6.165119275134229e-09 3.6811285626932884e-09 -1.6743054024570018e-09
310 -2.4095454840476106e-09 -2.1372690367078897e-09 3.599750763404349e-09
101 3.294161300160439e-10 3.294134438271039e-10 1.4534087695553199e-09
102 -3.2941420379870795e-10 -3.294134617509625e-10 1.4534077616370053e-09
105 -1.7414915171547308e-09 -2.582213129714311e-09 2.4039195609013905e-09
108 -2.3137862111503444e-09 -4.429913336843041e-09 -3.829731117783812e-16
121 -2.5822136196424478e-09 -1.7414921901116026e-09 2.4039198017170657e-09
123 -4.429913269500429e-09 -2.313785446399045e-09 -2.927563568976705e-17
125 -4.643306073772802e-09 -4.6433053966185265e-09 4.418666907787357e-09
151 3.2941638811960757e-10 3.2941179961180963e-10 -1.4534063462496391e-09
152 -3.294130232138891e-10 -3.2941280454281437e-10 -1.453406095315619e-09
153 -1.7414945963896176e-09 -2.5822133876778442e-09 -2.4039198386103413e-09
161 -2.582214409636515e-09 -1.7414935140872901e-09 -2.40391960096985e-09
163 -4.6433063701326015e-09 -4.643307520396226e-09 -4.418670372816963e-09
106 -5.408485201299815e-10 -4.6694008339934925e-09 3.892447490313084e-09
107 -4.667058042502537e-09 -1.092893994870847e-09 -1.2436170548622472e-15
109 -5.077715388004904e-09 -3.6577417050914004e-10 -2.7807743247550683e-09
112 -7.01102622098422e-09 1.347450297447462e-09 1.6071726531729258e-16
127 -1.2899853692757598e-09 -4.1851565357938845e-09 8.312026050556125e-16
129 -3.5573400877332313e-09 -4.2282319387931147e-10 -1.8665563998828256e-09
154 -5.408454246632669e-10 -4.669398631161056e-09 -3.892445505376441e-09
155 -5.077711822520005e-09 -3.65769596340429e-10 2.7807736503698887e-09
165 -3.5573422480052845e-09 -4.22825284902793e-10 1.8665567397126496e-09
110 -3.434263623618501e-09 9.398451103114037e-10 -2.367997563415274e-09
111 -1.1931095131683664e-09 -1.7565650415129883e-09 1.7177031144506178e-16
131 -2.418864834187706e-09 7.0902551802560644e-09 -4.77966061528281e-16
156 -3.4342642425809155e-09 9.398429355498953e-10 2.367998413902364e-09
113 3.4342629200323687e-09 -9.398487381003814e-10 -2.3679990006100016e-09
114 5.0777183325307904e-09 3.657741418309663e-10 -2.7807717405827566e-09
115 7.011030700324516e-09 -1.3474550047895086e-09 -1.4388960938505986e-15
116 1.1931090169139304e-09 1.7565712359985154e-09 6.028391104280603e-16
133 3.95655748112125e-09 7.2449338255096885e-09 -4.229702266275071e-09
135 3.0779795843622833e-09 7.803172583004123e-09 1.2202600266429241e-15
157 3.4342641981575187e-09 -9.39848221893254e-10 2.3679999873184168e-09
158 5.0777115465019184e-09 3.657768232402107e-10 2.780773809742865e-09
167 3.9565617197984095e-09 7.244932163015792e-09 4.2297000145471605e-09
104 -3.289350737263288e-09 3.289352446004473e-09 -9.368203420725455e-16
117 5.408463918818197e-10 4.669401801284394e-09 3.892450080011918e-09
118 1.7414923418669386e-09 2.5822135020918085e-09 2.4039184631035604e-09
119 2.313783046991842e-09 4.429909584355104e-09 4.158335191852626e-16
120 4.667053750118821e-09 1.0928931472800472e-09 -1.446156656879207e-15
137 6.106959752877742e-10 -1.948553352754774e-09 -2.29951295204239e-09
139 4.10506732670897e-09 -4.10506160653355e-09 -7.528020605940098e-16
159 5.408506204187909e-10 4.669398585296067e-09 -3.892451271351052e-09
160 1.7414919582963649e-09 2.5822152968675145e-09 -2.4039178399507435e-09
169 6.106961969461588e-10 -1.9485537954469823e-09 2.2995127435281688e-09
122 -4.6694013836584895e-09 -5.408499461937711e-10 3.8924469640984684e-09
124 -1.0928950985907852e-09 -4.667058826155572e-09 -7.661609364460688e-16
128 -4.185157602161949e-09 -1.2899847888951507e-09 1.2209181683253631e-15
141 -3.65777972757008e-10 -5.0777171460367e-09 -2.7807773742008757e-09
142 1.347455726434862e-09 -7.0110258518024e-09 6.395830205284822e-15
143 -4.2282247518859424e-10 -3.55733718706453e-09 -1.866555762982549e-09
162 -4.66940008358128e-09 -5.40845247144718e-10 -3.892450299579186e-09
171 -3.657748922431791e-10 -5.0777151555922036e-09 2.7807746775563516e-09
172 -4.2282603820896214e-10 -3.5573402423785097e-09 1.8665504633888377e-09
351 9.398453779743585e-10 -3.434262471935904e-09 -2.367998007030774e-09
352 -1.7565688389811605e-09 -1.1931085008321009e-09 2.5989594949078913e-16
354 7.09025471542133e-09 -2.418872132967295e-09 3.3461370113363767e-17
401 9.398434708758049e-10 -3.4342651570792856e-09 2.36799706961297e-09
126 -2.0285081401372306e-09 -2.0285102558340235e-09 -7.047034290968889e-10
132 4.407429876188483e-09 4.153921898545282e-09 3.67491612308669e-16
144 4.153918911543365e-09 4.407431804446615e-09 8.722944511644877e-17
145 5.37723009636266e-09 5.3772305060596975e-09 5.764858601045245e-10
164 -2.0285069652343263e-09 -2.0285079644215695e-09 7.047015443564819e-10
173 5.377231661866224e-09 5.3772288403357736e-09 -5.764871111898538e-10
130 -2.2590002549306853e-09 5.0795689058717454e-09 7.595519228540769e-10
146 3.807958970792432e-09 3.1787421219875434e-09 5.867076377010458e-16
166 -2.259000836965984e-09 5.0795704700361e-09 -7.595521210247384e-10
353 5.079569038347264e-09 -2.2590050748056247e-09 7.595504656443738e-10
356 3.178742662310524e-09 3.807962875923525e-09 1.3765523393719036e-15
402 5.079570553305326e-09 -2.259000110643624e-09 -7.595522796882282e-10
355 2.1370056076671405e-09 2.1370044111002147e-09 -3.352918128026121e-09
403 2.1370049280912826e-09 2.13700517301357e-09 3.3529156684246266e-09
134 1.8765443859005133e-09 2.722364035276458e-09 -8.610580913802917e-09
136 -7.574795517050316e-11 6.706389040617103e-09 4.0800583406859494e-16
147 5.121885156436149e-10 7.3973787352978895e-09 1.359730185690843e-09
148 -5.46604818928449e-09 5.46604680355934e-09 9.93709922395709e-16
168 1.8765443770646113e-09 2.7223648309067383e-09 8.610578652674047e-09
174 5.121887435993446e-10 7.397378728725808e-09 -1.3597303661243528e-09
357 -7.39737930139309e-09 -5.121857130258084e-10 1.3597305937573568e-09
358 4.402623661489042e-09 -4.402623372696249e-09 3.895451932597575e-16
404 -7.39737952282852e-09 -5.121862980904258e-10 -1.3597313186280712e-09
175 -2.72236465185836e-09 -1.87654528426391e-09 8.610577914759668e-09
138 1.9485528942689477e-09 -6.106957112095911e-10 -2.2995069033375798e-09
140 -2.9186019007747924e-09 2.918607302876405e-09 -3.817781878726764e-16
149 -2.7223602127160504e-09 -1.8765449616344555e-09 -8.610578307292171e-09
150 -7.803177695771791e-09 -3.0779816613267383e-09 -1.0228548632832895e-15
170 1.9485543616355042e-09 -6.106963755872827e-10 2.2995121819139332e-09
359 -7.2449317589448055e-09 -3.956562141437546e-09 -4.2297027741760765e-09
360 -6.70639065503865e-09 7.574996335777545e-11 -3.625100398931869e-16
405 -7.244932363725667e-09 -3.9565616237367644e-09 4.229703493968365e-09
176 -2.188792945362694e-09 2.1887925582073487e-09 1.2390582322153896e-08
177 2.188791602268224e-09 -2.1887924494692733e-09 1.2390583099899993e-08
179 -5.82373110083104e-09 -1.5403502725955876e-09 6.595813016074044e-09
186 -1.540348904475415e-09 -5.8237326369057215e-09 6.595813205525495e-09
201 1.4148996844035216e-09 1.414899995083737e-09 6.311984465027184e-10
202 -1.414895229727201e-09 -1.4148941716220826e-09 6.311985184968838e-10
203 -1.0301152926297861e-09 1.0301143426652812e-09 7.794778755624005e-09
204 1.0301134739556017e-09 -1.0301151755272433e-09 7.794778787140123e-09
205 2.0048912957389227e-09 3.8709655641535055e-09 9.141996672542858e-10
208 4.356490546046719e-09 -4.040543106402553e-09 3.0759772921503206e-09
221 3.870967530715861e-09 2.0048904830786427e-09 9.142051925169325e-10
223 -4.040542915116707e-09 4.356492731282482e-09 3.0759705083514283e-09
225 -6.303287733150504e-09 -6.303283436721083e-09 -5.750153922134662e-12
178 9.966232281326428e-10 -2.9074320048306702e-09 2.671923412671518e-10
181 -6.709272908572191e-10 -2.992036931029868e-09 -6.649073648193934e-09
188 4.308880459368707e-09 -3.74033254126701e-09 -8.242039593782718e-09
206 -2.4758152352741503e-10 -1.507951950695209e-09 -6.294272624777511e-10
207 -3.615920000207748e-10 3.2057319005086425e-09 6.681076400909247e-09
209 5.7814206278297645e-09 -1.2518606867171402e-09 -7.570218069582449e-10
212 -5.48629188587984e-10 6.880562367715635e-10 7.734749986077834e-10
227 -4.0289495937895493e-10 -4.638403148345502e-09 1.828249910787364e-09
229 1.1193103839646957e-09 -2.0740913475799944e-09 -4.706614640765459e-09
180 -6.4272329635741e-10 -1.1040429643203199e-10 -3.579488815136343e-09
190 -1.636732670989166e-09 -1.6361609742639446e-10 -8.403644141928655e-09
210 2.121288899342135e-09 -3.33674318785092e-09 -4.525776443719875e-09
182 6.709217225039418e-10 2.992038249058942e-09 -6.6490730651732286e-09
183 6.427242188496781e-10 1.1040206431417614e-10 -3.579487467411543e-09
192 -3.978564015178713e-09 -3.5678682475825467e-09 -5.884399445624899e-09
211 2.0063465139378725e-09 -1.1992202952351518e-09 -5.440404699643084e-09
213 -2.121288211335377e-09 3.3367404921025886e-09 -4.525776913773066e-09
214 -5.781421646374033e-09 1.2518646266181325e-09 -7.570218046629174e-10
215 5.486306585538497e-10 -6.88057654556946e-10 7.734771844444182e-10
216 -2.0063457033746898e-09 1.1992243077896273e-09 -5.440405491728269e-09
231 -9.691024381221462e-10 -2.2295045832176663e-09 -1.399579948850946e-09
233 -3.6811313437945606e-09 -6.165118238925157e-09 1.6743083979561958e-09
235 -7.18547953736804e-09 1.4471216721043087e-10 -1.8175439789743168e-10
184 5.823727606276078e-09 1.5403545827538148e-09 6.595813259689155e-09
185 -9.96620021554342e-10 2.9074378581654226e-09 2.671915658541611e-10
194 -1.9969106239591546e-09 1.996908810291048e-09 5.0630881888186344e-09
217 2.4758631391550634e-10 1.5079472907907078e-09 -6.294248209494808e-10
218 -2.0048920866665243e-09 -3.870967532806977e-09 9.141987954918034e-10
219 -4.356492195359111e-09 4.0405410964425226e-09 3.07597682352427e-09
220 3.6159278165037465e-10 -3.205734889610793e-09 6.681076206734112e-09
237 -1.3276278553361374e-09 1.5866410646864672e-09 3.738136649097693e-09
239 -1.1455028256328872e-09 1.1455064511277044e-09 1.0784112177590567e-08
187 -2.907439042932475e-09 9.96625493110906e-10 2.6718670361616467e-10
189 -3.740332041471416e-09 4.308878684302061e-09 -8.242037608503e-09
196 -2.9920392444025496e-09 -6.709260950385791e-10 -6.649073290612955e-09
222 -1.5079492692859647e-09 -2.475855547969193e-10 -6.294241240101128e-10
224 3.205733755030544e-09 -3.6159520730856184e-10 6.681076152365075e-09
228 -4.638404844866723e-09 -4.0289576401784144e-10 1.8282450047075337e-09
241 -1.2518642475903792e-09 5.7814217655746945e-09 -7.570214662555662e-10
242 6.880587843493304e-10 -5.486290250812014e-10 7.734770900233494e-10
243 -2.0740880854003904e-09 1.1193114825473419e-09 -4.706613572517582e-09
426 -1.1039975512372835e-10 -6.427231084836319e-10 -3.5794872521758746e-09
427 -1.6361299535725853e-10 -1.6367319544532288e-09 -8.403641402036987e-09
451 -3.33674318785092e-09 2.1212907125981738e-09 -4.525776493906679e-09
191 -2.9511475864348106e-10 -4.039858143360105e-09 -9.839428598278484e-09
197 -4.039858673178163e-09 -2.951125578923777e-10 -9.839427207387057e-09
226 2.454421451451006e-09 2.454423993045025e-09 -2.5925840824479005e-09
232 -2.074661889493595e-09 8.357427778335546e-10 -3.646636740360109e-09
244 8.357442257848218e-10 -2.0746610533362563e-09 -3.646638413010858e-09
245 -1.1559998285862313e-09 -1.1560005147440073e-09 1.3181914946507545e-09
198 -3.1705238691214837e-09 4.686461451767603e-09 -3.3992480537704555e-09
230 -1.5821372351965922e-09 -9.636360381627882e-10 -5.069798735809048e-10
246 -4.619993396273724e-09 -4.516434308759077e-09 2.69543555993766e-11
428 4.6864627381283965e-09 -3.170523356972897e-09 -3.399248934781783e-09
453 -9.636381607292268e-10 -1.5821416572490248e-09 -5.069809238209968e-10
456 -4.516432761870714e-09 -4.619993602044111e-09 2.6954817586831644e-11
455 -4.401034478488621e-09 -4.401032871621409e-09 7.170032755568052e-10
193 2.1372648538767577e-09 2.4095449440913706e-09 -3.599751316654117e-09
199 -3.369394091639262e-11 3.369442172389918e-11 3.2666626644890197e-09
234 -6.9342777874212715e-09 4.134853011330453e-09 8.785330766494403e-09
236 -3.941184745438541e-09 1.246036293449498e-11 5.950079523033356e-09
247 6.329938788047856e-10 -1.5089477465066477e-09 1.7413130686282896e-09
248 -2.7610874001456128e-09 2.7610883686446393e-09 4.20317822747779e-09
429 -2.305914691396893e-09 2.305912419119942e-09 3.5267117018006856e-10
457 1.5089492615394653e-09 -6.329943574151308e-10 1.7413190461546105e-09
458 1.0595892508012128e-09 -1.0595868201117862e-09 -1.791178490265811e-09
195 -1.8471703872908545e-09 1.8471683790718655e-09 -1.994924333462152e-09
200 3.5678667808974704e-09 3.978567050972156e-09 -5.884397492676976e-09
238 -1.5866416426941486e-09 1.327627494469118e-09 3.738137418628688e-09
240 -3.2474070918887136e-09 3.247404008387575e-09 -7.524469053107563e-11
249 -4.134849588028663e-09 6.934280425220461e-09 8.785326783748843e-09
250 -1.447116497430323e-10 7.185479900900792e-09 -1.8175419104373427e-10
430 -2.409540931989406e-09 -2.1372680862486114e-09 -3.599750580826044e-09
459 6.165114077705344e-09 3.6811230195416448e-09 1.6743047304756734e-09
460 -1.246303542533248e-11 3.9411834044776305e-09 5.950075498744354e-09
251 2.443825738575546e-09 5.213707662772728e-10 -4.237498900605567e-16
252 -1.1992272186242616e-09 2.006346918470959e-09 5.440404981645126e-09
254 -2.2295074642258796e-09 -9.691087580764521e-10 1.3995819003378888e-09
262 -3.351336265354926e-09 -4.87139804093087e-09 8.457073942625563e-16
263 1.1992235836657404e-09 -2.006343796732255e-09 5.440405810922317e-09
264 -6.880551398314181e-10 5.486268371755302e-10 -7.734754175779779e-10
265 -1.3458890720083112e-09 -5.882564815957576e-09 -4.9012884655675846e-17
268 1.4471140747221043e-10 -7.1854814664004735e-09 1.817529333863235e-10
311 3.3367406092051314e-09 -2.1212915792167363e-09 4.525777600406216e-09
312 1.2518664605894525e-09 -5.781422340183727e-09 7.570199636014134e-10
313 1.1040254706343404e-10 6.427242926532225e-10 3.579485218415387e-09
314 2.9920368665039772e-09 6.709234082521771e-10 6.649073910031635e-09
315 -6.165118801239544e-09 -3.681125665343557e-09 -1.6743059935102417e-09
318 -3.567866222251874e-09 -3.978570803383295e-09 5.8844009916055465e-09
266 1.585436690338221e-09 -7.882200755013364e-09 4.3958515082133347e-16
267 1.2463569059211314e-11 -3.941180305725029e-09 -5.950080199992757e-09
269 -7.404827908849912e-09 5.906511255746527e-11 3.8715534544834793e-16
272 2.7610884080771283e-09 -2.761089160281727e-09 -4.203180700372813e-09
316 4.134852284971918e-09 -6.9342809366478926e-09 -8.785327638119436e-09
317 2.409541857304191e-09 2.13726691362684e-09 3.599751099177966e-09
319 -1.5089458875037814e-09 6.329963729246953e-10 -1.7413162160578572e-09
322 3.3694591760316524e-11 -3.36917589853408e-11 -3.2666632577687386e-09
270 -5.906497071290864e-11 7.4048308101251545e-09 9.382544841429667e-16
271 -1.0595914678523355e-09 1.0595876080147365e-09 1.7911860160459348e-09
320 -6.329923037302142e-10 1.5089440673359419e-09 -1.741314418593572e-09
321 2.3059156104676303e-09 -2.305913421539739e-09 -3.5267531443056166e-10
273 3.4415644308907494e-09 3.4415577067271948e-09 -6.022416484752079e-16
274 8.667588772778402e-09 8.667588919299728e-09 9.640982143574625e-16
275 4.516434491468076e-09 4.619994076279536e-09 -2.6951324077427827e-11
276 4.61999389864342e-09 4.5164369614901475e-09 -2.6950352604292487e-11
323 4.401032072112293e-09 4.401035694031674e-09 -7.170066930391754e-10
324 1.1560028048436787e-09 1.1560030641141601e-09 -1.3181924788199562e-09
325 -4.686458429683685e-09 3.170523019256361e-09 3.3992516051788235e-09
326 3.170520952440992e-09 -4.686462999492791e-09 3.3992511283096648e-09
261 -2.443826541564411e-09 -5.2137277852913e-10 6.094111919094365e-16
277 5.384802257893277e-09 2.811841260117562e-09 -9.462303678299708e-16
278 6.407431164650769e-09 1.913217061305446e-09 -3.1976163716659846e-15
279 2.229511146682626e-09 9.691041998898483e-10 1.3995799187059567e-09
280 -8.357479239719676e-10 2.0746625456655198e-09 3.6466358606533956e-09
327 9.636324318240947e-10 1.58213875238901e-09 5.069785945046982e-10
328 2.074093205182559e-09 -1.1193081142283887e-09 4.706615223849817e-09
329 1.6361884646086364e-10 1.6367334287746156e-09 8.40364455244803e-09
330 4.039854093165527e-09 2.951145272763398e-10 9.839428649660212e-09
281 -1.728691634687479e-11 -2.9937521248041167e-10 -1.0003006745631119e-15
282 2.737191399121975e-09 -1.3346322653650243e-09 3.619125779403345e-16
283 -3.205734111117868e-09 3.61593917724278e-10 -6.681074851092941e-09
284 4.040542506452731e-09 -4.356493086772344e-09 -3.0759761418201817e-09
285 1.1794580163475557e-09 -1.1592886997756443e-10 1.5826323702266647e-16
288 1.1455073475983602e-09 -1.1455048709960392e-09 -1.0784112108248806e-08
331 1.5079474099843673e-09 2.475826356409936e-10 6.294228143735121e-10
332 -3.870966168502608e-09 -2.004892429012223e-09 -9.142022640571706e-10
333 2.9074359313506245e-09 -9.96619817819816e-10 -2.6718837053501314e-10
334 1.540350400520145e-09 5.823729518154328e-09 -6.5958104673013535e-09
335 1.5866382367782684e-09 -1.3276236443678622e-09 -3.7381405794323016e-09
338 1.9969079394365736e-09 -1.996911882065829e-09 -5.0630875143786094e-09
341 -2.137269809603326e-09 -2.409544017222504e-09 3.5997536489075298e-09
340 3.681127383740679e-09 6.1651181252906946e-09 -1.6743039598991197e-09
286 1.1592892003367366e-10 -1.1794600274044891e-09 -4.516812363564059e-16
287 3.2474046886388505e-09 -3.2474014148892558e-09 7.524416228485663e-11
289 7.882197714794477e-09 -1.5854378869284854e-09 -1.3703816776401002e-16
292 7.185474855755857e-09 -1.4471213727198582e-10 1.8175362703965077e-10
336 1.3276266914624543e-09 -1.5866416984716564e-09 -3.7381446685820995e-09
337 1.8471712982994403e-09 -1.8471723787995796e-09 1.994927312835708e-09
339 6.93427816409624e-09 -4.13485232447909e-09 -8.785326804285431e-09
342 3.97857215210231e-09 3.5678673867238906e-09 5.884398242491727e-09
290 5.882569075882888e-09 1.3458916626033385e-09 -1.1662457319678628e-15
291 3.941184274918521e-09 -1.2466319038883985e-11 -5.950080565022894e-09
346 1.6367330747784084e-09 1.6361653069833438e-10 8.403646562310038e-09
345 2.9511482933069837e-10 4.039855679792257e-09 9.839428443039899e-09
344 -1.119309254807527e-09 2.074087513440261e-09 4.706613481219003e-09
343 1.5821401454765758e-09 9.63634752590368e-10 5.069759785677333e-10
296 9.691053337048903e-10 2.2295050070142333e-09 1.3995804163917634e-09
295 2.0746627750208946e-09 -8.357460268482281e-10 3.646640549664078e-09
294 1.913224044664799e-09 6.407438216509378e-09 7.793844498244344e-17
293 2.8118332958688243e-09 5.384796179362045e-09 -1.2830028670354383e-16
13 -5.213731768133713e-10 -2.4438256597105686e-09 4.516812363564059e-16
350 -4.308875971371657e-09 3.740331699816533e-09 8.242041498852001e-09
349 3.740332914456683e-09 -4.308876191237656e-09 8.24203919339569e-09
348 6.303282316075001e-09 6.30327858940607e-09 5.748468976957643e-12
347 -2.4544231954683254e-09 -2.45442209554087e-09 2.5925826735520983e-09
300 4.0289750479734036e-10 4.638400874713375e-09 -1.8282473275100785e-09
299 4.638403477855104e-09 4.0290346268793424e-10 -1.8282421261930237e-09
298 -6.716171342308122e-09 -6.716172191899019e-09 6.691573871946755e-17
297 1.5796248595269492e-09 1.5796239218104143e-09 2.3121777575387447e-16
361 -9.398450362261215e-10 3.434264170818967e-09 -2.367998503521657e-09
362 3.657764886615171e-10 5.0777160852430025e-09 -2.78077278330323e-09
363 1.7565689035070515e-09 1.1931105357875124e-09 6.243477407307462e-17
364 -1.3474543530191977e-09 7.01102558169993e-09 -9.230787171569406e-16
365 7.2449321106258476e-09 3.956564855728203e-09 -4.229701762476948e-09
368 7.803174743152161e-09 3.0779770558752927e-09 -4.212665721272263e-15
406 -9.398440348798884e-10 3.434264701365181e-09 2.367998189555401e-09
407 3.6577485400561407e-10 5.077712139305535e-09 2.7807739585108912e-09
408 7.244934030999259e-09 3.956563254114746e-09 4.2297048647572966e-09
366 2.7223612908781534e-09 1.8765445786613438e-09 -8.610580330597074e-09
367 6.706389882962607e-09 -7.574638889227702e-11 8.218089161484607e-16
369 7.397378844915821e-09 5.12188124979712e-10 1.3597323849482915e-09
372 5.4660482397125545e-09 -5.466048299595571e-09 2.0079155903771588e-17
409 2.722361704476733e-09 1.876545032732428e-09 8.610578483543447e-09
410 7.397377898015059e-09 5.12183120638395e-10 -1.3597328327460252e-09
370 -5.121861324440993e-10 -7.3973787484420524e-09 1.3597315443193238e-09
371 -4.402623505776232e-09 4.402626625279121e-09 2.2569125268998985e-16
411 -5.121854411417105e-10 -7.397378523796358e-09 -1.3597331240087272e-09
373 -2.1370067593614065e-09 -2.1370060043818774e-09 -3.35291627977757e-09
374 -5.3772302437739006e-09 -5.377230317859182e-09 5.764808076675203e-10
375 -3.178738305069184e-09 -3.80796749952171e-09 -3.633327169962356e-16
376 -3.807968086664098e-09 -3.1787388777691395e-09 -3.19649146283288e-16
412 -2.137008126927603e-09 -2.1370076103596066e-09 3.3529156793283072e-09
413 -5.3772264235727095e-09 -5.377226398508772e-09 -5.764821020688411e-10
377 -5.079571377571844e-09 2.2590022420891404e-09 7.59552555566285e-10
378 4.2282430558796953e-10 3.5573410297452522e-09 -1.866552796732152e-09
379 -7.090256466685002e-09 2.418868115759151e-09 -8.412264296161634e-16
380 -4.153917735918166e-09 -4.40742962789272e-09 1.0289788483000265e-15
414 -5.079570700647452e-09 2.2590022589674407e-09 -7.595522807337866e-10
415 4.2282391634150726e-10 3.5573402502067692e-09 1.8665554939741377e-09
381 4.669400991723448e-09 5.408467351237116e-10 3.892446851924987e-09
382 2.5822111929013604e-09 1.7414925868263393e-09 2.40391778378932e-09
383 1.0928970200284256e-09 4.667055477381326e-09 -1.1865594383648442e-15
384 4.4299139888446204e-09 2.3137894422245853e-09 -2.4854417238659373e-16
385 -1.9485526736561217e-09 6.106954167122975e-10 -2.299509423782172e-09
388 -4.105060706979897e-09 4.105061862586839e-09 8.603417113538098e-16
416 4.669398850419809e-09 5.408509760580184e-10 -3.892445002182781e-09
417 2.5822120293480945e-09 1.7414937061713078e-09 -2.403918558398742e-09
418 -1.9485510105740993e-09 6.106988246648735e-10 2.2995079655152417e-09
103 3.289350022549427e-09 -3.2893512397287904e-09 -4.1822336699667214e-16
421 -3.956559124295819e-09 -7.244931322200118e-09 4.229705736989901e-09
391 7.575043841996185e-11 -6.706390349651574e-09 -3.456352404787369e-16
390 -3.956556606998112e-09 -7.2449314617074844e-09 -4.2297038034536564e-09
386 -6.106984256846205e-10 1.948552486501165e-09 -2.2995085935574443e-09
387 2.918603983621437e-09 -2.9186003815223997e-09 2.0067300018144674e-15
389 -1.8765454398016297e-09 -2.722365036549175e-09 -8.610581563121407e-09
392 -3.0779810038198593e-09 -7.803178293233743e-09 2.031370639698122e-16
419 -6.107000695690935e-10 1.9485465194992766e-09 2.299506510207615e-09
420 -1.8765472707625296e-09 -2.722363797058342e-09 8.610578022956293e-09
423 3.5573395822236938e-09 4.2282556145299444e-10 1.8665544705218126e-09
422 2.259001706137342e-09 -5.079570643925908e-09 -7.595538659858875e-10
396 2.4188676065940816e-09 -7.090256402159112e-09 -5.711736269268837e-16
395 -4.407429597888928e-09 -4.1539177961579675e-09 1.0671475651278562e-15
394 3.557340438257919e-09 4.2282488990575943e-10 -1.8665531098022153e-09
393 2.259001507463728e-09 -5.0795698023634056e-09 7.595525370017884e-10
425 4.643306104859494e-09 4.643305632267089e-09 -4.418669900373924e-09
424 2.02850694331825e-09 2.028506398432949e-09 7.047012107206579e-10
400 1.289982466261809e-09 4.185160284168655e-09 6.180743902257962e-16
399 4.18515725682894e-09 1.2899810177153043e-09 3.775959542027097e-16
398 4.6433056006016056e-09 4.643306658258628e-09 4.418666289313881e-09
397 2.0285075189728416e-09 2.0285079321177823e-09 -7.047039718910731e-10
431 1.1040223160352293e-10 6.427246851857255e-10 -3.5794834618772457e-09
432 2.9920374089994305e-09 6.709229565709408e-10 -6.649072739603669e-09
434 -3.5678676955837142e-09 -3.978570464466001e-09 -5.884398851004391e-09
452 -1.199221698075817e-09 2.0063461104036675e-09 -5.4404035047191785e-09
454 -2.2295068271353956e-09 -9.69107007090506e-10 -1.3995835840848599e-09
461 3.3367492580643607e-09 -2.1212876093807905e-09 -4.525781220428188e-09
462 1.2518649980025919e-09 -5.781422456390077e-09 -7.570230184617198e-10
463 1.1992235525977188e-09 -2.006349184046684e-09 -5.440406054537428e-09
464 -6.880583577614961e-10 5.486321928244754e-10 7.734768825546863e-10
465 -6.1651190206761164e-09 -3.681126683044144e-09 1.6743064650354545e-09
468 1.4471197718952384e-10 -7.185479791807973e-09 -1.8175437113066943e-10
433 2.409541033359815e-09 2.137266445216669e-09 -3.599751952353635e-09
436 3.369488460754715e-11 -3.369112806551859e-11 3.266669552627874e-09
466 4.134853629560043e-09 -6.934278465545255e-09 8.7853256019691e-09
467 1.246132608668537e-11 -3.9411831122939545e-09 5.950081345507025e-09
469 -1.5089458737621564e-09 6.329954050363317e-10 1.7413132562313427e-09
472 2.761086649746601e-09 -2.7610882234613848e-09 4.203179818369605e-09
435 2.305915099906052e-09 -2.305913866051432e-09 3.5267593086193154e-10
470 -6.329966804725386e-10 1.5089439335044645e-09 1.741313025013567e-09
471 -1.0595876516854712e-09 1.0595874431152375e-09 -1.791184274145611e-09
437 -4.686460070827652e-09 3.17052418247044e-09 -3.3992489748458432e-09
438 3.170525335591847e-09 -4.686462923017661e-09 -3.3992484932037217e-09
473 4.401032196162665e-09 4.401035369012371e-09 7.170041043858992e-10
474 1.1560000845667336e-09 1.1560037148839534e-09 1.3181866825836627e-09
475 4.516433860723438e-09 4.61998850315444e-09 2.695077023019753e-11
476 4.619993426911617e-09 4.516435933855588e-09 2.6951578297488765e-11
439 1.6361328050531086e-10 1.636737630127068e-09 -8.403645529298322e-09
440 4.039854783532814e-09 2.951135808966065e-10 -9.839429827947461e-09
477 9.636364246623257e-10 1.5821343592512706e-09 -5.069804319604441e-10
478 2.074092417130243e-09 -1.1193077910014721e-09 -4.706614504528964e-09
479 2.2295027689217576e-09 9.691066251372805e-10 -1.3995765161601352e-09
480 -8.357409892310808e-10 2.0746639989618635e-09 -3.6466317554923175e-09
441 2.907435577653148e-09 -9.966234724945815e-10 2.6719028883597824e-10
442 1.540351261164088e-09 5.823726786558279e-09 6.595806590370741e-09
444 1.996909284057372e-09 -1.9969091734650642e-09 5.063088521420569e-09
481 1.5079464970625035e-09 2.475814699927236e-10 -6.294248113900895e-10
482 -3.870965972535088e-09 -2.0048914766578703e-09 9.142043100656282e-10
483 -3.205733872133087e-09 3.615939347519436e-10 6.681076620177783e-09
484 4.040542144988249e-09 -4.356491057791552e-09 3.0759769394318886e-09
485 1.5866403044353864e-09 -1.3276271626005364e-09 3.7381414769228435e-09
488 1.14550734330877e-09 -1.145504940820904e-09 1.0784110670405272e-08
491 3.941183774236567e-09 -1.246211311211345e-11 5.9500815665784505e-09
490 3.6811300546129635e-09 6.165117526255736e-09 1.674303595297963e-09
443 1.8471719145814628e-09 -1.847171230776437e-09 -1.9949249799253203e-09
446 3.9785717251612075e-09 3.5678661661312925e-09 -5.884397163547788e-09
486 1.3276239289235398e-09 -1.5866409854860006e-09 3.738141854186226e-09
487 3.247404485833191e-09 -3.247401847937147e-09 -7.524505330483896e-11
489 6.9342786462186395e-09 -4.1348550745871236e-09 8.785324308091433e-09
492 7.1854757068045264e-09 -1.4471203540472285e-10 -1.8174986810777442e-10
445 -2.137269766666587e-09 -2.4095439922597968e-09 -3.5997509219488128e-09
496 9.691051940590258e-10 2.2295060580991736e-09 -1.3995835248369386e-09
495 2.0746619457437043e-09 -8.357463631761316e-10 -3.6466377224684868e-09
494 -1.1193103978213259e-09 2.074091601897751e-09 -4.706613910036817e-09
493 1.5821401778793792e-09 9.636381224624889e-10 -5.069790175124466e-10
448 1.6367331827413323e-09 1.6361961991153607e-10 -8.403645546587378e-09
447 2.951142483712981e-10 4.0398533551763214e-09 -9.83942526832885e-09
500 4.028985790339316e-10 4.6384074533669385e-09 1.8282436853820138e-09
499 4.638403728789124e-09 4.028974617800798e-10 1.8282427790322314e-09
498 6.303279312335033e-09 6.3032815785082205e-09 -5.744677931501306e-12
497 -2.45442278165124e-09 -2.45442235244951e-09 -2.5925841176176383e-09
450 -4.308877999157525e-09 3.74033198659827e-09 -8.242038297151016e-09
449 3.740334025735915e-09 -4.308876846055956e-09 -8.242038999220555e-09
