LAMMPS data file via write_data, version 29 Aug 2024, timestep = 29, units = metal

500 atoms
3 atom types

0 17.6960312058467 xlo xhi
0 17.6960312058467 ylo yhi
0 17.6960312058467 zlo zhi

Masses

1 54.6565
2 58.71
3 58.71

Atoms # atomic

1 2 0.006176948753393212 0.006176948753392745 1.33364338922568e-18 0 0 0
2 3 1.763426171831276 1.7634261718312743 2.5857515049758267e-19 0 0 0
3 1 1.7630681246109958 0.006534995973672829 1.7561824935495576 0 0 0
4 1 0.0065349959736734275 1.7630681246109963 1.7561824935495594 0 0 0
5 1 3.5320592498194396 0.006465871299036209 2.572373914061586e-20 0 0 0
8 1 3.531607196978986 1.7688174077695051 1.7622905013411938 0 0 0
11 1 0.006465871299037465 3.5320592498194405 4.227086454211914e-17 0 0 0
13 1 1.7688174077695056 3.531607196978987 1.7622905013411947 0 0 0
15 1 3.530399255990985 3.5303992559909845 1.0241693348761407e-18 0 0 0
51 1 0.0007593131782202277 0.0007593131782208992 3.5372480438870118 0 0 0
52 1 1.7688438074064485 1.7688438074064494 3.5372480438870126 0 0 0
53 1 1.7692911044891382 0.0003120160955315549 5.308741305927869 0 0 0
54 1 0.00031201609553363046 1.7692911044891393 5.308741305927869 0 0 0
55 1 3.536059624650026 0.0006947455581967038 3.5357270434139196 0 0 0
58 1 3.538338872973224 1.7692057895038833 5.308109091191211 0 0 0
61 1 0.0006947455581968587 3.5360596246500244 3.5357270434139183 0 0 0
63 1 1.769205789503883 3.5383388729732226 5.308109091191212 0 0 0
65 1 3.538045848593013 3.5380458485930126 3.5377596523089836 0 0 0
6 1 5.3079132864173095 1.7693326784778403 1.1337788229938591e-18 0 0 0
7 1 5.307930085422793 0.0006684256757658962 1.7686212347825072 0 0 0
9 1 7.0786213815056245 0.00031274576740690974 1.1085577751556797e-19 0 0 0
10 1 7.078412507610274 1.7695688217964625 1.7692444019447808 0 0 0
17 1 5.307280411875282 3.5380200751110613 1.768582068623953 0 0 0
19 1 7.078334486784071 3.538747948478233 0 0 0 0
56 1 5.3057018006567525 1.7692100765453391 3.53618586551161 0 0 0
57 1 5.307298840449417 0.0003904786424943624 5.307173711787118 0 0 0
59 1 7.07772664889342 0.0003846458866367302 3.538526685796371 0 0 0
60 1 7.07712273426266 1.7694364659945339 5.307539664965691 0 0 0
67 1 5.307951915045329 3.538520374355583 5.307835632558984 0 0 0
69 1 7.0774707250349 3.53859267380254 3.538476879765232 0 0 0
252 1 8.848010691213398 3.879902593602232e-05 1.76957413788554 0 0 0
262 1 8.848009508076528 3.5391128878974274 1.7695436405843739 0 0 0
301 1 8.847948367379244 1.769582919351463 3.538980757233288 0 0 0
302 1 8.84771103833946 0.0001651497741282707 5.30838036104572 0 0 0
312 1 8.847710852703196 3.5388555774805033 5.3083434531323945 0 0 0
12 1 1.7693326784778394 5.3079132864173095 0 0 0 0
14 1 0.0006684256757676726 5.307930085422793 1.7686212347825052 0 0 0
18 1 3.5380200751110613 5.307280411875283 1.7685820686239528 0 0 0
23 1 1.7695688217964616 7.07841250761027 1.7692444019447815 0 0 0
25 1 3.5387479484782345 7.078334486784069 4.557666440609431e-19 0 0 0
62 1 1.7692100765453391 5.305701800656754 3.5361858655116087 0 0 0
64 1 0.00039047864249484887 5.30729884044942 5.3071737117871205 0 0 0
68 1 3.538520374355584 5.30795191504533 5.307835632558985 0 0 0
71 1 0.0003846458866382268 7.07772664889342 3.538526685796373 0 0 0
73 1 1.7694364659945332 7.077122734262655 5.307539664965692 0 0 0
75 1 3.538592673802541 7.0774707250349 3.538476879765232 0 0 0
24 1 3.879902593741788e-05 8.8480106912134 1.76957413788554 0 0 0
28 1 3.539112887897429 8.848009508076531 1.769543640584374 0 0 0
72 1 1.7695829193514623 8.847948367379244 3.5389807572332876 0 0 0
74 1 0.0001651497741261759 8.84771103833946 5.308380361045719 0 0 0
78 1 3.5388555774805055 8.847710852703196 5.308343453132395 0 0 0
16 1 5.305437427563509 5.3054374275635094 0 0 0 0
20 1 7.077492549808728 5.308018689617544 1.769072937007334 0 0 0
27 1 5.308018689617544 7.077492549808727 1.7690729370073337 0 0 0
29 1 7.077111010896759 7.077111010896759 0 0 0 0
66 1 5.308057343248022 5.308057343248021 3.5385005365832503 0 0 0
70 1 7.07794817081725 5.30832898322692 5.308320987332516 0 0 0
77 1 5.308328983226919 7.077948170817249 5.308320987332516 0 0 0
79 1 7.077964546365552 7.07796454636555 3.5387573136171566 0 0 0
26 1 5.308507264666525 8.84794365410343 5.064645805459188e-19 0 0 0
30 1 7.077974380831753 8.84771409826316 1.7693126505768435 0 0 0
76 1 5.3083933982138625 8.847689580441534 3.538819169008439 0 0 0
80 1 7.078118087665073 8.847868993212675 5.308489728198622 0 0 0
261 1 8.847943654103428 5.308507264666526 7.986515683994511e-19 0 0 0
272 1 8.84771409826316 7.077974380831753 1.7693126505768442 0 0 0
311 1 8.847689580441532 5.308393398213863 3.538819169008439 0 0 0
322 1 8.847868993212673 7.078118087665073 5.308489728198623 0 0 0
271 1 8.84766801494371 8.847668014943713 0 0 0 0
321 1 8.847879296334828 8.847879296334828 3.5388645492752837 0 0 0
32 1 1.769290374817262 12.387012944925747 1.2255381812632683e-18 0 0 0
33 1 1.7695643215587336 10.617623635217969 1.7695741378855396 0 0 0
34 1 3.4298788208881847e-05 12.387221818821102 1.7692444019447806 0 0 0
35 1 3.539064826536886 10.617687464764614 5.635447807563144e-19 0 0 0
38 1 3.538666688047076 12.387828648266924 1.7691852169359914 0 0 0
81 1 2.020123320768459e-05 10.617685959052126 3.5389807572332894 0 0 0
82 1 1.769218474698032 12.387907677537951 3.5385266857963718 0 0 0
83 1 1.7694379708105417 10.617923288091912 5.308380361045721 0 0 0
84 1 0.00016665459013712395 12.388511592168713 5.307539664965692 0 0 0
85 1 3.538962747158718 10.61793714094723 3.5389295841392565 0 0 0
88 1 3.5387554052699954 12.387850390315066 5.3082035275105595 0 0 0
36 1 5.307712210454462 12.388229651726858 3.3033785613253477e-16 0 0 0
37 1 5.308475886453055 10.61791065081294 1.7694315992395673 0 0 0
39 1 7.077926738626735 10.617961682090446 1.7450401358767852e-16 0 0 0
40 1 7.07783260252585 12.387801723905522 1.769295007299286 0 0 0
86 1 5.3082730197320025 12.387856981833657 3.538709205601354 0 0 0
87 1 5.308433161043735 10.617765047003125 5.308444883515251 0 0 0
89 1 7.078085419802558 10.617753377359357 3.538859121601404 0 0 0
90 1 7.078074952645133 12.387559373786237 5.308449482716906 0 0 0
281 1 8.847672644340923 12.387707587804638 6.184579090747708e-17 0 0 0
282 1 8.847858588491933 10.617775737939436 1.7693320187415733 0 0 0
331 1 8.847880949072012 12.387548906628812 3.538859121601404 0 0 0
332 1 8.847913599714477 10.617720726716893 5.308524878633554 0 0 0
41 1 0.00027044210682924556 14.157721040014062 6.213435706604625e-19 0 0 0
42 1 1.7631372492856316 15.933575076611932 1.4515369763088183e-18 0 0 0
43 1 1.7689346949089035 14.157704241008574 1.7686212347825068 0 0 0
44 1 0.0007857128151635587 15.934027129452383 1.7622905013411927 0 0 0
45 1 3.536517286335447 14.159196940351325 0 0 0 0
48 1 3.5375615852442803 15.928072741187089 1.7681639648071854 0 0 0
91 1 0.00039304403933063494 14.159932525774616 3.5361858655116096 0 0 0
92 1 1.7689083750264736 15.929574701781345 3.5357270434139196 0 0 0
93 1 1.7692126419421759 14.158335485981953 5.307173711787119 0 0 0
94 1 0.0003973310807858533 15.927295453458147 5.308109091191211 0 0 0
95 1 3.538380927237122 14.157903005690061 3.5382213279448447 0 0 0
98 1 3.5382889964185784 15.927345330012791 5.307509818795656 0 0 0
292 1 8.84772367561843 14.157158439978316 1.769431599239566 0 0 0
291 1 8.847946861666758 15.92656949989448 4.1422763788492913e-16 0 0 0
100 1 7.077783936116304 15.926878921161375 5.308203527510559 0 0 0
46 1 5.306437386080044 15.929117040095925 1.4439435947549246e-18 0 0 0
47 1 5.307675073525004 14.157959252906366 1.7688416020351874 0 0 0
49 1 7.077404674704513 14.157922115976907 1.6781482342135706e-18 0 0 0
50 1 7.07780567816445 15.926967638384294 1.7691852169359925 0 0 0
96 1 5.307731320741311 15.927253399194248 3.538221327944845 0 0 0
97 1 5.308204043775162 14.15743028265621 5.308175548206659 0 0 0
99 1 7.077777344597715 14.157361306699368 3.538709205601355 0 0 0
342 1 8.847869279428245 14.157201165387635 5.308444883515251 0 0 0
341 1 8.847697185484138 15.926671579272654 3.5389295841392565 0 0 0
101 1 5.0823335816905795e-05 5.082333581700587e-05 7.078590227996476 0 0 0
102 1 1.7695522972488518 1.769552297248852 7.078590227996477 0 0 0
105 1 3.5389810842743543 4.773773103275904e-05 7.078309002734498 0 0 0
108 1 3.53913901081914 1.769575576829989 8.84801560292335 0 0 0
111 1 4.773773103237186e-05 3.538981084274354 7.078309002734497 0 0 0
113 1 1.7695755768299886 3.539139010819139 8.84801560292335 0 0 0
115 1 3.53891600797319 3.538916007973189 7.078051619344952 0 0 0
151 1 5.082333581729589e-05 5.082333581649464e-05 10.617440977850224 0 0 0
152 1 1.7695522972488518 1.7695522972488515 10.617440977850224 0 0 0
153 1 3.538981084274354 4.7737731032577226e-05 10.617722203112203 0 0 0
156 1 4.773773103333615e-05 3.538981084274353 10.617722203112203 0 0 0
158 1 3.53891600797319 3.53891600797319 10.617979586501749 0 0 0
106 1 5.308324307727831 1.769434275873755 7.078012888967508 0 0 0
107 1 5.308573732220807 2.720316341783043e-05 8.848015602923349 0 0 0
109 1 7.077747859593089 0.00016760640989304796 7.077745053159517 0 0 0
110 1 7.0780742308380304 1.7694518942144688 8.84801560292335 0 0 0
117 1 5.3085268083897015 3.5389859399645807 8.84801560292335 0 0 0
119 1 7.077964747358275 3.538838018055469 7.077966557144593 0 0 0
154 1 5.308324307727831 1.7694342758737545 10.618018316879194 0 0 0
155 1 7.07774785959309 0.00016760640989486747 10.618286152687185 0 0 0
160 1 7.077964747358275 3.5388380180554697 10.61806464870211 0 0 0
351 1 8.847650477430708 1.7694528408425783 7.07790079811969 0 0 0
352 1 8.847844401462702 0.00015078858947076005 8.84801560292335 0 0 0
362 1 8.847844082639332 3.538867170589333 8.84801560292335 0 0 0
401 1 8.847650477430708 1.7694528408425787 10.618130407727012 0 0 0
112 1 1.7694342758737547 5.308324307727831 7.078012888967507 0 0 0
114 1 2.7203163418228477e-05 5.308573732220807 8.848015602923349 0 0 0
118 1 3.538985939964581 5.308526808389702 8.84801560292335 0 0 0
121 1 0.0001676064098943857 7.077747859593087 7.077745053159516 0 0 0
123 1 1.7694518942144684 7.078074230838028 8.84801560292335 0 0 0
125 1 3.53883801805547 7.0779647473582745 7.077966557144592 0 0 0
157 1 1.7694342758737556 5.308324307727831 10.618018316879194 0 0 0
161 1 0.0001676064098922203 7.077747859593087 10.618286152687187 0 0 0
163 1 3.5388380180554693 7.077964747358274 10.61806464870211 0 0 0
122 1 1.7694528408425796 8.84765047743071 7.077900798119692 0 0 0
124 1 0.00015078858947263738 8.847844401462702 8.84801560292335 0 0 0
128 1 3.538867170589334 8.847844082639334 8.84801560292335 0 0 0
162 1 1.7694528408425785 8.84765047743071 10.61813040772701 0 0 0
116 1 5.308371006579867 5.3083710065798675 7.077932492528151 0 0 0
120 1 7.078097838673181 5.308452211636635 8.84801560292335 0 0 0
127 1 5.308452211636636 7.07809783867318 8.848015602923349 0 0 0
129 1 7.078115483867624 7.078115483867622 7.0781851069780535 0 0 0
159 1 5.3083710065798675 5.3083710065798675 10.618098713318549 0 0 0
165 1 7.078115483867625 7.078115483867622 10.617846098868648 0 0 0
126 1 5.308448409899017 8.847872837453275 7.078186630926599 0 0 0
130 1 7.078158277762107 8.847909098334394 8.84801560292335 0 0 0
164 1 5.308448409899017 8.847872837453277 10.617844574920102 0 0 0
361 1 8.847872837453275 5.308448409899018 7.078186630926599 0 0 0
372 1 8.847909098334394 7.078158277762106 8.84801560292335 0 0 0
406 1 8.847872837453275 5.308448409899019 10.617844574920102 0 0 0
371 1 8.847916285620236 8.847916285620236 7.078247910001282 0 0 0
411 1 8.847916285620236 8.847916285620236 10.617783295845419 0 0 0
131 1 0.00015027974209002424 10.617983849000662 7.077900798119689 0 0 0
132 1 1.7694355141747768 12.38788646683828 7.077745053159515 0 0 0
133 1 1.7694523319951976 10.617789924968667 8.84801560292335 0 0 0
134 1 0.00015122637019923432 12.387560095593342 8.848015602923352 0 0 0
135 1 3.5388581493429196 10.617764147423062 7.0781207619910615 0 0 0
138 1 3.538865190341744 12.387596942544459 8.84801560292335 0 0 0
166 1 0.00015027974209047844 10.617983849000662 10.61813040772701 0 0 0
167 1 1.7694355141747748 12.38788646683828 10.618286152687185 0 0 0
168 1 3.538858149342921 10.617764147423062 10.617910443855639 0 0 0
136 1 5.308415408871633 12.387561525044562 7.078134963257678 0 0 0
137 1 5.308458414844048 10.617726003962298 8.84801560292335 0 0 0
139 1 7.078151539553015 10.617717944361724 7.078230441873176 0 0 0
140 1 7.07814291559604 12.387491410835331 8.84801560292335 0 0 0
169 1 5.3084154088716335 12.38756152504456 10.617896242589023 0 0 0
170 1 7.078151539553015 10.617717944361724 10.617800763973523 0 0 0
381 1 8.847916382069647 12.387482786878357 7.078230441873178 0 0 0
382 1 8.847925511435955 10.617708814995416 8.848015602923352 0 0 0
416 1 8.847916382069648 12.387482786878355 10.617800763973522 0 0 0
103 1 1.7696115439519513 17.69602278247942 8.84801560292335 0 -1 0
141 1 0.0001688447109165603 14.15731001870354 7.078012888967507 0 0 0
142 1 1.7695553828536361 15.926653242157016 7.078309002734498 0 0 0
143 1 1.7695759174212504 14.157060594210567 8.84801560292335 0 0 0
144 1 2.7543754681512524e-05 15.926495315612232 8.84801560292335 0 0 0
145 1 3.5388030333586094 14.15736016536679 7.077767690653703 0 0 0
148 1 3.5391079229817115 15.926526403449659 8.84801560292335 0 0 0
171 1 0.0001688447109164049 14.15731001870354 10.618018316879196 0 0 0
172 1 1.7695553828536366 15.926653242157018 10.617722203112203 0 0 0
173 1 3.538803033358609 14.157360165366791 10.618263515192998 0 0 0
175 1 7.078072801386809 14.15721891755974 10.617896242589023 0 0 0
146 1 5.308274161064581 15.926831293072762 7.077767690653703 0 0 0
147 1 5.308415503861191 14.15721882257018 8.84801560292335 0 0 0
149 1 7.07807280138681 14.157218917559739 7.078134963257678 0 0 0
150 1 7.078037383886914 15.926769136089625 8.84801560292335 0 0 0
174 1 5.30827416106458 15.92683129307276 10.618263515192998 0 0 0
421 1 8.847870179008307 15.926776177088449 10.617910443855639 0 0 0
391 1 8.847870179008309 15.92677617708845 7.078120761991062 0 0 0
392 1 8.84790832246907 14.157175911587322 8.84801560292335 0 0 0
176 1 1.7692911044891384 0.00031201609553294416 12.387289899918832 0 0 0
177 1 0.00031201609553265094 1.769291104489139 12.387289899918832 0 0 0
179 1 3.5383388729732235 1.769205789503883 12.38792211465549 0 0 0
181 1 1.7692057895038829 3.538338872973222 12.38792211465549 0 0 0
201 1 0.0007593131782179115 0.0007593131782215051 14.15878316195969 0 0 0
202 1 1.768843807406449 1.7688438074064492 14.158783161959688 0 0 0
203 1 1.7630681246109958 0.0065349959736705895 15.939848712297144 0 0 0
204 1 0.006534995973674066 1.763068124610996 15.939848712297144 0 0 0
205 1 3.5360596246500258 0.0006947455581969919 14.160304162432782 0 0 0
208 1 3.531607196978986 1.7688174077695067 15.933740704505507 0 0 0
211 1 0.0006947455581964823 3.5360596246500253 14.160304162432782 0 0 0
213 1 1.7688174077695067 3.531607196978986 15.933740704505507 0 0 0
215 1 3.538045848593012 3.5380458485930117 14.158271553537716 0 0 0
178 1 5.307298840449419 0.0003904786424944061 12.388857494059584 0 0 0
180 1 7.077122734262659 1.7694364659945325 12.38849154088101 0 0 0
183 1 5.30795191504533 3.5385203743555835 12.388195573287716 0 0 0
206 1 5.3057018006567525 1.769210076545339 14.15984534033509 0 0 0
207 1 5.307930085422794 0.0006684256757646115 15.927409971064195 0 0 0
209 1 7.07772664889342 0.000384645886636643 14.157504520050328 0 0 0
210 1 7.078412507610272 1.7695688217964627 15.926786803901921 0 0 0
217 1 5.307280411875282 3.538020075111061 15.927449137222748 0 0 0
219 1 7.0774707250349005 3.53859267380254 14.15755432608147 0 0 0
426 1 8.847711038339458 0.00016514977412896486 12.38765084480098 0 0 0
431 1 8.847710852703196 3.5388555774805033 12.387687752714307 0 0 0
451 1 8.847948367379244 1.7695829193514627 14.157050448613413 0 0 0
452 1 8.8480106912134 3.879902593624008e-05 15.92645706796116 0 0 0
462 1 8.848009508076528 3.539112887897429 15.926487565262326 0 0 0
182 1 0.00039047864249212475 5.30729884044942 12.388857494059582 0 0 0
184 1 3.5385203743555835 5.30795191504533 12.388195573287716 0 0 0
186 1 1.7694364659945325 7.077122734262658 12.388491540881008 0 0 0
212 1 1.7692100765453378 5.305701800656754 14.15984534033509 0 0 0
214 1 0.0006684256757660675 5.307930085422795 15.927409971064195 0 0 0
218 1 3.5380200751110613 5.307280411875282 15.927449137222748 0 0 0
221 1 0.0003846458866389117 7.077726648893418 14.15750452005033 0 0 0
223 1 1.7695688217964611 7.078412507610271 15.926786803901921 0 0 0
225 1 3.5385926738025417 7.077470725034899 14.15755432608147 0 0 0
187 1 0.0001651497741284051 8.847711038339458 12.38765084480098 0 0 0
189 1 3.5388555774805037 8.847710852703196 12.387687752714307 0 0 0
222 1 1.7695829193514627 8.847948367379244 14.157050448613413 0 0 0
224 1 3.879902593719826e-05 8.8480106912134 15.926457067961161 0 0 0
228 1 3.5391128878974287 8.84800950807653 15.926487565262327 0 0 0
21 1 0.00031274576740781006 7.078621381505625 17.696031205846698 0 0 -1
185 1 7.07794817081725 5.30832898322692 12.387710218514185 0 0 0
188 1 5.308328983226919 7.077948170817249 12.387710218514185 0 0 0
216 1 5.308057343248021 5.308057343248022 14.15753066926345 0 0 0
220 1 7.077492549808728 5.308018689617545 15.926958268839368 0 0 0
227 1 5.308018689617545 7.077492549808728 15.926958268839368 0 0 0
229 1 7.07796454636555 7.077964546365552 14.157273892229545 0 0 0
190 1 7.078118087665073 8.847868993212673 12.38754147764808 0 0 0
226 1 5.308393398213863 8.847689580441532 14.157212036838263 0 0 0
230 1 7.077974380831752 8.84771409826316 15.926718555269856 0 0 0
436 1 8.847868993212675 7.078118087665073 12.387541477648078 0 0 0
461 1 8.847689580441534 5.3083933982138625 14.157212036838263 0 0 0
472 1 8.847714098263161 7.077974380831752 15.926718555269856 0 0 0
471 1 8.847879296334828 8.847879296334828 14.157166656571416 0 0 0
191 1 1.7694379708105423 10.61792328809191 12.38765084480098 0 0 0
192 1 0.00016665459013876058 12.388511592168713 12.388491540881008 0 0 0
194 1 3.5387554052699945 12.387850390315066 12.387827678336143 0 0 0
231 1 2.0201233208345432e-05 10.617685959052125 14.157050448613413 0 0 0
232 1 1.769218474698033 12.387907677537953 14.15750452005033 0 0 0
233 1 1.7695643215587333 10.617623635217969 15.926457067961163 0 0 0
234 1 3.429878820820966e-05 12.387221818821102 15.926786803901921 0 0 0
235 1 3.5389627471587173 10.61793714094723 14.157101621707444 0 0 0
238 1 3.5386666880470754 12.387828648266924 15.92684598891071 0 0 0
22 1 1.769623468661688 8.848231142266755 17.696031205846698 0 0 -1
193 1 5.308433161043734 10.617765047003127 12.38758632233145 0 0 0
195 1 7.0780749526451325 12.387559373786237 12.387581723129797 0 0 0
236 1 5.308273019732003 12.387856981833657 14.157322000245346 0 0 0
237 1 5.308475886453055 10.617910650812938 15.926599606607134 0 0 0
239 1 7.078085419802557 10.617753377359357 14.157172084245298 0 0 0
240 1 7.07783260252585 12.387801723905522 15.926736198547413 0 0 0
441 1 8.847913599714479 10.617720726716891 12.387506327213147 0 0 0
481 1 8.847880949072012 12.387548906628812 14.157172084245298 0 0 0
482 1 8.847858588491933 10.617775737939438 15.926699187105127 0 0 0
196 1 1.7692126419421763 14.158335485981953 12.38885749405958 0 0 0
197 1 0.0003973310807863382 15.927295453458145 12.387922114655488 0 0 0
199 1 3.5382889964185793 15.92734533001279 12.388521387051043 0 0 0
241 1 0.00039304403933294445 14.159932525774616 14.159845340335092 0 0 0
242 1 1.7689083750264738 15.929574701781346 14.160304162432784 0 0 0
243 1 1.7689346949089029 14.157704241008574 15.927409971064195 0 0 0
244 1 0.0007857128151639317 15.934027129452385 15.933740704505508 0 0 0
245 1 3.5383809272371214 14.157903005690061 14.157809877901856 0 0 0
248 1 3.5375615852442794 15.92807274118709 15.927867241039515 0 0 0
198 1 5.308204043775162 14.15743028265621 12.387855657640042 0 0 0
200 1 7.0777839361163055 15.926878921161375 12.387827678336143 0 0 0
246 1 5.30773132074131 15.92725339919425 14.157809877901856 0 0 0
247 1 5.3076750735250044 14.157959252906366 15.927189603811515 0 0 0
249 1 7.077777344597716 14.157361306699366 14.157322000245346 0 0 0
250 1 7.077805678164449 15.926967638384294 15.92684598891071 0 0 0
492 1 8.847723675618427 14.157158439978318 15.926599606607136 0 0 0
491 1 8.847697185484138 15.926671579272654 14.157101621707445 0 0 0
446 1 8.847869279428243 14.157201165387637 12.38758632233145 0 0 0
251 1 8.848231142266751 1.7696234686616883 7.832354499106695e-16 0 0 0
254 1 12.387012944925745 1.7692903748172646 3.401767598867795e-16 0 0 0
255 1 12.387221818821098 3.429878820892582e-05 1.7692444019447815 0 0 0
256 1 10.617623635217972 1.769564321558734 1.76957413788554 0 0 0
263 1 10.617687464764618 3.539064826536886 8.085037179219626e-16 0 0 0
265 1 12.387828648266922 3.5386666880470736 1.76918521693599 0 0 0
303 1 10.617685959052128 2.0201233207201843e-05 3.5389807572332885 0 0 0
304 1 12.387907677537948 1.769218474698032 3.538526685796372 0 0 0
305 1 12.388511592168713 0.0001666545901373513 5.307539664965691 0 0 0
306 1 10.617923288091912 1.7694379708105423 5.30838036104572 0 0 0
313 1 10.617937140947232 3.538962747158717 3.5389295841392574 0 0 0
315 1 12.387850390315066 3.5387554052699945 5.3082035275105595 0 0 0
257 1 14.157721040014064 0.0002704421068293849 6.553949841411234e-19 0 0 0
258 1 15.93357507661193 1.7631372492856314 0 0 0 0
259 1 15.934027129452385 0.0007857128151631782 1.7622905013411942 0 0 0
260 1 14.157704241008577 1.7689346949089035 1.7686212347825059 0 0 0
267 1 14.159196940351325 3.5365172863354446 8.080681942051239e-19 0 0 0
269 1 15.92807274118709 3.5375615852442794 1.7681639648071863 0 0 0
307 1 14.159932525774616 0.0003930440393294212 3.53618586551161 0 0 0
308 1 15.929574701781346 1.7689083750264742 3.535727043413917 0 0 0
309 1 15.927295453458147 0.00039733108078181554 5.308109091191213 0 0 0
310 1 14.158335485981953 1.7692126419421768 5.307173711787119 0 0 0
317 1 14.157903005690063 3.538380927237122 3.5382213279448447 0 0 0
319 1 15.927345330012791 3.5382889964185784 5.307509818795656 0 0 0
264 1 12.388229651726856 5.307712210454463 0 0 0 0
266 1 10.617910650812941 5.3084758864530555 1.769431599239567 0 0 0
273 1 10.61796168209045 7.077926738626734 0 0 0 0
275 1 12.38780172390552 7.07783260252585 1.7692950072992844 0 0 0
314 1 12.387856981833655 5.308273019732004 3.5387092056013545 0 0 0
316 1 10.617765047003129 5.308433161043735 5.308444883515251 0 0 0
323 1 10.617753377359358 7.078085419802556 3.5388591216014036 0 0 0
325 1 12.387559373786235 7.0780749526451325 5.308449482716906 0 0 0
274 1 12.387707587804638 8.847672644340921 7.583545292610455e-16 0 0 0
276 1 10.617775737939438 8.847858588491935 1.7693320187415738 0 0 0
324 1 12.387548906628814 8.847880949072014 3.538859121601403 0 0 0
326 1 10.617720726716893 8.847913599714479 5.308524878633554 0 0 0
268 1 15.929117040095926 5.306437386080046 0 0 0 0
270 1 14.15795925290637 5.307675073525005 1.7688416020351887 0 0 0
277 1 14.157922115976906 7.077404674704512 1.0234749124943068e-20 0 0 0
279 1 15.926967638384292 7.077805678164448 1.7691852169359912 0 0 0
318 1 15.927253399194246 5.30773132074131 3.5382213279448442 0 0 0
320 1 14.15743028265621 5.308204043775162 5.308175548206658 0 0 0
327 1 14.157361306699368 7.077777344597713 3.538709205601353 0 0 0
329 1 15.926878921161375 7.077783936116305 5.308203527510558 0 0 0
278 1 15.926569499894484 8.847946861666758 3.8340174986047266e-19 0 0 0
280 1 14.157158439978316 8.84772367561843 1.7694315992395657 0 0 0
328 1 15.926671579272655 8.847697185484138 3.5389295841392583 0 0 0
330 1 14.157201165387635 8.847869279428245 5.308444883515252 0 0 0
283 1 10.617966311487658 10.61796631148766 0 0 0 0
284 1 12.388523315534611 12.388523315534611 2.651659670773349e-16 0 0 0
285 1 12.387659945599617 10.61792022816821 1.7693126505768433 0 0 0
286 1 10.617920228168211 12.387659945599617 1.7693126505768437 0 0 0
333 1 10.617755030096543 10.617755030096543 3.5388645492752837 0 0 0
334 1 12.387669780065819 12.38766978006582 3.538757313617158 0 0 0
335 1 12.387516238766297 10.617765333218696 5.308489728198622 0 0 0
336 1 10.617765333218696 12.387516238766299 5.308489728198622 0 0 0
287 1 14.157127061764845 10.61769067232794 2.8007263187639806e-16 0 0 0
288 1 15.926886377953135 12.3872998396473 2.1025562405593173e-16 0 0 0
289 1 15.926521438533939 10.617624818354841 1.7695436405843723 0 0 0
290 1 14.157615636813828 12.388141776622643 1.769072937007333 0 0 0
337 1 14.157240928217508 10.617944745989838 3.538819169008439 0 0 0
338 1 15.927041652628828 12.388163601396474 3.5384768797652324 0 0 0
339 1 15.926778748950866 10.617923473728172 5.308343453132396 0 0 0
340 1 14.157305343204452 12.38768615561412 5.3083209873325155 0 0 0
31 1 17.696010857769682 10.617403184164615 6.222622649492655e-19 -1 0 0
253 1 10.617403184164617 17.696010857769682 1.7453767338185195e-16 0 -1 0
346 1 10.617923473728174 15.926778748950866 5.3083434531323945 0 0 0
345 1 12.387686155614118 14.15730534320445 5.3083209873325155 0 0 0
344 1 12.388163601396473 15.92704165262883 3.538476879765233 0 0 0
343 1 10.617944745989838 14.157240928217508 3.538819169008441 0 0 0
296 1 10.61762481835484 15.92652143853394 1.7695436405843732 0 0 0
295 1 12.388141776622644 14.157615636813826 1.7690729370073333 0 0 0
294 1 12.3872998396473 15.926886377953137 2.3904425394655348e-18 0 0 0
293 1 10.617690672327939 14.157127061764847 4.2707242912094257e-16 0 0 0
350 1 14.157682411386041 15.92711395207579 5.307835632558984 0 0 0
349 1 15.927113952075787 14.157682411386038 5.307835632558983 0 0 0
348 1 15.927588477838357 15.92758847783836 3.537759652308985 0 0 0
347 1 14.157576983183349 14.157576983183347 3.538500536583249 0 0 0
300 1 14.158353914556088 15.927614251320309 1.7685820686239528 0 0 0
299 1 15.927614251320309 14.158353914556086 1.7685820686239526 0 0 0
298 1 15.935235070440388 15.935235070440386 1.1269316609317406e-19 0 0 0
297 1 14.16019689886786 14.16019689886786 7.146568676662725e-16 0 0 0
353 1 10.617983849000662 0.000150279742090302 7.077900798119689 0 0 0
354 1 12.38788646683828 1.7694355141747773 7.077745053159516 0 0 0
355 1 12.38756009559334 0.000151226370198085 8.84801560292335 0 0 0
356 1 10.617789924968669 1.769452331995199 8.84801560292335 0 0 0
363 1 10.617764147423063 3.5388581493429196 7.078120761991062 0 0 0
365 1 12.387596942544457 3.538865190341742 8.848015602923349 0 0 0
402 1 10.617983849000662 0.00015027974208923887 10.61813040772701 0 0 0
403 1 12.38788646683828 1.7694355141747768 10.618286152687185 0 0 0
407 1 10.617764147423062 3.5388581493429196 10.617910443855639 0 0 0
357 1 14.157310018703543 0.0001688447109137467 7.078012888967508 0 0 0
358 1 15.926653242157018 1.7695553828536381 7.078309002734498 0 0 0
359 1 15.92649531561223 2.7543754678019994e-05 8.84801560292335 0 0 0
360 1 14.157060594210565 1.769575917421252 8.84801560292335 0 0 0
367 1 14.15736016536679 3.538803033358608 7.077767690653703 0 0 0
369 1 15.926526403449659 3.53910792298171 8.84801560292335 0 0 0
404 1 14.157310018703543 0.00016884471091244225 10.618018316879194 0 0 0
405 1 15.926653242157016 1.7695553828536381 10.617722203112203 0 0 0
409 1 14.157360165366793 3.538803033358608 10.618263515192998 0 0 0
104 1 17.69602278247942 1.7696115439519526 8.84801560292335 -1 0 0
364 1 12.387561525044562 5.308415408871633 7.0781349632576775 0 0 0
366 1 10.6177260039623 5.308458414844049 8.84801560292335 0 0 0
373 1 10.617717944361724 7.078151539553014 7.078230441873176 0 0 0
375 1 12.387491410835333 7.07814291559604 8.84801560292335 0 0 0
408 1 12.387561525044562 5.308415408871634 10.617896242589023 0 0 0
412 1 10.617717944361724 7.078151539553014 10.617800763973523 0 0 0
374 1 12.387482786878358 8.847916382069647 7.078230441873177 0 0 0
376 1 10.617708814995416 8.847925511435957 8.84801560292335 0 0 0
413 1 12.387482786878358 8.847916382069647 10.617800763973522 0 0 0
368 1 15.926831293072762 5.308274161064581 7.077767690653704 0 0 0
370 1 14.157218822570181 5.308415503861192 8.84801560292335 0 0 0
377 1 14.157218917559737 7.078072801386808 7.078134963257679 0 0 0
379 1 15.926769136089625 7.078037383886911 8.848015602923352 0 0 0
410 1 15.926831293072762 5.308274161064583 10.618263515192998 0 0 0
414 1 14.157218917559739 7.078072801386808 10.61789624258902 0 0 0
378 1 15.92677617708845 8.84787017900831 7.078120761991061 0 0 0
380 1 14.15717591158732 8.84790832246907 8.848015602923352 0 0 0
415 1 15.92677617708845 8.84787017900831 10.617910443855639 0 0 0
383 1 10.617718040811134 10.617718040811134 7.078247910001282 0 0 0
384 1 12.387518842563747 12.387518842563747 7.078185106978053 0 0 0
385 1 12.387476048669264 10.617725228096973 8.84801560292335 0 0 0
386 1 10.617725228096973 12.387476048669265 8.84801560292335 0 0 0
417 1 10.617718040811134 10.617718040811136 10.617783295845419 0 0 0
418 1 12.387518842563745 12.387518842563747 10.617846098868648 0 0 0
387 1 14.157185916532352 10.617761488978093 7.078186630926598 0 0 0
388 1 15.926796308375902 12.387669579073096 7.0779665571445936 0 0 0
389 1 15.926767155842038 10.61779024379204 8.848015602923352 0 0 0
390 1 14.157182114794738 12.387536487758192 8.84801560292335 0 0 0
419 1 14.157185916532354 10.617761488978093 10.6178445749201 0 0 0
420 1 15.9267963083759 12.387669579073094 10.618064648702106 0 0 0
423 1 12.387669579073094 15.926796308375904 10.61806464870211 0 0 0
422 1 10.617761488978095 14.157185916532354 10.617844574920102 0 0 0
396 1 10.617790243792038 15.92676715584204 8.84801560292335 0 0 0
395 1 12.38753648775819 14.157182114794736 8.84801560292335 0 0 0
394 1 12.387669579073094 15.926796308375902 7.0779665571445936 0 0 0
393 1 10.617761488978095 14.157185916532354 7.078186630926599 0 0 0
425 1 15.92671831845818 15.926718318458184 10.617979586501749 0 0 0
424 1 14.157263319851504 14.157263319851502 10.618098713318547 0 0 0
400 1 14.157107518041668 15.926648386466791 8.848015602923352 0 0 0
399 1 15.926648386466788 14.157107518041666 8.848015602923352 0 0 0
398 1 15.926718318458182 15.926718318458185 7.078051619344951 0 0 0
397 1 14.157263319851504 14.1572633198515 7.077932492528152 0 0 0
427 1 12.388511592168713 0.00016665459013486688 12.388491540881008 0 0 0
428 1 10.61792328809191 1.7694379708105428 12.38765084480098 0 0 0
432 1 12.387850390315066 3.538755405269994 12.387827678336143 0 0 0
453 1 10.617685959052126 2.020123320863098e-05 14.157050448613415 0 0 0
454 1 12.38790767753795 1.7692184746980326 14.157504520050328 0 0 0
455 1 12.3872218188211 3.4298788205756403e-05 15.92678680390192 0 0 0
456 1 10.617623635217972 1.769564321558733 15.926457067961161 0 0 0
463 1 10.617937140947232 3.538962747158717 14.157101621707444 0 0 0
465 1 12.387828648266924 3.5386666880470745 15.92684598891071 0 0 0
429 1 15.927295453458147 0.0003973310807847141 12.387922114655488 0 0 0
430 1 14.15833548598195 1.7692126419421779 12.38885749405958 0 0 0
434 1 15.927345330012791 3.538288996418579 12.388521387051044 0 0 0
457 1 14.159932525774616 0.0003930440393295649 14.159845340335092 0 0 0
458 1 15.929574701781346 1.7689083750264736 14.160304162432782 0 0 0
459 1 15.934027129452385 0.000785712815163179 15.933740704505507 0 0 0
460 1 14.157704241008577 1.7689346949089046 15.927409971064195 0 0 0
467 1 14.157903005690063 3.538380927237121 14.157809877901856 0 0 0
469 1 15.928072741187089 3.537561585244279 15.927867241039513 0 0 0
433 1 10.617765047003127 5.308433161043735 12.387586322331451 0 0 0
437 1 12.387559373786237 7.0780749526451325 12.387581723129797 0 0 0
464 1 12.387856981833657 5.308273019732004 14.157322000245346 0 0 0
466 1 10.61791065081294 5.3084758864530555 15.926599606607134 0 0 0
473 1 10.617753377359358 7.078085419802558 14.157172084245298 0 0 0
475 1 12.387801723905522 7.077832602525849 15.926736198547415 0 0 0
438 1 10.617720726716891 8.847913599714479 12.38750632721315 0 0 0
474 1 12.387548906628812 8.847880949072014 14.157172084245296 0 0 0
476 1 10.617775737939438 8.847858588491933 15.926699187105127 0 0 0
435 1 14.157430282656211 5.308204043775161 12.387855657640042 0 0 0
439 1 15.926878921161377 7.077783936116303 12.38782767833614 0 0 0
468 1 15.92725339919425 5.3077313207413095 14.157809877901856 0 0 0
470 1 14.157959252906368 5.307675073525006 15.927189603811513 0 0 0
477 1 14.157361306699366 7.077777344597713 14.157322000245347 0 0 0
479 1 15.926967638384294 7.077805678164448 15.92684598891071 0 0 0
440 1 14.157201165387635 8.847869279428247 12.387586322331451 0 0 0
478 1 15.926671579272652 8.847697185484142 14.157101621707444 0 0 0
480 1 14.157158439978318 8.84772367561843 15.926599606607136 0 0 0
442 1 12.387516238766299 10.617765333218696 12.38754147764808 0 0 0
443 1 10.617765333218697 12.387516238766297 12.387541477648078 0 0 0
483 1 10.617755030096543 10.617755030096541 14.157166656571416 0 0 0
484 1 12.38766978006582 12.38766978006582 14.157273892229545 0 0 0
485 1 12.387659945599617 10.617920228168211 15.926718555269858 0 0 0
486 1 10.617920228168211 12.387659945599617 15.926718555269858 0 0 0
444 1 15.926778748950865 10.617923473728172 12.387687752714305 0 0 0
445 1 14.15730534320445 12.387686155614118 12.387710218514187 0 0 0
487 1 14.157240928217508 10.617944745989837 14.15721203683826 0 0 0
488 1 15.927041652628828 12.388163601396474 14.15755432608147 0 0 0
489 1 15.92652143853394 10.61762481835484 15.926487565262327 0 0 0
490 1 14.157615636813826 12.388141776622643 15.92695826883937 0 0 0
496 1 10.617624818354843 15.92652143853394 15.926487565262327 0 0 0
495 1 12.388141776622643 14.157615636813826 15.926958268839366 0 0 0
494 1 12.388163601396473 15.927041652628828 14.157554326081472 0 0 0
493 1 10.61794474598984 14.157240928217508 14.157212036838262 0 0 0
448 1 10.617923473728176 15.926778748950866 12.387687752714305 0 0 0
447 1 12.387686155614116 14.15730534320445 12.387710218514188 0 0 0
500 1 14.158353914556086 15.92761425132031 15.927449137222748 0 0 0
499 1 15.92761425132031 14.158353914556086 15.927449137222748 0 0 0
498 1 15.927588477838357 15.92758847783836 14.158271553537716 0 0 0
497 1 14.157576983183349 14.157576983183349 14.157530669263451 0 0 0
450 1 14.157682411386041 15.92711395207579 12.388195573287716 0 0 0
449 1 15.927113952075786 14.157682411386041 12.388195573287717 0 0 0

Velocities

1 -5.324434812707822e-09 -5.324431545024938e-09 1.33364338922568e-15
2 5.324434847488603e-09 5.324437701223174e-09 2.585751504975827e-16
3 4.011997015321653e-09 -4.011995191560374e-09 4.147570170808038e-09
4 -4.0119931739546e-09 4.0119951252612694e-09 4.147562158568914e-09
5 8.90047975035925e-10 -2.7199588961870124e-09 2.5723739140615858e-17
8 2.7245741686260005e-09 3.450843953558895e-09 3.835247317262895e-09
11 -2.7199614214255096e-09 8.900437123231342e-10 -1.3192449987211792e-15
13 3.450845138133688e-09 2.7245722824509284e-09 3.835245007691471e-09
15 3.3729481203373386e-09 3.3729504394136004e-09 1.0241693348761407e-15
51 -4.244835918071344e-09 -4.244840842272732e-09 7.113955405045997e-10
52 4.244841557629351e-09 4.2448366095419115e-09 7.113917260859127e-10
53 4.617315701058615e-10 -4.617326315039965e-10 1.7746215660053086e-09
54 -4.6174080604577826e-10 4.6172651483742163e-10 1.7746206865086429e-09
55 1.7575157248174442e-09 2.2281586231203015e-10 1.0302081116069426e-09
58 3.250245279601349e-09 7.191266347998442e-10 -1.4840813647493023e-09
61 2.2281768500351775e-10 1.7575251675102284e-09 1.0302137776200262e-09
63 7.191280188438545e-10 3.250251163458769e-09 -1.4840851745552665e-09
65 8.918124395835049e-10 8.918153133972538e-10 1.0986823535965272e-09
6 6.914106713433983e-09 7.340464056275398e-09 1.1337788229938591e-15
7 1.765891269084703e-09 1.9086389880560883e-09 3.87052867591795e-09
9 -7.535487162037456e-09 1.6433841349306606e-10 1.1085577751556797e-16
10 -8.769253489056858e-10 2.0506484541677595e-09 1.4638804100693298e-09
17 5.040767240406506e-09 5.5224062400298575e-09 -3.108985954100318e-09
19 3.603880269205307e-09 5.275776776074968e-09 -2.6795250090088944e-18
56 2.7898495237853842e-09 -1.1532039167370999e-10 3.184028906425924e-09
57 5.535157880236047e-09 2.223052873867621e-09 1.0141080945837017e-09
59 1.8386892221077864e-10 3.627448760712194e-09 5.726689556332047e-09
60 5.938194468342767e-09 5.53900788653907e-09 4.394162728392204e-09
67 3.643225437319604e-09 1.8700002640630622e-09 3.040890939061643e-11
69 -4.8187554187203966e-09 3.734926718240541e-10 5.33347168948718e-09
252 2.939233073866522e-10 -2.190436668164519e-13 -2.126015619767356e-09
262 3.2095739704560017e-09 2.205907894012855e-09 5.008637714045751e-09
301 5.077722385382822e-09 5.2053715600929884e-09 5.956889170126495e-09
302 2.6098884424896933e-09 -2.3338453268175564e-09 3.223406761386841e-09
312 4.834366478652286e-09 1.885228849527234e-09 8.565903441927398e-10
12 7.3404687521882265e-09 6.914105711774079e-09 -6.173625620756493e-16
14 1.908634701418986e-09 1.765892048659459e-09 3.870533868214459e-09
18 5.52240739288353e-09 5.040763437468377e-09 -3.108984920006311e-09
23 2.0506515455740413e-09 -8.769104966813501e-10 1.4638733857327976e-09
25 5.27577111810988e-09 3.6038878649414823e-09 4.557666440609432e-16
62 -1.1531999479777723e-10 2.78984177756089e-09 3.184034625068198e-09
64 2.2230456019028628e-09 5.5351485281599915e-09 1.014099751789683e-09
68 1.8699983201811967e-09 3.64322049746919e-09 3.0405738181468877e-11
71 3.6274440900704297e-09 1.8386748728685738e-10 5.7266832758316574e-09
73 5.539012797266275e-09 5.938208524365386e-09 4.394162294538825e-09
75 3.734908394077e-10 -4.818753072520719e-09 5.333471139414152e-09
24 -2.2165030874521576e-13 2.9391410329480414e-10 -2.1260171405126354e-09
28 2.2059011301037246e-09 3.2095598405947875e-09 5.00863595217393e-09
72 5.205376849322241e-09 5.07771749027342e-09 5.956893732668565e-09
74 -2.3338381659018066e-09 2.6098854953184148e-09 3.223412654504472e-09
78 1.885219717983077e-09 4.8343626942036645e-09 8.565879832592545e-10
16 5.465062745474217e-09 5.465058812237735e-09 -4.1239854592511456e-16
20 2.53437264532212e-09 5.417002733465753e-09 -3.7945710197068456e-10
27 5.417004075371878e-09 2.534376553141393e-09 -3.794555193666564e-10
29 1.4678311960618928e-09 1.467832390976931e-09 -1.0090325605353495e-15
66 3.2661611521387877e-09 3.2661618490532066e-09 3.980627313880829e-09
70 -1.3171458245312014e-09 5.4655630694462135e-09 -1.1220466905459713e-09
77 5.465568462712547e-09 -1.3171427980733995e-09 -1.1220481089744124e-09
79 3.6009087826919692e-09 3.6009155301952892e-09 2.05550910587054e-09
26 4.5105528448394174e-09 8.061646701138634e-09 5.064645805459188e-16
30 2.2911223455623966e-09 4.221463368467276e-09 1.9323737110072394e-09
76 3.078254947079251e-09 -1.3161727103045972e-09 3.694923634057676e-09
80 -9.773674565615504e-10 1.3556198581748302e-09 -5.05648158729874e-09
261 8.061654126870496e-09 4.510550060760113e-09 7.986515683994511e-16
272 4.221467476379967e-09 2.29112464046073e-09 1.9323699529351354e-09
311 -1.3161646241203767e-09 3.0782497638060734e-09 3.694925022510978e-09
322 1.3556269302834655e-09 -9.773662212239633e-10 -5.056484136981622e-09
271 -2.5880784624592797e-09 -2.5880865579263648e-09 -1.1967524268807725e-15
321 6.138014853544023e-09 6.138012028542113e-09 -1.8097095989092154e-09
32 -1.6433947152265535e-10 7.535483389266244e-09 1.2255381812632682e-15
33 2.189236240960483e-13 -2.9391111876329126e-10 -2.126013993066002e-09
34 -2.050656930347499e-09 8.769073835326368e-10 1.4638804008823869e-09
35 -1.1191186927235297e-10 -2.8868195698748514e-09 5.635447807563144e-16
38 1.3059941810234854e-10 2.0278372713020025e-09 -2.8438695321252125e-09
81 -5.205378510321515e-09 -5.077711194920806e-09 5.956884912284698e-09
82 -3.6274449965154615e-09 -1.838764098754638e-10 5.726687599513212e-09
83 2.3338467526310927e-09 -2.6098934536608076e-09 3.2234041578072263e-09
84 -5.5390148306429676e-09 -5.938203082632882e-09 4.394160326083196e-09
85 4.9672069908383474e-09 5.854688196932459e-09 4.423639154461496e-09
88 1.2418019005455363e-09 1.6602271502717056e-09 1.158697111687798e-09
36 2.377747333520165e-09 -2.456783381575608e-09 -1.5650325960295416e-15
37 2.670384279791726e-09 -2.375688355590011e-10 6.736370364236198e-09
39 -3.36554512429779e-09 5.2044761531732495e-09 -1.4175452876231055e-15
40 1.5982866541567232e-10 -1.598312567460296e-10 4.2255699421681575e-09
86 1.6613271855591167e-09 7.93246196675904e-09 4.63583507772182e-09
87 1.3922085079777366e-09 2.831989082058243e-09 -3.3694749459584202e-09
89 1.0421489025270242e-09 -1.5442865795450911e-09 -1.3106231477525056e-10
90 -7.455323341359e-09 7.45532347426344e-09 -3.202899526835395e-09
281 -5.20447234457296e-09 3.365540859565786e-09 2.2783618362315626e-16
282 7.384109415943546e-10 -7.384062746273675e-10 5.787211778554465e-10
331 1.5442909479364343e-09 -1.042149820149503e-09 -1.3106233345536777e-10
332 2.4732820266369886e-09 -2.4732804954798406e-09 -6.4040504937970844e-09
41 -7.340467336174096e-09 -6.9141060596529825e-09 6.213435706604625e-16
42 2.719962707597514e-09 -8.90053863588794e-10 1.4515369763088183e-15
43 -1.908639307139687e-09 -1.7658800165969163e-09 3.8705279674410425e-09
44 -3.450842227710181e-09 -2.7245755304180284e-09 3.835251966494477e-09
45 6.296676274878833e-10 -3.919546711966572e-12 -9.056852472187841e-16
48 8.839953519139174e-11 -8.839866160687656e-11 5.926584822009244e-10
91 1.1532104823389506e-10 -2.7898436967132594e-09 3.184030750015688e-09
92 -2.228213083337928e-10 -1.7575158222456913e-09 1.0302081833842702e-09
93 -2.22305071229296e-09 -5.5351551387013045e-09 1.0141063731256538e-09
94 -7.191239471907665e-10 -3.250249185816197e-09 -1.4840834045376034e-09
95 -7.552678876501058e-09 5.696886849596336e-10 4.2601321923944355e-09
98 -1.223862653945136e-09 1.2238638940362258e-09 -1.3713450368241074e-10
292 2.3757079324973666e-10 -2.670384000835304e-09 6.73637696736239e-09
291 2.886817393818237e-09 1.1192608943501792e-10 -1.4919595250161525e-15
100 -1.66022318204447e-09 -1.2418008230437851e-09 1.1587007179204008e-09
46 3.923859780220855e-12 -6.296698073077729e-10 1.4439435947549245e-15
47 1.7683482577233712e-09 -1.7683423414984207e-09 -7.306076512911106e-09
49 2.4567763185589286e-09 -2.377745714941495e-09 1.6781482342135705e-15
50 -2.02784456665335e-09 -1.306019947335972e-10 -2.8438739430827245e-09
96 -5.696922112265332e-10 7.552681800915364e-09 4.260128968220119e-09
97 1.182085854691736e-09 -1.182085842005645e-09 2.9353909673160113e-10
99 -7.93246366924043e-09 -1.6613274991267886e-09 4.635832580069571e-09
342 -2.8319890976251318e-09 -1.392207365958122e-09 -3.369474287901572e-09
341 -5.854681379819655e-09 -4.9672097607781855e-09 4.423638696645509e-09
101 -9.811967115489618e-11 -9.811826371524574e-11 -1.0272403480988908e-08
102 9.812333123294278e-11 9.812118026338126e-11 -1.0272404890495621e-08
105 -1.0080884858356031e-09 9.819254040865199e-10 4.901267952587256e-09
108 3.812489012629031e-09 4.888837255979206e-09 -8.574442647062154e-18
111 9.819254762054234e-10 -1.008085114790084e-09 4.901270031331133e-09
113 4.888839703177547e-09 3.812491761362343e-09 -6.553352593461753e-16
115 2.81774518705867e-09 2.817747712288569e-09 -5.778121143937176e-09
151 -9.812211120692725e-11 -9.811828208913151e-11 1.0272406320366723e-08
152 9.812384570174451e-11 9.812269243418062e-11 1.0272404580972203e-08
153 -1.0080845862346365e-09 9.819263357970463e-10 -4.901267707340814e-09
156 9.819246849034094e-10 -1.0080808226503667e-09 -4.901267691723011e-09
158 2.8177448957929554e-09 2.8177446841870377e-09 5.778123277740488e-09
106 4.645855902026996e-09 5.767717286633881e-09 7.234142159182331e-09
107 8.922254117911326e-10 -1.2176237781812417e-09 5.098140839997723e-15
109 -2.9460234648980667e-09 -1.535030409367622e-09 -1.6308219965015252e-09
110 -1.0266528315868994e-09 3.6627392969335653e-09 8.390741171067853e-16
117 3.144168842585155e-09 3.617093045470213e-09 9.004689020936499e-17
119 4.767333397428273e-09 1.757438150603573e-09 4.878798830885759e-09
154 4.645854927687032e-09 5.767717134232848e-09 -7.234143194368558e-09
155 -2.946026672978523e-09 -1.535037517075661e-09 1.6308184867831106e-09
160 4.767335054140307e-09 1.757435215164146e-09 -4.8788035958468035e-09
351 -2.671529227068072e-09 2.9303656822503547e-09 -2.4869476507301114e-09
352 3.273992729466997e-11 -3.3361071937393763e-09 2.2783618362315626e-16
362 4.380517098531909e-09 -6.854331472363184e-10 5.928640477075679e-16
401 -2.6715299464057e-09 2.930364954032015e-09 2.4869449950911538e-09
112 5.767721030006877e-09 4.64585154150257e-09 7.234146006674013e-09
114 -1.2176227774169298e-09 8.922217194917978e-10 5.654257116153169e-15
118 3.617091659759555e-09 3.144165205655655e-09 -1.1563300463913867e-15
121 -1.5350365612508113e-09 -2.946015427547965e-09 -1.6308193387189478e-09
123 3.66274067742485e-09 -1.026647004615257e-09 1.4944093764529606e-15
125 1.7574333644896074e-09 4.7673369300464015e-09 4.878802185564532e-09
157 5.767713660853755e-09 4.64585162081651e-09 -7.234143169516375e-09
161 -1.5350275261987124e-09 -2.946018360020135e-09 1.630812551405542e-09
163 1.7574369531674335e-09 4.7673405215723525e-09 -4.8788055824264224e-09
122 2.9303627889758077e-09 -2.671536976254398e-09 -2.4869540803652072e-09
124 -3.336112772051098e-09 3.27362353685547e-11 -2.4743499511762133e-16
128 -6.854362051216228e-10 4.3805095063358425e-09 1.0435943211572703e-15
162 2.9303656798005033e-09 -2.6715368571303716e-09 2.4869493258160312e-09
116 4.356807069749777e-09 4.356801357077922e-09 -8.345404212534873e-09
120 2.7887454267829813e-09 3.087434676379726e-09 4.964011473832477e-16
127 3.0874353804937043e-09 2.7887484854225e-09 5.6052600874170066e-15
129 -2.530307194033057e-09 -2.5303025772880244e-09 -3.803212450500665e-09
159 4.35680522750998e-09 4.356804102475846e-09 8.345403750769405e-09
165 -2.5303104988826455e-09 -2.5303017155527818e-09 3.803208633632126e-09
126 -9.604127661593031e-10 6.345775186811624e-09 5.7263662491317e-09
130 4.759000111398027e-09 6.323300461351329e-09 5.2059343032172805e-17
164 -9.60413562962182e-10 6.34576971338812e-09 -5.726368473497519e-09
361 6.345778209928297e-09 -9.60418730211378e-10 5.7263662956788776e-09
372 6.323302751028663e-09 4.7590028662559675e-09 -3.282800925322897e-16
406 6.3457780506879535e-09 -9.604203495631777e-10 -5.7263692110020875e-09
371 2.7072528657878647e-09 2.707252701909229e-09 7.801235341737163e-09
411 2.707253706240023e-09 2.7072524241042776e-09 -7.801235316626187e-09
131 -2.9303643127834013e-09 2.671532960947893e-09 -2.4869443360811173e-09
132 1.535029980949852e-09 2.9460251519270125e-09 -1.630813776637492e-09
133 3.3361071006450217e-09 -3.2731672520253646e-11 -6.877957908838831e-16
134 -3.6627330534871788e-09 1.0266501771728676e-09 -4.942575273760407e-15
135 -2.8434935619835367e-09 -2.9308388233253077e-09 6.243462844658828e-09
138 -3.039702224198949e-09 1.5305991453724599e-09 1.3411396674661435e-15
166 -2.9303655426088227e-09 2.6715308467261027e-09 2.4869516041778673e-09
167 1.535037271707728e-09 2.946024076136e-09 1.6308164264580523e-09
168 -2.8434988852104586e-09 -2.9308387133139726e-09 -6.243461171587132e-09
136 -2.111838474617966e-09 3.0272968435035293e-09 2.6995266250765996e-10
137 -1.5786319223221102e-09 -1.4382220350363344e-09 -1.7403294661454796e-15
139 -6.127953307453885e-09 1.430174531770335e-09 1.984666403613694e-10
140 -5.32532997529025e-09 5.325328429127762e-09 1.453833712030826e-16
169 -2.11184045198146e-09 3.0273041473816575e-09 -2.699531213294597e-10
170 -6.127952331034972e-09 1.4301745483068323e-09 -1.9846102009594191e-10
381 -1.4301757248479849e-09 6.127952653343552e-09 1.9846086391791283e-10
382 1.0212159534635115e-08 -1.0212162447508473e-08 -4.882553913558607e-15
416 -1.4301811759205475e-09 6.127958578309252e-09 -1.984560542470795e-10
103 4.527135977586677e-10 -4.527123991688522e-10 -7.962017169626429e-16
141 -5.767724004126522e-09 -4.645853505977191e-09 7.23414712051428e-09
142 -9.8192272502226e-10 1.0080906603350427e-09 4.901267568924208e-09
143 1.2176257490867227e-09 -8.922294777370715e-10 8.53160762868432e-16
144 -4.888844963008582e-09 -3.812494693834513e-09 -1.8128900632380177e-16
145 2.2327803517239262e-09 -3.6081578263376956e-09 -4.54553269978705e-09
148 2.1826094825754446e-09 -2.1826098258599425e-09 -1.0705454719037496e-15
171 -5.767723342666634e-09 -4.6458528757529094e-09 -7.234147487379533e-09
172 -9.819240136441158e-10 1.0080871622534223e-09 -4.901268959521129e-09
173 2.2327810869724304e-09 -3.608164531637174e-09 4.545530901754165e-09
175 -3.027301391958953e-09 2.111829851944766e-09 -2.699523722002647e-10
146 3.6081585937509955e-09 -2.2327848558353044e-09 -4.545533309053451e-09
147 4.856992913868162e-10 -4.856960906864269e-10 -3.3916738244263856e-17
149 -3.0273017419814772e-09 2.1118377216331595e-09 2.699515322074533e-10
150 -1.530603141663477e-09 3.03970327335635e-09 7.450610682192731e-16
174 3.608162037746882e-09 -2.232776698442483e-09 4.54553137673313e-09
421 2.930844260269188e-09 2.8435017187800444e-09 -6.243461447779695e-09
391 2.9308413386682338e-09 2.843495809738379e-09 6.243460783257493e-09
392 1.4382278007000484e-09 1.5786380518816564e-09 3.5277860690037104e-16
176 4.617302079884626e-10 -4.617361485719655e-10 -1.7746196189858792e-09
177 -4.617359847381506e-10 4.617282306521217e-10 -1.7746228227790956e-09
179 3.2502474164109966e-09 7.191272516112121e-10 1.4840775818532008e-09
181 7.191270585020912e-10 3.250252365110899e-09 1.4840790073605058e-09
201 -4.244832463780817e-09 -4.244841153403864e-09 -7.113949660144378e-10
202 4.244837432079531e-09 4.24483506491058e-09 -7.113866457064956e-10
203 4.01199634406236e-09 -4.011986947350942e-09 -4.147570090575404e-09
204 -4.01199433273433e-09 4.01199601639473e-09 -4.1475676866586815e-09
205 1.7575181699151167e-09 2.2281578785330847e-10 -1.0302110818854608e-09
208 2.7245744956285337e-09 3.4508387924560955e-09 -3.835245818475665e-09
211 2.2282121033973533e-10 1.7575206720328419e-09 -1.0302098860310187e-09
213 3.450840370722792e-09 2.7245760862280732e-09 -3.835247084246795e-09
215 8.918159376283416e-10 8.918186458659115e-10 -1.0986827626898866e-09
178 5.5351525253421995e-09 2.2230504422718735e-09 -1.014111678440471e-09
180 5.938195990312972e-09 5.539013240689385e-09 -4.394162886200227e-09
183 3.643222609068093e-09 1.869999052202907e-09 -3.0405448377961134e-11
206 2.7898498542988128e-09 -1.1531965671827895e-10 -3.184025661061791e-09
207 1.7658887359437565e-09 1.908645024923433e-09 -3.87053199234683e-09
209 1.8386966635315257e-10 3.6274477930208766e-09 -5.726682350094046e-09
210 -8.769198361274901e-10 2.0506465166415044e-09 -1.4638822156098389e-09
217 5.040767186047802e-09 5.522408772665159e-09 3.1089831281563135e-09
219 -4.818757975991152e-09 3.734931111287402e-10 -5.33347359160208e-09
426 2.6098938664607746e-09 -2.333851642534561e-09 -3.223409658336165e-09
431 4.8343646908732e-09 1.885228929941507e-09 -8.565889728883981e-10
451 5.077719140554594e-09 5.2053746658921476e-09 -5.956886357697046e-09
452 2.939168030310875e-10 -2.2071446549635504e-13 2.126021062112323e-09
462 3.209573580010929e-09 2.2059008674570424e-09 -5.0086343736733165e-09
182 2.223055523801182e-09 5.535147044392157e-09 -1.0141070051873247e-09
184 1.869998390516037e-09 3.643220372278089e-09 -3.040487992089854e-11
186 5.539013037351715e-09 5.938200085239649e-09 -4.3941599643473196e-09
212 -1.1531710887278466e-10 2.7898433435710028e-09 -3.1840287429748984e-09
214 1.9086388122696968e-09 1.7658832038919144e-09 -3.870533045064377e-09
218 5.522406700247249e-09 5.040765591491309e-09 3.1089830101437968e-09
221 3.62743868569816e-09 1.8387728163978601e-10 -5.726687505500163e-09
223 2.050655514333369e-09 -8.769155537871785e-10 -1.463881891693544e-09
225 3.734862300678457e-10 -4.818751773821861e-09 -5.333471857095338e-09
187 -2.3338471580815055e-09 2.6098908678426157e-09 -3.2234085277297267e-09
189 1.8852272084904213e-09 4.834362075589224e-09 -8.565898798704e-10
222 5.205376374051062e-09 5.077711668507712e-09 -5.956886641573581e-09
224 -2.2340562729968878e-13 2.939152865730481e-10 2.126012300218659e-09
228 2.205903070704032e-09 3.2095632716959086e-09 -5.0086410919405255e-09
21 1.6433934780515777e-10 -7.535486741887935e-09 9.965995644935482e-15
185 -1.3171438548506463e-09 5.465565558801505e-09 1.1220516251592277e-09
188 5.465567415597499e-09 -1.3171420872828346e-09 1.1220480584817672e-09
216 3.2661630123675127e-09 3.2661581200731258e-09 -3.98062541388179e-09
220 2.5343715349269564e-09 5.417002567182087e-09 3.7945699142113846e-10
227 5.417001597128987e-09 2.534373038538789e-09 3.7945898683829215e-10
229 3.6009161414332225e-09 3.6009089584688097e-09 -2.055512434838881e-09
190 -9.773683165359625e-10 1.3556247278670237e-09 5.056481522990139e-09
226 3.0782500726465262e-09 -1.3161671819877782e-09 -3.6949292510021164e-09
230 2.2911277137993577e-09 4.221464130980658e-09 -1.9323695781078655e-09
436 1.3556226546802453e-09 -9.773674501306903e-10 5.056488419015702e-09
461 -1.3161704351679849e-09 3.0782545875635525e-09 -3.694929932013257e-09
472 4.221461957324027e-09 2.291127683635562e-09 -1.932369915574901e-09
471 6.138012287210105e-09 6.13801203764405e-09 1.8097156964120651e-09
191 2.333844493868068e-09 -2.609887044849449e-09 -3.223408998943339e-09
192 -5.5390197915921265e-09 -5.938203116930802e-09 -4.3941575504015185e-09
194 1.241802760111291e-09 1.6602282554728036e-09 -1.1587001624092794e-09
231 -5.205378329032508e-09 -5.077706266202504e-09 -5.9568879672494395e-09
232 -3.627447784446397e-09 -1.8388109276648525e-10 -5.726687642691844e-09
233 2.1947729052076693e-13 -2.9390857398011126e-10 2.126008337201171e-09
234 -2.0506527092534737e-09 8.76906695124383e-10 -1.46388086635416e-09
235 4.967209976885915e-09 5.8546880492123156e-09 -4.423634215376446e-09
238 1.3060192052615575e-10 2.0278367022166274e-09 2.843868577894714e-09
22 -1.8168617593250569e-09 -4.9553490267862464e-09 9.251328046104109e-15
193 1.3922101887672169e-09 2.8319826193243966e-09 3.369478844244764e-09
195 -7.45531821565733e-09 7.455322465537111e-09 3.202893657286435e-09
236 1.661322422915999e-09 7.93246167259218e-09 -4.635832214017774e-09
237 2.670382998404999e-09 -2.37564904733156e-10 -6.736369484458772e-09
239 1.0421506671090795e-09 -1.5442883801858971e-09 1.3105898542714794e-10
240 1.5982648627281927e-10 -1.5983294346874384e-10 -4.2255649003739e-09
441 2.473275265047023e-09 -2.4732756692725103e-09 6.40404913902924e-09
481 1.5442950985972312e-09 -1.0421489035222763e-09 1.3105887549006472e-10
482 7.384112282269727e-10 -7.384116643005284e-10 -5.787220255040436e-10
196 -2.223050393812273e-09 -5.535153390119842e-09 -1.014103073405442e-09
197 -7.191251463930448e-10 -3.250242730457661e-09 1.4840850238894032e-09
199 -1.2238655746193214e-09 1.2238698550820775e-09 1.3714226278798846e-10
241 1.1531625142478178e-10 -2.7898423829804267e-09 -3.1840317005580453e-09
242 -2.2282150432190773e-10 -1.7575194177089062e-09 -1.030216979575854e-09
243 -1.9086373129606175e-09 -1.765878887751309e-09 -3.870529289442124e-09
244 -3.4508445232209775e-09 -2.7245801067405126e-09 -3.835252186981106e-09
245 -7.552677984715959e-09 5.696906988694116e-10 -4.260130173464674e-09
248 8.840271944261702e-11 -8.840568786034571e-11 -5.926561414694054e-10
198 1.18208675751083e-09 -1.1820874472765837e-09 -2.9353846236536615e-10
200 -1.660228054186515e-09 -1.241798978305653e-09 -1.1586978319920438e-09
246 -5.696892494328139e-10 7.552676456402279e-09 -4.260130638689152e-09
247 1.768344966279445e-09 -1.7683417602499766e-09 7.3060728926431585e-09
249 -7.932467477457932e-09 -1.6613206995641257e-09 -4.635833922281927e-09
250 -2.0278423152398795e-09 -1.3060035762037456e-10 2.8438692418178174e-09
492 2.375795661677319e-10 -2.670385806375813e-09 -6.736376158298952e-09
491 -5.85468059280488e-09 -4.967211163547807e-09 -4.423639540313098e-09
446 -2.8319817088731984e-09 -1.392214416630557e-09 3.369477138303719e-09
251 -4.955334359727556e-09 -1.8168631441035814e-09 -2.7196413262866277e-15
254 7.535492228330229e-09 -1.6435119712409477e-10 -2.601535541969343e-15
255 8.769214015825582e-10 -2.050655957144016e-09 1.463876281457196e-09
256 -2.9392496593607495e-10 2.1731590909064297e-13 -2.1260143703431232e-09
263 -2.8868350125373077e-09 -1.11910729478972e-10 -2.4241279967216465e-15
265 2.0278475787456916e-09 1.3060727783822068e-10 -2.843863226207614e-09
303 -5.077724650270476e-09 -5.20537709553231e-09 5.9568881338393376e-09
304 -1.8386285454123253e-10 -3.6274444618353856e-09 5.726685899010084e-09
305 -5.938199919874677e-09 -5.5390141622527985e-09 4.394165119829995e-09
306 -2.6098928228240626e-09 2.333843706240831e-09 3.2234086208240814e-09
313 5.854681382881968e-09 4.967212782899607e-09 4.423635140379917e-09
315 1.660230211893168e-09 1.2418036198554316e-09 1.158696788971159e-09
257 -6.914110982087334e-09 -7.3404671133804975e-09 6.553949841411233e-16
258 -8.900438152168945e-10 2.719962249475295e-09 -1.1759286896679035e-16
259 -2.7245781615584717e-09 -3.450843433037088e-09 3.835246732386882e-09
260 -1.7658909606921588e-09 -1.9086423605010666e-09 3.870533033875453e-09
267 -3.918965694331444e-12 6.296783120315825e-10 8.080681942051239e-16
269 -8.840145532166806e-11 8.840389476123626e-11 5.926532808638308e-10
307 -2.7898452875122305e-09 1.1532606046199602e-10 3.184028377028069e-09
308 -1.757519523052518e-09 -2.2282530128540336e-10 1.0302192138403644e-09
309 -3.250244717287176e-09 -7.191091206898709e-10 -1.4840886251710152e-09
310 -5.535152919739918e-09 -2.223056117995603e-09 1.0141053067485572e-09
317 5.696807900550191e-10 -7.552680630816052e-09 4.2601301195585035e-09
319 1.22386758714596e-09 -1.223861054463988e-09 -1.3713546984496354e-10
264 -2.456773129464821e-09 2.3777418475447706e-09 -3.86222634018778e-16
266 -2.3757734660233015e-10 2.6703789804772473e-09 6.736371213580059e-09
273 5.204464274762327e-09 -3.3655409270132586e-09 -6.859584023062769e-17
275 -1.5982576479157112e-10 1.598293544363889e-10 4.22557456748767e-09
314 7.932469134169964e-09 1.6613205912689992e-09 4.635831567974696e-09
316 2.831977117851606e-09 1.3922059652555628e-09 -3.3694747901211166e-09
323 -1.5442915267138363e-09 1.0421561598291164e-09 -1.3106016901162336e-10
325 7.455328272909941e-09 -7.455318575785492e-09 -3.2029004379504558e-09
274 3.3655410612191824e-09 -5.2044667295134665e-09 -2.4149410538336163e-15
276 -7.384118308904261e-10 7.384065735092428e-10 5.787204765854727e-10
324 -1.0421519404193637e-09 1.544284885779054e-09 -1.310599656739541e-10
326 -2.473280934003248e-09 2.4732767080095193e-09 -6.404051016840366e-09
268 -6.296736045129263e-10 3.91760642962862e-12 -8.035512712730674e-16
270 -1.768353756762964e-09 1.7683398476066605e-09 -7.306082009703769e-09
277 -2.3777410440512918e-09 2.4567796741543536e-09 1.0234749124943068e-17
279 -1.30593691574615e-10 -2.0278372204675853e-09 -2.8438717345416543e-09
318 7.552691951759508e-09 -5.696901533122602e-10 4.260133442103256e-09
320 -1.1820872467629575e-09 1.1820853247491725e-09 2.935408766794033e-10
327 -1.6613291333815023e-09 -7.932457265740852e-09 4.635837067836239e-09
329 -1.2418015616739932e-09 -1.6602270058032157e-09 1.1587040328756263e-09
278 1.1191503080563217e-10 2.8868157879406204e-09 3.8340174986047265e-16
280 -2.670380369755789e-09 2.3756932622469087e-10 6.736375296612839e-09
328 -4.967216160326044e-09 -5.854682300963794e-09 4.423631759661492e-09
330 -1.392209470561359e-09 -2.831991651326676e-09 -3.3694794026714758e-09
283 2.588083172298667e-09 2.58807889837972e-09 -5.046693959824752e-16
284 -1.467830438445336e-09 -1.4678278195541502e-09 7.894646255114206e-16
285 -2.2911224460063056e-09 -4.2214595024197716e-09 1.932373552379359e-09
286 -4.2214647101914635e-09 -2.2911223382128423e-09 1.9323740760351033e-09
333 -6.138013771820075e-09 -6.138012188909816e-09 -1.8097105700979336e-09
334 -3.600909670763115e-09 -3.6009156560564066e-09 2.0555043472668256e-09
335 9.773656583705957e-10 -1.3556193455434171e-09 -5.0564826045995484e-09
336 -1.355622516876102e-09 9.773609571056884e-10 -5.056480774560525e-09
287 -4.5105544364020235e-09 -8.061647960553482e-09 -9.208378714284904e-16
288 -5.275766169443173e-09 -3.603884219973538e-09 -2.3028603505996444e-16
289 -2.2058944529029472e-09 -3.2095650542216976e-09 5.0086441920654125e-09
290 -5.417012715968214e-09 -2.5343773528733972e-09 -3.794549967088554e-10
337 -3.078252229651972e-09 1.3161668373178226e-09 3.6949237067482307e-09
338 -3.734813539127934e-10 4.8187442216064915e-09 5.333469942318691e-09
339 -1.8852239161891445e-09 -4.834355595187278e-09 8.565848001789383e-10
340 -5.465569592682411e-09 1.317144041965227e-09 -1.122043670810619e-09
31 1.8168603659720521e-09 4.955347783688503e-09 6.222622649492656e-16
253 4.955339773899231e-09 1.8168615761986618e-09 -1.2322752727144905e-15
346 -4.83436321912495e-09 -1.8852221988432873e-09 8.565897023316634e-10
345 1.3171533498623524e-09 -5.465563434474078e-09 -1.122042630223446e-09
344 4.818752212103184e-09 -3.7348945955250345e-10 5.333468144433968e-09
343 1.316165354176105e-09 -3.078252546224843e-09 3.694915711850592e-09
296 -3.2095610046172723e-09 -2.2059005322092874e-09 5.0086428097367395e-09
295 -2.5343812136775204e-09 -5.4170058423272265e-09 -3.7945461353408763e-10
294 -3.6038821882045604e-09 -5.2757720423495295e-09 2.3904425394655347e-15
293 -8.061641426840647e-09 -4.510557563966043e-09 -2.091866895604544e-15
350 -3.6432259349635828e-09 -1.8700103205487773e-09 3.041075171000788e-11
349 -1.8700018769797035e-09 -3.6432135142855057e-09 3.041196576624879e-11
348 -8.918137924574397e-10 -8.918193346338526e-10 1.0986775142053954e-09
347 -3.266163272240169e-09 -3.266156413027627e-09 3.980631293514136e-09
300 -5.040764072177789e-09 -5.522404345214172e-09 -3.108986540534618e-09
299 -5.522405910936337e-09 -5.040759417655565e-09 -3.108986233218865e-09
298 -3.3729577757568955e-09 -3.3729545395031473e-09 1.1269316609317407e-16
297 -5.465056779885069e-09 -5.4650545094488e-09 -3.3462306761245617e-15
353 2.6715312613634584e-09 -2.930362879620311e-09 -2.4869469672215602e-09
354 2.946026394307922e-09 1.5350253948279624e-09 -1.6308188834293698e-09
355 1.026653964643189e-09 -3.662731389649283e-09 -7.075004114678849e-16
356 -3.274087293732458e-11 3.3361020221029934e-09 -1.0626230607155273e-16
363 -2.930846649333686e-09 -2.843493702866143e-09 6.243459454213088e-09
365 1.5306056969350835e-09 -3.039692573323968e-09 6.400849341520447e-15
402 2.671528066757185e-09 -2.930358194279438e-09 2.4869505764651897e-09
403 2.9460258063435773e-09 1.5350277883328161e-09 1.630817562576656e-09
407 -2.9308403262671277e-09 -2.843492399545179e-09 -6.243460311661091e-09
357 -4.645860758499875e-09 -5.767713487444563e-09 7.234144315950608e-09
358 1.0080866033810633e-09 -9.819300029184158e-10 4.901266831825156e-09
359 -3.812486518680269e-09 -4.888830383942681e-09 -4.213744471309987e-16
360 -8.922260834673078e-10 1.2176179519464806e-09 -8.142676704387359e-17
367 -3.6081581679470333e-09 2.2327848079334306e-09 -4.545532825196577e-09
369 -2.182609358525997e-09 2.182615140175388e-09 -7.496545396632885e-16
404 -4.645859738885957e-09 -5.7677071659487495e-09 -7.234144495276786e-09
405 1.0080900181677348e-09 -9.819319921977826e-10 -4.901268469550842e-09
409 -3.608167104056176e-09 2.232787092175858e-09 4.545529755767681e-09
104 -4.5271441172180755e-10 4.5270751783986436e-10 -1.7148960057656924e-16
364 3.027300377414227e-09 -2.1118406017864076e-09 2.6995587441600934e-10
366 -1.4382262719927518e-09 -1.5786351927662685e-09 -2.468225322584193e-16
373 1.4301753105168606e-09 -6.127949334407318e-09 1.9846648142725742e-10
375 5.325322653602999e-09 -5.325329106511684e-09 -1.720808044252715e-15
408 3.0273010584729264e-09 -2.1118463094264803e-09 -2.6995285359607203e-10
412 1.4301768098259399e-09 -6.1279486900963896e-09 -1.9846324701089797e-10
374 6.127947557652563e-09 -1.43017726611077e-09 1.9846229677477193e-10
376 -1.0212160921251028e-08 1.0212155171449706e-08 -2.486599208360254e-16
413 6.1279466267090175e-09 -1.4301771888638918e-09 -1.9845484218308114e-10
368 -2.232783952452587e-09 3.6081574508953003e-09 -4.5455369329961886e-09
370 -4.857011523247103e-10 4.85691066258875e-10 -1.0993712060853124e-16
377 2.111843142991031e-09 -3.0272977129651654e-09 2.699494339693496e-10
379 3.0397032010857324e-09 -1.5305907864502183e-09 -5.629758601785088e-15
410 -2.232781017530566e-09 3.6081500939914355e-09 4.545530827966408e-09
414 2.1118378230951984e-09 -3.0272964621824983e-09 -2.699441324076753e-10
378 2.8434964382018303e-09 2.930833025294759e-09 6.243469630283494e-09
380 1.5786450814004976e-09 1.4382258618900007e-09 -6.114249469841182e-15
415 2.8434966129834187e-09 2.9308348061393777e-09 -6.243462544700676e-09
383 -2.7072525843611808e-09 -2.7072511205749474e-09 7.801234920362717e-09
384 2.5303047686801347e-09 2.5303037997638914e-09 -3.8032084762291714e-09
385 -4.759000781432395e-09 -6.323288155426266e-09 -5.109798680256994e-16
386 -6.323290300883661e-09 -4.759003562013775e-09 -1.0607856721379211e-15
417 -2.7072498895246005e-09 -2.7072586036461613e-09 -7.801234393032195e-09
418 2.530311226488522e-09 2.530304927537689e-09 3.803206736834651e-09
387 9.604184885823694e-10 -6.345769683555877e-09 5.726372200094923e-09
388 -1.7574347413500758e-09 -4.767339424062808e-09 4.878796271403471e-09
389 6.854337029249472e-10 -4.380522833634122e-09 -6.78118877708491e-15
390 -3.0874482271348402e-09 -2.788755940678839e-09 -5.584787103317411e-16
419 9.60411325208843e-10 -6.345769755841681e-09 -5.726367336610065e-09
420 -1.7574331106677132e-09 -4.767333279222941e-09 -4.8787901969968334e-09
423 -4.767330599697932e-09 -1.757445163018088e-09 -4.878803336162552e-09
422 -6.345776774315355e-09 9.60416399177736e-10 -5.726371307462454e-09
396 -4.38051909516083e-09 6.854289918606341e-10 4.63021921556737e-16
395 -2.7887485289073633e-09 -3.0874379530560225e-09 9.216913999531757e-16
394 -4.767329962736559e-09 -1.7574369979694806e-09 4.878795601062871e-09
393 -6.3457765636281316e-09 9.604157726282308e-10 5.726368449098291e-09
425 -2.8177403499404988e-09 -2.817754019039706e-09 5.778122126616544e-09
424 -4.35681201294413e-09 -4.3568028288458755e-09 8.345415527412588e-09
400 -3.144166849163926e-09 -3.617095783838776e-09 -5.678449198247569e-15
399 -3.6170818701532136e-09 -3.14415436138827e-09 -5.9800873572486506e-15
398 -2.817747231420069e-09 -2.8177616451209973e-09 -5.778116099982009e-09
397 -4.356806693277448e-09 -4.356795730439481e-09 -8.345409081399278e-09
427 -5.938201972850181e-09 -5.539006080579585e-09 -4.394156967413434e-09
428 -2.6098877565312912e-09 2.3338402725443687e-09 -3.2234095431931473e-09
432 1.6602287076843856e-09 1.241807163565535e-09 -1.1587004432308085e-09
453 -5.0777135622428725e-09 -5.205379607854959e-09 -5.9568939663231456e-09
454 -1.8386842060369694e-10 -3.6274495593637625e-09 -5.726684596914045e-09
455 8.769167811627484e-10 -2.0506445504102395e-09 -1.4638759047925375e-09
456 -2.9392172968232693e-10 2.2061784948031592e-13 2.1260149681068737e-09
463 5.854683325614158e-09 4.9672116461685395e-09 -4.423634227810257e-09
465 2.02784240955916e-09 1.3060602780152505e-10 2.8438656815712166e-09
429 -3.250246797211046e-09 -7.191188980469553e-10 1.484083180376197e-09
430 -5.535150846339652e-09 -2.2230593578438173e-09 -1.0141030205859618e-09
434 1.2238671305548985e-09 -1.223863205586665e-09 1.3713608414521134e-10
457 -2.7898452092438024e-09 1.1532625614389005e-10 -3.1840321030055203e-09
458 -1.7575219398309604e-09 -2.2282324739120502e-10 -1.0302141205992273e-09
459 -2.7245786049815816e-09 -3.4508421395155295e-09 -3.8352472321565755e-09
460 -1.765891329204153e-09 -1.9086460401143405e-09 -3.870532855036139e-09
467 5.69683814715746e-10 -7.552677006025936e-09 -4.260131102132783e-09
469 -8.839876163345543e-11 8.840569975866288e-11 -5.926505027323014e-10
433 2.8319833061763353e-09 1.392206787793183e-09 3.369473122997214e-09
437 7.455324862716742e-09 -7.455318094389684e-09 3.2028943225088066e-09
464 7.932464092375708e-09 1.6613190672611887e-09 -4.6358326140612595e-09
466 -2.3756981575901337e-10 2.670378884052626e-09 -6.7363691823469865e-09
473 -1.5442905075756385e-09 1.0421507641844427e-09 1.310600318199429e-10
475 -1.5983057140009016e-10 1.5983191820591753e-10 -4.225571344248758e-09
438 -2.473275135204897e-09 2.4732762792855177e-09 6.4040421618523476e-09
474 -1.0421480255567678e-09 1.5442865192174994e-09 1.3106688589180022e-10
476 -7.384109587433147e-10 7.384118847871578e-10 -5.787206413379818e-10
435 -1.1820897150463714e-09 1.1820870379686424e-09 -2.9353878743764224e-10
439 -1.2418081199262897e-09 -1.6602191557136335e-09 -1.1586907069087358e-09
468 7.552680797585915e-09 -5.696858170752171e-10 -4.260130036809758e-09
470 -1.768346528571698e-09 1.7683380433551404e-09 7.3060792374798156e-09
477 -1.6613198822120295e-09 -7.932458370321628e-09 -4.635839015683001e-09
479 -1.3060050889870077e-10 -2.0278370985109184e-09 2.843866366917156e-09
440 -1.3922079381682952e-09 -2.8319981060143868e-09 3.3694707816047946e-09
478 -4.967205210408816e-09 -5.854695874073803e-09 -4.423636284460538e-09
480 -2.670386501783279e-09 2.3756978057336044e-10 -6.736374528993659e-09
442 9.77361807204137e-10 -1.3556208111670391e-09 5.056479534399793e-09
443 -1.3556273222596954e-09 9.773659964500939e-10 5.0564881473884246e-09
483 -6.138012532195248e-09 -6.13800706167699e-09 1.8097155432963503e-09
484 -3.600913129953344e-09 -3.6009178780716597e-09 -2.0555083996273336e-09
485 -2.291122788985507e-09 -4.221466469184795e-09 -1.932375191559644e-09
486 -4.221466813388922e-09 -2.2911219682852754e-09 -1.9323753934427135e-09
444 -1.8852160644152896e-09 -4.83435646733439e-09 -8.565868041574136e-10
445 -5.465566876959217e-09 1.3171505957220575e-09 1.1220421842945708e-09
487 -3.078254260464724e-09 1.3161726011837507e-09 -3.6949151065598735e-09
488 -3.7348284158507836e-10 4.818744911852133e-09 -5.333473747856667e-09
489 -2.2058999025974683e-09 -3.209560453400699e-09 -5.00864095274935e-09
490 -5.417006488089501e-09 -2.5343772507643737e-09 3.7945287533171877e-10
496 -3.2095709975612834e-09 -2.2059011691706613e-09 -5.008640375809337e-09
495 -2.5343746480756694e-09 -5.4170075780469696e-09 3.7946419161106913e-10
494 4.818752471787436e-09 -3.734832693903855e-10 -5.333477820428449e-09
493 1.316156397519252e-09 -3.078254312567729e-09 -3.694921249739765e-09
448 -4.8343714040786e-09 -1.8852210547626662e-09 -8.565821077922093e-10
447 1.3171586905384846e-09 -5.465564297434246e-09 1.1220395439465407e-09
500 -5.040757772019281e-09 -5.522411650262868e-09 3.108987080171063e-09
499 -5.5224106171009475e-09 -5.040757418576793e-09 3.108985132010644e-09
498 -8.918125503827612e-10 -8.918188550754339e-10 -1.0986753463931053e-09
497 -3.266161809077538e-09 -3.266159457566648e-09 -3.980629097273928e-09
450 -3.643226308396924e-09 -1.8700085593253615e-09 -3.040552569318246e-11
449 -1.8699984447378404e-09 -3.6432250212377043e-09 -3.041080086189059e-11
