LAMMPS data file via write_data, version 29 Aug 2024, timestep = 26, units = metal

500 atoms
3 atom types

0 17.57303810937045 xlo xhi
0 17.57303810937045 ylo yhi
0 17.57303810937045 zlo zhi

Masses

1 55.8658
2 58.71
3 58.71

Atoms # atomic

1 2 0.003178042338168522 0.003178042338168411 8.558352831243034e-19 0 0 0
2 3 1.754125768598875 1.7541257685988754 0 0 0 0
3 1 1.7534044014003158 0.0038994095367288232 1.7493422168545814 0 0 0
4 1 0.003899409536728516 1.7534044014003158 1.7493422168545814 0 0 0
5 1 3.5105262383946654 0.0038623803984368355 0 0 0 0
8 1 3.5101074677328445 1.7568235845628046 1.7529803238291999 0 0 0
21 1 0.0038623803984384904 3.5105262383946654 0 0 0 0
23 1 1.7568235845628049 3.510107467732844 1.7529803238291999 0 0 0
25 1 3.5102973242248865 3.510297324224887 0 0 0 0
51 1 0.0005189896408439687 0.0005189896408438217 3.51349374946675 0 0 0
52 1 1.7567848212962003 1.7567848212962003 3.51349374946675 0 0 0
53 1 1.7571656382944392 0.00013817264260446 5.271827633272737 0 0 0
54 1 0.0001381726426046629 1.7571656382944394 5.271827633272737 0 0 0
55 1 3.513441266363069 0.0005032216532087205 3.513212323013656 0 0 0
58 1 3.5141970149458706 1.7571751850730002 5.2715754942103965 0 0 0
71 1 0.0005032216532083603 3.513441266363069 3.513212323013656 0 0 0
73 1 1.7571751850729997 3.5141970149458697 5.2715754942103965 0 0 0
75 1 3.513812199662452 3.5138121996624516 3.513606215964868 0 0 0
6 1 5.271543506341164 1.7572088380358304 0 0 0 0
7 1 5.271223351045602 0.0004978014222055565 1.7566800985063002 0 0 0
9 1 7.029255835539481 0.00014047340284934685 2.9241212363951195e-19 0 0 0
12 1 7.029189259833297 1.757285481253383 1.7571435589123414 0 0 0
27 1 5.270990670976774 3.5138847881275836 1.7567164164656144 0 0 0
29 1 7.029134647205009 3.5144227408772797 0 0 0 0
56 1 5.271006708807984 1.7571832757859238 3.5137051048814443 0 0 0
57 1 5.271338699016612 0.0001260162762820489 5.271320944608917 0 0 0
59 1 7.02888563789387 0.0001241245087587954 3.5142769690342406 0 0 0
62 1 7.028798321950007 1.757248133787759 5.27149712926713 0 0 0
77 1 5.2714814550326246 3.5143549722168994 5.271467512502995 0 0 0
79 1 7.028842163116548 3.514398176882306 3.5142685015530235 0 0 0
11 1 8.786513626755882 2.818562075842116e-05 1.7572785066549734 0 0 0
31 1 8.786516445865105 3.5145545290396045 1.7572574490125332 0 0 0
60 1 8.786459637221249 1.757283141200182 3.514508113218151 0 0 0
61 1 8.786394120811021 5.4475665574760334e-05 5.271728217918291 0 0 0
81 1 8.786398726621057 3.5144842101264167 5.271720940679429 0 0 0
10 1 8.786586798438403 1.75731151017412 0 0 0 0
14 1 12.301086084768015 1.757163337534194 0 0 0 0
15 1 12.301152660474198 1.8329683661303828e-05 1.7571435589123414 0 0 0
16 1 10.543828293551613 1.7572756253162853 1.757278506654974 0 0 0
33 1 10.543885208088813 3.5145427664608575 2.3083911851711675e-16 0 0 0
35 1 12.301399327946395 3.5143215643577204 1.7571532477458305 0 0 0
63 1 10.543882283086246 2.0669736861865712e-05 3.5145081132181515 0 0 0
64 1 12.301456282413623 1.7571796864282847 3.51427696903424 0 0 0
65 1 12.301543598357487 5.5677149284955175e-05 5.27149712926713 0 0 0
66 1 10.543947799496472 1.7572493352714678 5.271728217918291 0 0 0
83 1 10.543935697097462 3.5144947931672865 3.514488131475389 0 0 0
85 1 12.30142884690753 3.51442070325979 5.271614738433317 0 0 0
17 1 14.058798413966331 9.497290121249128e-05 7.725750138920793e-17 0 0 0
18 1 15.81981568191283 1.7534414305386048 1.2223785496405827e-19 0 0 0
19 1 15.82023445257465 0.00048022637423892034 1.7529803238292 0 0 0
20 1 14.05911856926189 1.7568060095148381 1.7566800985062994 0 0 0
37 1 14.059076444172842 3.513846136257911 0 0 0 0
39 1 15.8169414244848 3.5134004958226948 1.7562717494001872 0 0 0
67 1 14.059335211499512 0.00012053515111974517 3.5137051048814443 0 0 0
68 1 15.816900653944426 1.7568005892838359 3.513212323013656 0 0 0
69 1 15.816144905361625 0.00012862586404414217 5.2715754942103965 0 0 0
70 1 14.059003221290885 1.757177794660761 5.2713209446089175 0 0 0
87 1 14.059026826101876 3.514166872927519 3.5140184242284485 0 0 0
89 1 15.816133609588098 3.5142083107193964 5.271334991565699 0 0 0
22 1 1.7572088380358306 5.271543506341163 0 0 0 0
24 1 0.0004978014222060454 5.271223351045602 1.7566800985063002 0 0 0
28 1 3.513884788127584 5.270990670976774 1.7567164164656142 0 0 0
41 1 0.00014047340284995926 7.029255835539481 2.900153029539422e-19 0 0 0
42 1 1.7572854812533831 7.029189259833297 1.7571435589123414 0 0 0
43 1 3.5144227408772797 7.029134647205008 0 0 0 0
72 1 1.7571832757859247 5.271006708807984 3.5137051048814447 0 0 0
74 1 0.00012601627628255687 5.271338699016611 5.2713209446089175 0 0 0
78 1 3.5143549722169 5.2714814550326246 5.271467512502995 0 0 0
91 1 0.00012412450875921188 7.028885637893869 3.5142769690342406 0 0 0
92 1 1.757248133787759 7.028798321950008 5.27149712926713 0 0 0
93 1 3.5143981768823056 7.028842163116548 3.514268501553023 0 0 0
252 1 2.8185620757949464e-05 8.786513626755882 1.757278506654974 0 0 0
254 1 3.5145545290396045 8.786516445865105 1.7572574490125334 0 0 0
301 1 1.7572831412001817 8.786459637221247 3.5145081132181506 0 0 0
302 1 5.44756655754932e-05 8.786394120811023 5.271728217918291 0 0 0
304 1 3.514484210126416 8.786398726621057 5.271720940679428 0 0 0
26 1 5.271036691900457 5.271036691900458 0 0 0 0
32 1 7.028836638315101 5.271545221378212 1.7571398710936696 0 0 0
44 1 5.271545221378212 7.0288366383150995 1.757139871093669 0 0 0
45 1 7.028838559419468 7.0288385594194684 4.831091694351568e-19 0 0 0
76 1 5.27144938840595 5.27144938840595 3.5141890433424434 0 0 0
82 1 7.0289795665904045 5.271700686303312 5.271671664056523 0 0 0
94 1 5.271700686303311 7.028979566590404 5.271671664056523 0 0 0
95 1 7.028988106088552 7.028988106088551 3.5144242778501975 0 0 0
30 1 8.78646257968884 5.271787226211419 0 0 0 0
46 1 8.786402845665899 7.029034286959064 1.7572165354503577 0 0 0
80 1 8.786412514951495 5.271747986035414 3.5144597781967253 0 0 0
96 1 8.786450857037856 7.0290855319067465 5.271776551196766 0 0 0
253 1 5.27178722621142 8.78646257968884 0 0 0 0
256 1 7.029034286959065 8.786402845665899 1.7572165354503568 0 0 0
303 1 5.271747986035413 8.786412514951495 3.5144597781967253 0 0 0
306 1 7.029085531906747 8.786450857037856 5.271776551196766 0 0 0
255 1 8.786417763743778 8.78641776374378 0 0 0 0
305 1 8.786453578897158 8.786453578897158 3.514487449962232 0 0 0
34 1 12.301475563070246 5.271556248041945 0 0 0 0
36 1 10.543946791374465 5.2717606125492535 1.757232641398581 0 0 0
47 1 10.54393121327269 7.029049235512492 0 0 0 0
48 1 12.30137552993195 7.028966390375544 1.7572015530032343 0 0 0
84 1 12.301412501183135 5.271647742473763 3.5143892766350495 0 0 0
86 1 10.543901756987424 5.271755031074432 5.271758110804779 0 0 0
97 1 10.543895318512439 7.029070458904919 3.514478985181624 0 0 0
98 1 12.301290138665783 7.029051781641714 5.2717482284254675 0 0 0
257 1 12.301292684795003 8.786410707034804 0 0 0 0
258 1 10.54388895225117 8.786452968056325 1.7572270797415932 0 0 0
307 1 12.301271461402575 8.786446601795056 3.5144789851816247 0 0 0
308 1 10.543870666227845 8.78647125407965 5.27179697021304 0 0 0
100 1 15.815921217047704 7.0289130733999645 5.271614738433317 0 0 0
38 1 15.816495784049584 5.271265476134654 0 0 0 0
40 1 14.058970742594862 5.2713711777126315 1.7570554700798988 0 0 0
49 1 14.05878567226555 7.0288663572372485 0 0 0 0
50 1 15.816020355949775 7.0289425923610995 1.7571532477458305 0 0 0
88 1 15.816175047379975 5.271315094205621 3.5140184242284485 0 0 0
90 1 14.058736738299629 5.271605182007864 5.271567831666994 0 0 0
99 1 14.058694177833733 7.028929419124361 3.51438927663505 0 0 0
259 1 15.815799153846637 8.786456712218682 0 0 0 0
260 1 14.058581307758242 8.78639512893303 1.7572326413985806 0 0 0
309 1 15.815847127140207 8.786406223210033 3.5144881314753893 0 0 0
310 1 14.058586889233064 8.786440163320071 5.271758110804779 0 0 0
101 1 3.08147835412169e-05 3.081478354063655e-05 7.029261333314504 0 0 0
102 1 1.7572729961535039 1.7572729961535034 7.029261333314503 0 0 0
103 1 1.7573027817065445 1.0292304992029762e-06 8.786519054685225 0 0 0
104 1 1.0292304990444834e-06 1.7573027817065443 8.786519054685225 0 0 0
105 1 3.514498662782796 3.253301911973928e-05 7.029134015164452 0 0 0
108 1 3.5145700185279543 1.7572800960029107 8.786519054685225 0 0 0
121 1 3.2533019119254006e-05 3.514498662782796 7.029134015164451 0 0 0
123 1 1.7572800960029107 3.5145700185279543 8.786519054685225 0 0 0
125 1 3.514478731421344 3.5144787314213426 7.029081931106788 0 0 0
151 1 3.0814783540574484e-05 3.0814783540734174e-05 10.543776776055948 0 0 0
152 1 1.757272996153503 1.7572729961535034 10.543776776055946 0 0 0
153 1 3.514498662782796 3.2533019119058355e-05 10.543904094206 0 0 0
161 1 3.253301911943381e-05 3.514498662782795 10.543904094205999 0 0 0
163 1 3.514478731421343 3.5144787314213435 10.543956178263661 0 0 0
106 1 5.271702962501886 1.7572468045010015 7.029016984692574 0 0 0
107 1 5.2718025975572225 2.5432402390023977e-05 8.786519054685225 0 0 0
109 1 7.028969588986337 5.570661661610705e-05 7.028977256106074 0 0 0
112 1 7.029073568056406 1.7572579252162388 8.786519054685225 0 0 0
127 1 5.271792303116913 3.5145101345084977 8.786519054685225 0 0 0
129 1 7.029018033209944 3.5144776107009394 7.029025260636329 0 0 0
154 1 5.271702962501885 1.7572468045010003 10.544021124677876 0 0 0
155 1 7.028969588986338 5.5706616616981973e-05 10.544060853264376 0 0 0
165 1 7.029018033209944 3.514477610700939 10.54401284873412 0 0 0
110 1 8.786409033476843 1.7572586806877903 7.0290458974111845 0 0 0
111 1 8.786445199905872 4.4948990423493724e-05 8.786519054685225 0 0 0
131 1 8.786453811701593 3.514496446861806 8.786519054685224 0 0 0
156 1 8.786409033476843 1.7572586806877903 10.543992211959266 0 0 0
113 1 10.543932886830651 4.513024925396689e-05 7.029045897411184 0 0 0
114 1 12.301372331321158 1.7572481043204273 7.028977256106075 0 0 0
115 1 12.301268352251089 4.58857208044223e-05 8.786519054685225 0 0 0
116 1 10.543896720401623 1.7572588619466214 8.786519054685224 0 0 0
133 1 10.543899604086869 3.5144880601474218 7.029083721484763 0 0 0
135 1 12.301282827713521 3.5144891506605216 8.786519054685225 0 0 0
157 1 10.543932886830651 4.513024925270657e-05 10.543992211959266 0 0 0
158 1 12.30137233132116 1.7572481043204278 10.544060853264376 0 0 0
167 1 10.543899604086869 3.5144880601474227 10.543954387885687 0 0 0
117 1 14.05863895780561 5.7006436042851257e-05 7.029016984692575 0 0 0
118 1 15.815843257524698 1.7572712779179243 7.029134015164451 0 0 0
119 1 15.815771901779542 2.371493413259865e-05 8.786519054685225 0 0 0
120 1 14.05853932275027 1.7572783785346529 8.786519054685225 0 0 0
137 1 14.058661225997378 3.5144523652413464 7.028967765565647 0 0 0
139 1 15.815797711920798 3.5145442083866953 8.786519054685225 0 0 0
159 1 14.05863895780561 5.700643604281201e-05 10.544021124677876 0 0 0
160 1 15.8158432575247 1.7572712779179247 10.543904094206 0 0 0
169 1 14.058661225997378 3.5144523652413473 10.544070343804803 0 0 0
122 1 1.7572468045010003 5.271702962501886 7.029016984692574 0 0 0
124 1 2.5432402390155132e-05 5.271802597557223 8.786519054685224 0 0 0
128 1 3.5145101345084977 5.271792303116914 8.786519054685225 0 0 0
141 1 5.57066166165152e-05 7.028969588986336 7.028977256106074 0 0 0
142 1 1.7572579252162388 7.029073568056405 8.786519054685225 0 0 0
143 1 3.51447761070094 7.029018033209944 7.029025260636328 0 0 0
162 1 1.757246804501001 5.271702962501886 10.544021124677874 0 0 0
171 1 5.570661661679343e-05 7.028969588986337 10.544060853264375 0 0 0
172 1 3.5144776107009386 7.029018033209943 10.544012848734122 0 0 0
351 1 1.7572586806877903 8.786409033476843 7.029045897411184 0 0 0
352 1 4.4948990423578536e-05 8.786445199905872 8.786519054685225 0 0 0
354 1 3.5144964468618065 8.786453811701593 8.786519054685224 0 0 0
401 1 1.7572586806877895 8.786409033476843 10.543992211959266 0 0 0
126 1 5.271729405890048 5.271729405890048 7.029031315932033 0 0 0
132 1 7.029089745070923 5.271774183265398 8.786519054685225 0 0 0
144 1 5.271774183265398 7.029089745070923 8.786519054685224 0 0 0
145 1 7.029087123969413 7.029087123969413 7.029108201554579 0 0 0
164 1 5.2717294058900475 5.271729405890048 10.544006793438417 0 0 0
173 1 7.029087123969414 7.029087123969413 10.543929907815873 0 0 0
130 1 8.786453867470083 5.271772167727103 7.029108137287043 0 0 0
146 1 8.786475388670356 7.029111932970434 8.786519054685225 0 0 0
166 1 8.786453867470083 5.271772167727104 10.543929972083406 0 0 0
353 1 5.271772167727103 8.786453867470085 7.029108137287044 0 0 0
356 1 7.029111932970434 8.786475388670357 8.786519054685225 0 0 0
402 1 5.271772167727104 8.786453867470085 10.543929972083408 0 0 0
355 1 8.786476656705474 8.786476656705476 7.029144368800243 0 0 0
403 1 8.786476656705474 8.786476656705476 10.543893740570208 0 0 0
134 1 12.301290964763515 5.271746280786618 7.029074481114241 0 0 0
136 1 10.543876638877247 5.271777873295686 8.786519054685225 0 0 0
147 1 10.543871374332005 7.029103936999341 7.029133257986305 0 0 0
148 1 12.301244797409371 7.029097122898123 8.786519054685225 0 0 0
168 1 12.301290964763515 5.271746280786617 10.543963628256206 0 0 0
174 1 10.543871374332005 7.029103936999341 10.543904851384145 0 0 0
357 1 12.301237983308152 8.786470545975488 7.029133257986305 0 0 0
358 1 10.54386242872776 8.786479491579733 8.786519054685225 0 0 0
404 1 12.301237983308154 8.78647054597549 10.543904851384145 0 0 0
138 1 15.815889555066148 5.271680694310116 7.028967765565648 0 0 0
140 1 14.058587314403038 5.271754605904457 8.786519054685225 0 0 0
149 1 14.058595639520874 7.02905095554398 7.029074481114241 0 0 0
150 1 15.815852769646973 7.029059092593973 8.786519054685225 0 0 0
170 1 15.815889555066148 5.271680694310117 10.544070343804801 0 0 0
175 1 14.058595639520876 7.029050955543979 10.543963628256206 0 0 0
359 1 15.815853860160072 8.786442316220628 7.029083721484762 0 0 0
360 1 14.058564047011808 8.786465281430248 8.786519054685225 0 0 0
405 1 15.815853860160072 8.786442316220626 10.543954387885687 0 0 0
176 1 1.7571656382944396 0.00013817264260442488 12.301210476097713 0 0 0
177 1 0.00013817264260302303 1.7571656382944403 12.301210476097712 0 0 0
179 1 3.51419701494587 1.7571751850729995 12.301462615160053 0 0 0
186 1 1.7571751850729993 3.5141970149458706 12.301462615160053 0 0 0
201 1 0.0005189896408433771 0.000518989640843337 14.0595443599037 0 0 0
202 1 1.7567848212962007 1.7567848212962003 14.0595443599037 0 0 0
203 1 1.753404401400315 0.0038994095367284234 15.82369589251587 0 0 0
204 1 0.0038994095367287313 1.7534044014003147 15.82369589251587 0 0 0
205 1 3.513441266363069 0.000503221653208795 14.059825786356795 0 0 0
208 1 3.5101074677328437 1.7568235845628046 15.82005778554125 0 0 0
221 1 0.0005032216532080841 3.5134412663630696 14.059825786356793 0 0 0
223 1 1.7568235845628049 3.5101074677328445 15.82005778554125 0 0 0
225 1 3.5138121996624516 3.513812199662452 14.059431893405582 0 0 0
178 1 5.271338699016611 0.00012601627628277328 12.301717164761532 0 0 0
181 1 7.028798321950007 1.7572481337877595 12.301540980103319 0 0 0
188 1 5.2714814550326246 3.5143549722168994 12.301570596867457 0 0 0
206 1 5.271006708807984 1.757183275785925 14.059333004489005 0 0 0
207 1 5.271223351045603 0.0004978014222059398 15.816358010864151 0 0 0
209 1 7.02888563789387 0.00012412450875863763 14.058761140336209 0 0 0
212 1 7.029189259833297 1.7572854812533825 15.81589455045811 0 0 0
227 1 5.270990670976774 3.5138847881275845 15.816321692904836 0 0 0
229 1 7.028842163116547 3.5143981768823065 14.058769607817426 0 0 0
180 1 8.786394120811023 5.447566557589818e-05 12.30130989145216 0 0 0
190 1 8.786398726621057 3.514484210126416 12.301317168691021 0 0 0
210 1 8.786459637221249 1.7572831412001821 14.058529996152298 0 0 0
211 1 8.786513626755882 2.8185620758325804e-05 15.815759602715476 0 0 0
231 1 8.786516445865105 3.514554529039605 15.815780660357916 0 0 0
182 1 12.301543598357485 5.567714928556487e-05 12.301540980103319 0 0 0
183 1 10.543947799496474 1.757249335271468 12.30130989145216 0 0 0
192 1 12.30142884690753 3.5144207032597894 12.301423370937131 0 0 0
213 1 10.543882283086246 2.066973686206234e-05 14.058529996152297 0 0 0
214 1 12.301456282413625 1.7571796864282847 14.058761140336209 0 0 0
215 1 12.301152660474198 1.832968366111338e-05 15.81589455045811 0 0 0
216 1 10.543828293551613 1.7572756253162856 15.815759602715477 0 0 0
233 1 10.543935697097462 3.514494793167286 14.058549977895062 0 0 0
235 1 12.301399327946395 3.51432156435772 15.815884861624621 0 0 0
184 1 15.816144905361625 0.00012862586404375397 12.301462615160053 0 0 0
185 1 14.059003221290883 1.7571777946607614 12.301717164761532 0 0 0
194 1 15.8161336095881 3.514208310719396 12.30170311780475 0 0 0
217 1 14.05933521149951 0.00012053515111955771 14.059333004489005 0 0 0
218 1 15.816900653944426 1.7568005892838356 14.059825786356795 0 0 0
219 1 15.82023445257465 0.0004802263742393907 15.820057785541252 0 0 0
220 1 14.05911856926189 1.7568060095148381 15.81635801086415 0 0 0
237 1 14.059026826101876 3.5141668729275186 14.059019685142001 0 0 0
239 1 15.8169414244848 3.513400495822695 15.816766359970263 0 0 0
187 1 0.00012601627628164522 5.271338699016611 12.301717164761532 0 0 0
189 1 3.5143549722169 5.271481455032625 12.301570596867457 0 0 0
196 1 1.7572481337877592 7.028798321950007 12.301540980103319 0 0 0
222 1 1.757183275785924 5.271006708807984 14.059333004489005 0 0 0
224 1 0.0004978014222055756 5.271223351045603 15.81635801086415 0 0 0
228 1 3.5138847881275836 5.270990670976775 15.816321692904836 0 0 0
241 1 0.00012412450875926164 7.028885637893869 14.058761140336209 0 0 0
242 1 1.7572854812533822 7.029189259833298 15.81589455045811 0 0 0
243 1 3.5143981768823056 7.028842163116548 14.058769607817426 0 0 0
426 1 5.447566557639121e-05 8.786394120811023 12.30130989145216 0 0 0
427 1 3.5144842101264167 8.786398726621057 12.301317168691021 0 0 0
451 1 1.7572831412001813 8.786459637221247 14.058529996152298 0 0 0
452 1 2.8185620758678186e-05 8.786513626755882 15.815759602715476 0 0 0
454 1 3.514554529039604 8.786516445865105 15.815780660357918 0 0 0
191 1 7.0289795665904045 5.271700686303311 12.301366445313926 0 0 0
197 1 5.271700686303311 7.0289795665904045 12.301366445313926 0 0 0
226 1 5.27144938840595 5.271449388405949 14.058849066028007 0 0 0
232 1 7.0288366383151 5.271545221378212 15.81589823827678 0 0 0
244 1 5.271545221378213 7.0288366383151 15.81589823827678 0 0 0
245 1 7.028988106088551 7.028988106088551 14.058613831520253 0 0 0
198 1 8.786450857037856 7.029085531906747 12.301261558173683 0 0 0
230 1 8.786412514951495 5.271747986035413 14.058578331173724 0 0 0
246 1 8.786402845665897 7.029034286959064 15.815821573920093 0 0 0
428 1 7.0290855319067465 8.786450857037856 12.301261558173683 0 0 0
453 1 5.271747986035413 8.786412514951495 14.058578331173724 0 0 0
456 1 7.029034286959065 8.786402845665899 15.815821573920093 0 0 0
455 1 8.78645357889716 8.78645357889716 14.058550659408217 0 0 0
193 1 10.543901756987422 5.271755031074431 12.301279998565672 0 0 0
199 1 12.301290138665783 7.029051781641714 12.301289880944983 0 0 0
234 1 12.301412501183135 5.271647742473763 14.058648832735402 0 0 0
236 1 10.543946791374465 5.2717606125492535 15.815805467971868 0 0 0
247 1 10.54389531851244 7.02907045890492 14.058559124188825 0 0 0
248 1 12.30137552993195 7.028966390375545 15.815836556367215 0 0 0
429 1 10.543870666227845 8.78647125407965 12.30124113915741 0 0 0
457 1 12.301271461402575 8.786446601795054 14.058559124188825 0 0 0
458 1 10.54388895225117 8.786452968056325 15.815811029628856 0 0 0
195 1 14.05873673829963 5.271605182007864 12.301470277703455 0 0 0
200 1 15.815921217047704 7.028913073399964 12.301423370937131 0 0 0
238 1 15.816175047379975 5.27131509420562 14.059019685142 0 0 0
240 1 14.058970742594862 5.2713711777126315 15.815982639290551 0 0 0
249 1 14.05869417783373 7.028929419124361 14.058648832735402 0 0 0
250 1 15.816020355949776 7.0289425923611 15.815884861624621 0 0 0
430 1 14.058586889233064 8.786440163320071 12.301279998565672 0 0 0
459 1 15.815847127140207 8.786406223210033 14.05854997789506 0 0 0
460 1 14.058581307758242 8.78639512893303 15.815805467971868 0 0 0
251 1 1.7573115101741204 8.786586798438405 0 0 0 0
262 1 1.7571633375341935 12.301086084768015 0 0 0 0
263 1 1.7572756253162856 10.543828293551613 1.7572785066549734 0 0 0
264 1 1.8329683661344316e-05 12.301152660474198 1.7571435589123412 0 0 0
265 1 3.5145427664608566 10.543885208088813 6.210902040194712e-20 0 0 0
268 1 3.51432156435772 12.301399327946395 1.7571532477458303 0 0 0
311 1 2.0669736862696282e-05 10.543882283086246 3.514508113218151 0 0 0
312 1 1.7571796864282845 12.301456282413623 3.514276969034241 0 0 0
313 1 1.7572493352714675 10.543947799496472 5.27172821791829 0 0 0
314 1 5.567714928456373e-05 12.301543598357487 5.27149712926713 0 0 0
315 1 3.514494793167287 10.543935697097462 3.514488131475389 0 0 0
318 1 3.5144207032597907 12.30142884690753 5.271614738433317 0 0 0
266 1 5.271556248041945 12.301475563070246 0 0 0 0
267 1 5.2717606125492535 10.543946791374463 1.757232641398581 0 0 0
269 1 7.029049235512493 10.543931213272689 0 0 0 0
272 1 7.028966390375546 12.301375529931951 1.757201553003235 0 0 0
316 1 5.271647742473763 12.301412501183135 3.51438927663505 0 0 0
317 1 5.271755031074432 10.543901756987424 5.271758110804778 0 0 0
319 1 7.029070458904919 10.543895318512439 3.5144789851816243 0 0 0
322 1 7.029051781641713 12.301290138665783 5.271748228425467 0 0 0
270 1 8.786410707034806 12.301292684795003 0 0 0 0
271 1 8.786452968056325 10.543888952251168 1.7572270797415925 0 0 0
320 1 8.786446601795056 12.301271461402575 3.5144789851816243 0 0 0
321 1 8.78647125407965 10.543870666227845 5.27179697021304 0 0 0
273 1 10.543924156563717 10.543924156563715 0 0 0 0
274 1 12.301503360888027 12.301503360888026 0 0 0 0
275 1 12.30130763334843 10.543939074641596 1.757216535450357 0 0 0
276 1 10.543939074641598 12.30130763334843 1.7572165354503573 0 0 0
323 1 10.543888341410337 10.543888341410335 3.5144874499622323 0 0 0
324 1 12.301353814218942 12.301353814218942 3.514424277850197 0 0 0
325 1 12.301256388400748 10.543891063269639 5.271776551196766 0 0 0
326 1 10.543891063269639 12.301256388400748 5.2717765511967665 0 0 0
261 1 17.573030410133374 10.543755121869092 0 -1 0 0
277 1 14.058554694096076 10.543879340618656 0 0 0 0
278 1 15.815919179430216 12.301207273102486 1.3254418391200831e-18 0 0 0
279 1 15.815787391267891 10.54382547444239 1.7572574490125334 0 0 0
280 1 14.058796698929282 12.301505281992394 1.7571398710936696 0 0 0
327 1 14.05859393427208 10.543929405356 3.5144597781967257 0 0 0
328 1 15.815943743425189 12.301499757190946 3.5142685015530235 0 0 0
329 1 15.81585771018108 10.543943193686438 5.271720940679429 0 0 0
330 1 14.058641234004183 12.301362353717092 5.271671664056523 0 0 0
281 1 9.497290121331322e-05 14.058798413966331 2.5705901852735786e-19 0 0 0
282 1 1.7534414305386068 15.81981568191283 6.466921812252936e-19 0 0 0
283 1 1.7568060095148386 14.05911856926189 1.7566800985062998 0 0 0
284 1 0.0004802263742391439 15.82023445257465 1.7529803238292003 0 0 0
285 1 3.513846136257911 14.059076444172842 0 0 0 0
288 1 3.5134004958226948 15.8169414244848 1.7562717494001865 0 0 0
331 1 0.0001205351511200009 14.05933521149951 3.5137051048814443 0 0 0
332 1 1.7568005892838359 15.816900653944426 3.513212323013656 0 0 0
333 1 1.757177794660761 14.059003221290883 5.271320944608917 0 0 0
334 1 0.00012862586404409208 15.816144905361625 5.2715754942103965 0 0 0
335 1 3.514166872927519 14.059026826101876 3.514018424228449 0 0 0
338 1 3.5142083107193964 15.816133609588098 5.271334991565699 0 0 0
341 1 8.786440163320071 14.058586889233064 5.271758110804779 0 0 0
340 1 8.786406223210033 15.815847127140207 3.5144881314753893 0 0 0
291 1 8.78639512893303 14.05858130775824 1.757232641398581 0 0 0
286 1 5.271265476134652 15.816495784049584 8.724427295473965e-19 0 0 0
287 1 5.2713711777126315 14.05897074259486 1.7570554700798988 0 0 0
289 1 7.0288663572372485 14.058785672265548 3.01577611720287e-16 0 0 0
292 1 7.0289425923611 15.816020355949775 1.7571532477458314 0 0 0
336 1 5.271315094205621 15.816175047379975 3.5140184242284485 0 0 0
337 1 5.271605182007864 14.058736738299629 5.271567831666994 0 0 0
339 1 7.028929419124361 14.05869417783373 3.5143892766350495 0 0 0
342 1 7.028913073399965 15.815921217047705 5.271614738433317 0 0 0
290 1 8.786456712218682 15.815799153846637 1.0259189943279746e-15 0 0 0
346 1 10.543943193686438 15.81585771018108 5.271720940679428 0 0 0
345 1 12.301362353717092 14.058641234004185 5.271671664056523 0 0 0
344 1 12.301499757190946 15.815943743425189 3.5142685015530235 0 0 0
343 1 10.543929405356 14.05859393427208 3.514459778196725 0 0 0
296 1 10.54382547444239 15.815787391267891 1.7572574490125328 0 0 0
295 1 12.301505281992394 14.058796698929282 1.7571398710936692 0 0 0
294 1 12.301207273102486 15.815919179430216 0 0 0 0
293 1 10.543879340618656 14.058554694096077 0 0 0 0
13 1 10.54375512186909 17.573030410133374 0 0 -1 0
350 1 14.05886046527487 15.815986948090593 5.271467512502994 0 0 0
349 1 15.815986948090593 14.05886046527487 5.271467512502995 0 0 0
348 1 15.816529720645043 15.816529720645043 3.513606215964868 0 0 0
347 1 14.058892531901543 14.058892531901543 3.5141890433424443 0 0 0
300 1 14.059351249330721 15.81645713217991 1.756716416465615 0 0 0
299 1 15.81645713217991 14.059351249330721 1.7567164164656148 0 0 0
298 1 15.820044596082608 15.820044596082608 0 0 0 0
297 1 14.059305228407037 14.059305228407037 0 0 0 0
361 1 4.513024925266392e-05 10.54393288683065 7.029045897411184 0 0 0
362 1 1.7572481043204278 12.301372331321158 7.028977256106074 0 0 0
363 1 1.7572588619466205 10.543896720401623 8.786519054685225 0 0 0
364 1 4.588572080511618e-05 12.301268352251089 8.786519054685225 0 0 0
365 1 3.5144880601474218 10.543899604086867 7.0290837214847635 0 0 0
368 1 3.5144891506605216 12.301282827713521 8.786519054685225 0 0 0
406 1 4.513024925410352e-05 10.543932886830651 10.543992211959266 0 0 0
407 1 1.7572481043204269 12.30137233132116 10.544060853264375 0 0 0
408 1 3.514488060147423 10.543899604086869 10.543954387885687 0 0 0
366 1 5.271746280786618 12.301290964763517 7.029074481114241 0 0 0
367 1 5.271777873295686 10.543876638877247 8.786519054685225 0 0 0
369 1 7.029103936999342 10.543871374332005 7.029133257986305 0 0 0
372 1 7.029097122898123 12.301244797409371 8.786519054685225 0 0 0
409 1 5.271746280786618 12.301290964763515 10.543963628256208 0 0 0
410 1 7.029103936999341 10.543871374332005 10.543904851384145 0 0 0
370 1 8.78647054597549 12.301237983308154 7.029133257986306 0 0 0
371 1 8.786479491579733 10.543862428727762 8.786519054685225 0 0 0
411 1 8.786470545975488 12.301237983308154 10.543904851384145 0 0 0
373 1 10.543865263602019 10.543865263602019 7.029144368800243 0 0 0
374 1 12.30125479633808 12.30125479633808 7.029108201554579 0 0 0
375 1 12.30122998733706 10.54386653163714 8.786519054685225 0 0 0
376 1 10.543866531637137 12.301229987337061 8.786519054685225 0 0 0
412 1 10.543865263602019 10.543865263602019 10.543893740570208 0 0 0
413 1 12.30125479633808 12.30125479633808 10.543929907815873 0 0 0
377 1 14.058569752580391 10.54388805283741 7.029108137287043 0 0 0
378 1 15.815864309606557 12.301323887097551 7.029025260636329 0 0 0
379 1 15.81584547344569 10.543888108605902 8.786519054685225 0 0 0
380 1 14.058567737042097 12.301252175236572 8.786519054685225 0 0 0
414 1 14.058569752580391 10.54388805283741 10.543929972083406 0 0 0
415 1 15.815864309606557 12.301323887097551 10.544012848734122 0 0 0
381 1 5.700643604335003e-05 14.05863895780561 7.029016984692574 0 0 0
382 1 1.757271277917924 15.8158432575247 7.029134015164451 0 0 0
383 1 1.7572783785346529 14.05853932275027 8.786519054685225 0 0 0
384 1 2.371493413268321e-05 15.815771901779542 8.786519054685225 0 0 0
385 1 3.5144523652413477 14.058661225997378 7.028967765565647 0 0 0
388 1 3.514544208386696 15.8157977119208 8.786519054685225 0 0 0
416 1 5.7006436043439524e-05 14.05863895780561 10.544021124677876 0 0 0
417 1 1.7572712779179243 15.815843257524698 10.543904094206 0 0 0
418 1 3.5144523652413473 14.058661225997378 10.544070343804803 0 0 0
421 1 8.786442316220626 15.815853860160072 10.543954387885687 0 0 0
391 1 8.786465281430246 14.058564047011808 8.786519054685225 0 0 0
390 1 8.786442316220626 15.815853860160072 7.029083721484763 0 0 0
386 1 5.271680694310116 15.815889555066148 7.028967765565648 0 0 0
387 1 5.271754605904457 14.058587314403038 8.786519054685225 0 0 0
389 1 7.029050955543979 14.058595639520876 7.029074481114242 0 0 0
392 1 7.0290590925939735 15.815852769646973 8.786519054685225 0 0 0
419 1 5.271680694310115 15.815889555066148 10.544070343804803 0 0 0
420 1 7.029050955543979 14.058595639520874 10.543963628256208 0 0 0
423 1 12.301323887097551 15.815864309606557 10.54401284873412 0 0 0
422 1 10.54388805283741 14.058569752580391 10.543929972083406 0 0 0
396 1 10.543888108605902 15.81584547344569 8.786519054685225 0 0 0
395 1 12.301252175236572 14.058567737042097 8.786519054685224 0 0 0
394 1 12.301323887097551 15.815864309606557 7.029025260636329 0 0 0
393 1 10.543888052837412 14.058569752580391 7.029108137287043 0 0 0
425 1 15.815863188886151 15.815863188886151 10.543956178263661 0 0 0
424 1 14.058612514417447 14.058612514417447 10.544006793438417 0 0 0
400 1 14.05854961719058 15.815831785798999 8.786519054685225 0 0 0
399 1 15.815831785798997 14.058549617190582 8.786519054685225 0 0 0
398 1 15.815863188886151 15.815863188886151 7.029081931106789 0 0 0
397 1 14.058612514417446 14.058612514417446 7.029031315932033 0 0 0
431 1 1.7572493352714675 10.543947799496474 12.301309891452162 0 0 0
432 1 5.5677149284581146e-05 12.301543598357487 12.301540980103319 0 0 0
434 1 3.5144207032597907 12.30142884690753 12.301423370937133 0 0 0
461 1 2.0669736862394962e-05 10.543882283086246 14.058529996152297 0 0 0
462 1 1.7571796864282847 12.301456282413625 14.058761140336209 0 0 0
463 1 1.7572756253162856 10.543828293551613 15.815759602715477 0 0 0
464 1 1.832968366052654e-05 12.301152660474198 15.815894550458111 0 0 0
465 1 3.5144947931672865 10.543935697097462 14.05854997789506 0 0 0
468 1 3.5143215643577204 12.301399327946395 15.815884861624621 0 0 0
433 1 5.271755031074431 10.543901756987424 12.301279998565672 0 0 0
436 1 7.029051781641714 12.301290138665783 12.301289880944982 0 0 0
466 1 5.271647742473763 12.301412501183135 14.058648832735402 0 0 0
467 1 5.271760612549253 10.543946791374465 15.815805467971868 0 0 0
469 1 7.029070458904921 10.54389531851244 14.058559124188825 0 0 0
472 1 7.028966390375546 12.30137552993195 15.815836556367216 0 0 0
435 1 8.78647125407965 10.543870666227845 12.30124113915741 0 0 0
470 1 8.786446601795056 12.301271461402575 14.058559124188827 0 0 0
471 1 8.786452968056325 10.54388895225117 15.815811029628856 0 0 0
437 1 12.301256388400748 10.543891063269639 12.301261558173683 0 0 0
438 1 10.543891063269639 12.301256388400748 12.301261558173683 0 0 0
473 1 10.543888341410335 10.543888341410335 14.058550659408219 0 0 0
474 1 12.301353814218942 12.301353814218944 14.058613831520253 0 0 0
475 1 12.30130763334843 10.543939074641596 15.815821573920093 0 0 0
476 1 10.543939074641598 12.30130763334843 15.815821573920093 0 0 0
439 1 15.815857710181078 10.543943193686436 12.301317168691021 0 0 0
440 1 14.058641234004185 12.30136235371709 12.301366445313926 0 0 0
477 1 14.058593934272082 10.543929405356 14.058578331173724 0 0 0
478 1 15.815943743425189 12.301499757190946 14.058769607817426 0 0 0
479 1 15.815787391267891 10.54382547444239 15.815780660357916 0 0 0
480 1 14.058796698929282 12.301505281992393 15.81589823827678 0 0 0
441 1 1.7571777946607614 14.059003221290883 12.301717164761534 0 0 0
442 1 0.0001286258640437161 15.816144905361625 12.301462615160053 0 0 0
444 1 3.5142083107193964 15.8161336095881 12.30170311780475 0 0 0
481 1 0.00012053515111907034 14.05933521149951 14.059333004489005 0 0 0
482 1 1.7568005892838352 15.816900653944426 14.059825786356795 0 0 0
483 1 1.7568060095148381 14.05911856926189 15.816358010864151 0 0 0
484 1 0.0004802263742399647 15.82023445257465 15.82005778554125 0 0 0
485 1 3.5141668729275186 14.059026826101874 14.059019685142001 0 0 0
488 1 3.5134004958226948 15.8169414244848 15.816766359970265 0 0 0
491 1 8.786395128933032 14.05858130775824 15.815805467971867 0 0 0
490 1 8.786406223210033 15.81584712714021 14.05854997789506 0 0 0
445 1 8.786440163320071 14.058586889233064 12.301279998565672 0 0 0
443 1 5.271605182007863 14.058736738299629 12.301470277703455 0 0 0
446 1 7.028913073399965 15.815921217047704 12.301423370937133 0 0 0
486 1 5.2713150942056215 15.816175047379975 14.059019685142001 0 0 0
487 1 5.271371177712631 14.058970742594862 15.815982639290551 0 0 0
489 1 7.028929419124361 14.058694177833733 14.058648832735402 0 0 0
492 1 7.0289425923610995 15.816020355949776 15.81588486162462 0 0 0
496 1 10.54382547444239 15.815787391267891 15.815780660357916 0 0 0
495 1 12.301505281992393 14.058796698929282 15.81589823827678 0 0 0
494 1 12.301499757190946 15.815943743425189 14.058769607817426 0 0 0
493 1 10.543929405356002 14.05859393427208 14.058578331173724 0 0 0
448 1 10.543943193686438 15.81585771018108 12.301317168691021 0 0 0
447 1 12.301362353717092 14.058641234004183 12.301366445313926 0 0 0
500 1 14.05935124933072 15.81645713217991 15.816321692904836 0 0 0
499 1 15.81645713217991 14.05935124933072 15.816321692904836 0 0 0
498 1 15.816529720645043 15.816529720645041 14.05943189340558 0 0 0
497 1 14.058892531901545 14.058892531901545 14.058849066028007 0 0 0
450 1 14.058860465274872 15.815986948090595 12.301570596867457 0 0 0
449 1 15.815986948090593 14.05886046527487 12.301570596867457 0 0 0

Velocities

1 8.011420680292655e-09 8.011418661867004e-09 8.558352831243034e-16
2 -8.011417022038706e-09 -8.011419394544111e-09 -3.06184908086443e-16
3 -1.4332224887555838e-09 1.4332191534297984e-09 -8.63481747794678e-09
4 1.4332189031118382e-09 -1.4332227008742143e-09 -8.63481705610634e-09
5 1.4672880181627685e-09 -3.0855835004229824e-09 -5.704468341334064e-16
8 5.45411007110478e-09 -5.22236070099857e-09 -3.955501837645973e-09
21 -3.085590964196328e-09 1.467288187176077e-09 -1.4740447216254088e-15
23 -5.222360476247185e-09 5.45411101080829e-09 -3.955500542496764e-09
25 7.889680513234596e-09 7.889678974368047e-09 -1.1507044826257637e-15
51 2.183278595075789e-09 2.183278842547525e-09 -1.0282701425186562e-09
52 -2.1832787844246233e-09 -2.183279102602569e-09 -1.0282699420845263e-09
53 -2.2488645084281836e-09 2.2488663217728334e-09 -1.4883944430283349e-08
54 2.2488653425217823e-09 -2.2488657197214377e-09 -1.4883944268497951e-08
55 1.9298229804731716e-09 4.643889231082276e-09 -7.474511600112585e-10
58 -6.877314186400779e-09 -1.5456003985405643e-09 -7.380915342148865e-09
71 4.643889681693928e-09 1.9298233090997578e-09 -7.474511361390181e-10
73 -1.5455983230094587e-09 -6.877312731577435e-09 -7.380915109155191e-09
75 -7.567057116826155e-09 -7.567056714847259e-09 -1.4235209050732177e-10
6 -1.1562611523770965e-09 -1.0490357319552196e-10 -9.05698616559677e-16
7 -9.456779111880907e-10 3.823569169907975e-09 -8.096468648698345e-09
9 5.924921584131194e-09 3.390453499918528e-09 2.9241212363951196e-16
12 -7.408386053728987e-10 1.2146816729285022e-09 -2.551568177425657e-10
27 -4.3533052054546365e-10 -5.917558286407953e-09 -1.946868305445222e-09
29 -2.5401318272187488e-09 -7.23704711835077e-09 -7.186202082443943e-16
56 -5.525804529577161e-11 -1.420636232066899e-09 3.159137107030848e-10
57 1.1815895248711576e-09 -3.61394004018289e-09 3.7265152036322597e-10
59 7.092534106548347e-09 -1.7555941878708224e-09 1.0012711870647243e-09
62 -1.2102181637328525e-09 -3.740326734229973e-09 7.340943501355417e-09
77 5.098013875916953e-09 -4.291967265744859e-09 9.47914081828171e-09
79 1.6993507121728101e-09 -2.0392847215262474e-09 5.49265011249642e-09
11 1.990569801805918e-09 -1.9931004202126184e-09 6.381178514697045e-09
31 -1.1632443285520039e-09 -2.3920620395782554e-09 1.5542048491973965e-09
60 2.026986290869523e-09 -4.1091230356314394e-09 5.420653705921089e-09
61 -9.859393451666857e-10 -1.5810857267782668e-10 3.89440883900289e-09
81 -2.0452321412599214e-09 -2.096456394098333e-10 9.995665741573452e-09
10 8.741889740038199e-10 2.6818035830663385e-09 -1.3190003835276143e-15
14 -5.924922327477979e-09 -3.390453872159591e-09 -3.121355704236464e-16
15 7.40838153799242e-10 -1.2146847764941327e-09 -2.5515702020176505e-10
16 -1.990570639872762e-09 1.9930983158040565e-09 6.381175084846644e-09
33 -6.080515316632956e-09 -2.011294944893413e-09 -6.734902281287001e-16
35 -8.733169179114094e-09 4.554748464781365e-10 8.355794483907883e-10
63 -2.026987906388692e-09 4.109123138694728e-09 5.420652004178402e-09
64 -7.092531032625818e-09 1.7555959111848953e-09 1.0012737468692165e-09
65 1.2102202789671912e-09 3.740329426882465e-09 7.340943534142005e-09
66 9.85941259826163e-10 1.5811339028740467e-10 3.894408914203138e-09
83 -4.451162137285459e-09 -7.091139936475273e-09 -1.5469963741344275e-09
85 -4.714662041835535e-09 -4.485164540236606e-09 7.243453421881994e-09
17 1.1562599908272342e-09 1.049074410649033e-10 -6.63320124731434e-16
18 -1.4672906151554315e-09 3.085592530818248e-09 1.2223785496405827e-16
19 -5.454109348762946e-09 5.222360656008736e-09 -3.955501140203922e-09
20 9.456802628436866e-10 -3.823570590024231e-09 -8.096467449538995e-09
37 2.393027884612304e-10 1.355731328124902e-09 -1.3125589279351455e-15
39 -1.4364720805645266e-09 1.4364734209092537e-09 -1.2700648319241989e-08
67 5.525639186868309e-11 1.4206382726601104e-09 3.1591403352487086e-10
68 -1.9298214386808153e-09 -4.6438903402204114e-09 -7.474532586735365e-10
69 6.877314960620673e-09 1.5455973666780052e-09 -7.38091435595429e-09
70 -1.1815953570848922e-09 3.613940242714238e-09 3.7264910654009366e-10
87 -1.624389724693177e-09 2.499069560678007e-09 -4.182411379781312e-09
89 -2.5672906811718716e-09 2.5672940869791653e-09 -5.296787220888469e-09
22 -1.0490455589200304e-10 -1.156258576094462e-09 -7.253214754541465e-16
24 3.823569294542651e-09 -9.456786615427665e-10 -8.09646841755495e-09
28 -5.917559724041598e-09 -4.3533102160101814e-10 -1.946867591194998e-09
41 3.390455307121325e-09 5.924922131580019e-09 2.900153029539422e-16
42 1.21468114083431e-09 -7.408393624686327e-10 -2.5515868366746943e-10
43 -7.237047377806609e-09 -2.5401289591694783e-09 -6.68585406110525e-16
72 -1.420637483207297e-09 -5.525936521836935e-11 3.1591291585742493e-10
74 -3.6139401360557173e-09 1.1815907127579597e-09 3.7264976169604794e-10
78 -4.291969065214165e-09 5.098012697273478e-09 9.479141462275127e-09
91 -1.7555957793597577e-09 7.092535511984076e-09 1.0012728097123284e-09
92 -3.740326897213779e-09 -1.210220399880241e-09 7.340943970533067e-09
93 -2.039283081202091e-09 1.6993501286888016e-09 5.4926508339078475e-09
252 -1.993096985568576e-09 1.9905701349639936e-09 6.38117575296041e-09
254 -2.3920619282384447e-09 -1.163245506571816e-09 1.5542037360860167e-09
301 -4.109122575441868e-09 2.0269904490538096e-09 5.42065306297394e-09
302 -1.5811454076133375e-10 -9.859445733816073e-10 3.894407392821208e-09
304 -2.0964417985838675e-10 -2.045231702410501e-09 9.995667132254924e-09
26 -1.847735598853116e-09 -1.847738899575986e-09 -5.2797173083666505e-16
32 -2.0949350562659232e-09 1.011776417880671e-09 4.301451841743461e-09
44 1.011776971886996e-09 -2.094931230940109e-09 4.301454572920632e-09
45 -1.0443137913381951e-08 -1.0443140792431724e-08 4.831091694351568e-16
76 2.6782986731977485e-09 2.6782977607330765e-09 2.5867707012389937e-09
82 -1.1103096513732565e-12 -5.114422519578893e-09 1.136994677995278e-08
94 -5.114420423055965e-09 -1.1070714012914352e-12 1.1369947012755692e-08
95 -9.189010562622745e-10 -9.18897160347808e-10 -2.000391806583597e-09
30 -3.8334094045339665e-09 -6.079714189610768e-09 -1.1376787920835804e-15
46 -5.398957014037645e-09 -5.707914998391563e-09 2.418871609646512e-10
80 -1.5797431652202322e-09 -2.848249764081734e-10 5.00136349808704e-10
96 -3.6172453087319715e-09 5.3546651542569566e-09 3.893495998609694e-09
253 -6.0797174392974655e-09 -3.833410261579932e-09 -1.3374259425479318e-15
256 -5.707917608064672e-09 -5.398959256940277e-09 2.418921169906238e-10
303 -2.8482116669948524e-10 -1.5797459650801258e-09 5.001355468222802e-10
306 5.354661550998393e-09 -3.6172469264923082e-09 3.893495183840461e-09
255 -3.0976425616640036e-09 -3.09764937146225e-09 -1.4692510802542692e-15
305 -5.0910746585665625e-09 -5.0910753765270775e-09 -3.153032392807411e-10
34 -8.714215091766873e-09 2.2811937017870906e-09 -1.959633804650762e-15
36 -4.393841083092348e-09 2.395288856895351e-10 -7.23179237287813e-09
47 1.7466067630897354e-10 -8.61552993981722e-09 -1.8137940538049237e-15
48 -2.8264506450032965e-09 2.826455636833552e-09 -4.710469446330877e-09
84 -8.169541118332823e-09 5.324186094020403e-09 -9.991154228767755e-09
86 1.974094315946838e-09 2.2739189409130587e-09 4.7702964875628615e-09
97 3.7225318444734595e-10 -1.4015620646481795e-09 -2.085638928449296e-09
98 -5.671621437668576e-10 5.671595280578602e-10 -3.6313619234442887e-09
257 8.615530627648582e-09 -1.7466315970289604e-10 -1.4449165624246538e-15
258 1.1863257464851012e-09 -1.1863276041937733e-09 2.438058089726698e-09
307 1.4015645180853403e-09 -3.722538256544863e-10 -2.085641944412769e-09
308 -2.4515905109281783e-09 2.4515878081402537e-09 -3.950584046688539e-10
100 4.4851658511381675e-09 4.714662125661061e-09 7.243455496020162e-09
38 -1.3557320536125633e-09 -2.3930241695402415e-10 -4.601895716293959e-16
40 -4.006749777644801e-09 4.006749158066654e-09 1.444666897073637e-09
49 -2.2811937075655585e-09 8.71421293732936e-09 -2.3229686481956517e-15
50 -4.5547396954136814e-10 8.733170115671776e-09 8.355792478068573e-10
88 -2.4990699332525474e-09 1.6243862290941985e-09 -4.182410596567489e-09
90 -2.026319935171393e-09 2.0263206727929588e-09 2.3265299492311764e-09
99 -5.324187615644591e-09 8.169539882636002e-09 -9.991156391616884e-09
259 2.0112943672596274e-09 6.080515713945922e-09 -1.7376949970380834e-15
260 -2.3953256626750943e-10 4.3938410012219105e-09 -7.231790936726114e-09
309 7.091142032817972e-09 4.451161522293148e-09 -1.5469968742319998e-09
310 -2.2739220373291884e-09 -1.974093293475327e-09 4.770296948701565e-09
101 -3.813816808537798e-10 -3.813796004134247e-10 2.5122579093775236e-09
102 3.8137858416145406e-10 3.813795213183421e-10 2.5122604786194974e-09
103 3.6644737350747135e-09 -3.6644724536744544e-09 7.028676660433352e-16
104 -3.6644730447903557e-09 3.6644736805470428e-09 -2.3130817628676764e-15
105 -1.3186329989278308e-09 -3.2889544507742076e-09 2.5871084874158678e-09
108 -3.280108217208316e-09 -5.039123751941111e-09 -9.088198669348794e-16
121 -3.288955278021419e-09 -1.3186352039279608e-09 2.587111662004866e-09
123 -5.039122739090909e-09 -3.280107773384536e-09 -3.1094254356482324e-15
125 -4.9554606565219394e-09 -4.955456524233381e-09 5.0998628871669466e-09
151 -3.813795812388593e-10 -3.8138114636276694e-10 -2.51225864699909e-09
152 3.813810720613257e-10 3.813789059346311e-10 -2.512255308227875e-09
153 -1.3186353927056774e-09 -3.2889546171730153e-09 -2.5871130467789706e-09
161 -3.2889548597762092e-09 -1.3186301298585695e-09 -2.587110902512311e-09
163 -4.955459232435949e-09 -4.955459107086207e-09 -5.099857854969357e-09
106 -2.2389323930879387e-10 -5.594740072509992e-09 3.879814881721905e-09
107 -5.1124864649518216e-09 -1.1998823837644173e-09 2.858208667541951e-16
109 -6.037140185150481e-09 -2.4854237401393664e-10 -3.2998443256096757e-09
112 -8.263646017935969e-09 1.87377233432269e-09 -1.7245124832674497e-15
127 -9.46360191883786e-10 -4.99342362804245e-09 -1.1598517240703016e-15
129 -4.190130170933639e-09 -1.4308266306931218e-10 -2.2646124832919824e-09
154 -2.2389248972565316e-10 -5.5947366450564115e-09 -3.8798141295696134e-09
155 -6.0371423832878386e-09 -2.4854525259558e-10 3.2998469147752215e-09
165 -4.190129936921425e-09 -1.430816105654286e-10 2.2646149189978067e-09
110 -3.7067334411651096e-09 1.068352414525508e-09 -2.6571617982925802e-09
111 -6.821506287599721e-10 -1.5280624638276246e-09 -1.7580679728654266e-15
131 -3.2280847444148022e-09 9.099112691335783e-09 2.743356718508865e-15
156 -3.7067302120027986e-09 1.0683539820462363e-09 2.6571606699892428e-09
113 3.706731076913332e-09 -1.0683539652684916e-09 -2.6571582575892227e-09
114 6.0371424348007585e-09 2.485421079668405e-10 -3.2998477271476322e-09
115 8.263642779817763e-09 -1.873769818212192e-09 -9.100568979234767e-16
116 6.821517628938571e-10 1.5280584497521816e-09 4.580923535295224e-15
133 4.138245454671838e-09 9.101918591203523e-09 -4.977077158967706e-09
135 3.5523305695065104e-09 9.535029345890713e-09 -1.2563752508589013e-15
157 3.7067317445215185e-09 -1.0683496629753609e-09 2.657159668118196e-09
158 6.037136599503809e-09 2.4854078971546347e-10 3.2998438786026177e-09
167 4.138243744875511e-09 9.101914892993468e-09 4.977075736880627e-09
117 2.2389359951185412e-10 5.59473681403227e-09 3.879811491568847e-09
118 1.3186358840258303e-09 3.2889538024786842e-09 2.5871131498313064e-09
119 3.2801080460228887e-09 5.039126264814137e-09 -2.9241212363951196e-16
120 5.112491298185206e-09 1.199885913082877e-09 -8.688474985190418e-18
137 1.3933078408001978e-10 -2.1201659857167267e-09 -2.471451145588403e-09
139 4.859096214352745e-09 -4.859096142448124e-09 -5.033323439696518e-17
159 2.2389411992154548e-10 5.594737596144819e-09 -3.879812671104227e-09
160 1.3186300298662064e-09 3.2889529770735607e-09 -2.58711359054671e-09
169 1.3933347840607294e-10 -2.12016732777583e-09 2.4714502851297773e-09
122 -5.594735350773241e-09 -2.2389461870279744e-10 3.8798137180654625e-09
124 -1.1998842484909108e-09 -5.1124904983744525e-09 3.005613139704492e-15
128 -4.9934236351580114e-09 -9.463623743666944e-10 -3.1208395919696982e-15
141 -2.485444760256779e-10 -6.037135759121482e-09 -3.2998462790185344e-09
142 1.8737741463191285e-09 -8.263641797523873e-09 -2.6245186506988986e-15
143 -1.430842385107839e-10 -4.190129332736505e-09 -2.264611920858347e-09
162 -5.594739233622751e-09 -2.23895278432665e-10 -3.879809640923675e-09
171 -2.4854427469274027e-10 -6.037140041041637e-09 3.2998498496821508e-09
172 -1.4308031349220933e-10 -4.190125663855906e-09 2.264610136675796e-09
351 1.0683526590012179e-09 -3.7067337964060024e-09 -2.6571585470053203e-09
352 -1.5280622888597146e-09 -6.821524362061962e-10 -2.484304640593067e-15
354 9.099110749002858e-09 -3.228086822445062e-09 5.129312129056746e-15
401 1.0683570835322035e-09 -3.706731635522353e-09 2.657160856941256e-09
126 -2.1121311329158663e-09 -2.112131909654295e-09 -5.506771935740003e-10
132 5.034976548760374e-09 4.1783079262499414e-09 -7.009214195589101e-16
144 4.178308675666019e-09 5.034978699042102e-09 4.48684832338661e-15
145 6.124400400314247e-09 6.12440151747645e-09 6.93226746049344e-10
164 -2.1121289940967754e-09 -2.1121305975582294e-09 5.506780228084195e-10
173 6.124396416840957e-09 6.124400753489856e-09 -6.932288306841353e-10
130 -2.758880612180691e-09 5.696203693304479e-09 8.399187404933028e-10
146 4.055125942507147e-09 4.4955037755756e-09 -1.7233140729246648e-15
166 -2.7588809488655336e-09 5.6962004671876075e-09 -8.399174998389954e-10
353 5.69620498664905e-09 -2.7588837157638765e-09 8.399152456291406e-10
356 4.495502645691815e-09 4.055122195808698e-09 -4.362213647736982e-16
402 5.6962004993340605e-09 -2.7588861835903747e-09 -8.39921952532624e-10
355 2.180135780879382e-09 2.1801319197510586e-09 -3.7331530651977946e-09
403 2.1801361689108848e-09 2.180133334174866e-09 3.733152276344186e-09
134 1.7243900188239863e-09 3.130849391285454e-09 -9.339073988462793e-09
136 -5.271132247981184e-11 8.156395055340956e-09 -2.4325073326230314e-15
147 8.692796479804514e-10 8.945605050276537e-09 1.3755188012549108e-09
148 -6.662999212174449e-09 6.6630002027869914e-09 -1.350678675674588e-15
168 1.7243904044874147e-09 3.1308529836316375e-09 9.33908026443302e-09
174 8.692817952961799e-10 8.945606256476547e-09 -1.3755143066169201e-09
357 -8.945602783633175e-09 -8.692770802411125e-10 1.3755194220314684e-09
358 5.061405242891549e-09 -5.0614036129458136e-09 -3.643167442066051e-16
404 -8.94560613032612e-09 -8.692830627055437e-10 -1.375515319872865e-09
138 2.1201670251772185e-09 -1.393323731721343e-10 -2.471454860660466e-09
140 -3.4478133688847027e-09 3.447810645796801e-09 -2.2991502426328022e-15
149 -3.130846676581744e-09 -1.7243883675034786e-09 -9.339072856429057e-09
150 -9.535030723495e-09 -3.5523257330079257e-09 -3.2045492566067828e-15
170 2.120170366345254e-09 -1.3933560168959778e-10 2.4714532883460964e-09
175 -3.130852973029685e-09 -1.7243867340701813e-09 9.339078063521997e-09
359 -9.101914410558405e-09 -4.138252140003451e-09 -4.977072976634982e-09
360 -8.156395918130865e-09 5.270860473580944e-11 -2.619725009327759e-15
405 -9.101913889100104e-09 -4.13824728494355e-09 4.977075849224574e-09
176 -2.2488675571840954e-09 2.2488669924332216e-09 1.4883943119671837e-08
177 2.2488693404186856e-09 -2.2488686595718097e-09 1.4883946742616104e-08
179 -6.87731480911539e-09 -1.545596515022788e-09 7.380915095853304e-09
186 -1.5455968513615578e-09 -6.877314155288923e-09 7.3809134098093245e-09
201 2.1832778256963492e-09 2.183279654470532e-09 1.0282704067681367e-09
202 -2.1832821351799416e-09 -2.183279286558557e-09 1.0282694558295298e-09
203 -1.4332206384100144e-09 1.4332201548514412e-09 8.634815501618324e-09
204 1.4332197923323125e-09 -1.4332192158969374e-09 8.634813986977452e-09
205 1.9298239017417597e-09 4.643888475203678e-09 7.474529204061252e-10
208 5.454112205295712e-09 -5.222360813557565e-09 3.955504493377127e-09
221 4.643890560128709e-09 1.9298209554218444e-09 7.474562036171525e-10
223 -5.2223624608147125e-09 5.454110704165044e-09 3.955502436284709e-09
225 -7.56705670030366e-09 -7.567057383693647e-09 1.4235028288156293e-10
178 1.1815931258695358e-09 -3.6139402918490616e-09 -3.7264842606772087e-10
181 -1.2102183900826062e-09 -3.740327851148412e-09 -7.340943309459961e-09
188 5.098011906692757e-09 -4.291967524526593e-09 -9.479144945774286e-09
206 -5.525884125499342e-11 -1.4206391801563423e-09 -3.159127287556102e-10
207 -9.45681203183852e-10 3.823570219715436e-09 8.096465836478675e-09
209 7.092533261341365e-09 -1.7555924357949013e-09 -1.0012729924699058e-09
212 -7.408379157954161e-10 1.2146832979729271e-09 2.551571200415747e-10
227 -4.3533106242205334e-10 -5.917560101054002e-09 1.946869325108683e-09
229 1.6993531765041309e-09 -2.0392858024081136e-09 -5.492649103315538e-09
180 -9.859422660016562e-10 -1.581125226383165e-10 -3.894410225264054e-09
190 -2.045232434810769e-09 -2.0964563191040608e-10 -9.995666482408724e-09
210 2.026986206928573e-09 -4.109122704870185e-09 -5.4206544986695305e-09
211 1.990570144572342e-09 -1.993100240451067e-09 -6.381173884039481e-09
231 -1.163245004133242e-09 -2.3920632718062403e-09 -1.5542018578493191e-09
182 1.210223131223598e-09 3.740323402260673e-09 -7.340944966225847e-09
183 9.859376853903045e-10 1.581143298411134e-10 -3.89440944045508e-09
192 -4.714662199596717e-09 -4.485159559951997e-09 -7.243450279396116e-09
213 -2.026986192597534e-09 4.1091246990249946e-09 -5.420649367675648e-09
214 -7.0925363817069765e-09 1.755596429282282e-09 -1.0012718893413774e-09
215 7.408369654677175e-10 -1.2146833673777385e-09 2.551572215359187e-10
216 -1.990570439462916e-09 1.9930974865040993e-09 -6.3811767513860274e-09
233 -4.4511604642986675e-09 -7.091140107913491e-09 1.546994822553493e-09
235 -8.733169156120673e-09 4.554761484760733e-10 -8.355799573383402e-10
184 6.877314982192059e-09 1.5455996963877116e-09 7.380915935459122e-09
185 -1.1815891783807674e-09 3.6139393217358893e-09 -3.7264917796674716e-10
194 -2.567295052073994e-09 2.5672941057792274e-09 5.29678641226109e-09
217 5.526098867115543e-11 1.4206378828771464e-09 -3.1591314340558874e-10
218 -1.929821775134519e-09 -4.643891055072181e-09 7.474518024551686e-10
219 -5.454110463284565e-09 5.222357468237225e-09 3.955497658522274e-09
220 9.456804150418e-10 -3.823571204209532e-09 8.096471594840372e-09
237 -1.6243898426009846e-09 2.499071283806145e-09 4.182408762999665e-09
239 -1.4364705462996854e-09 1.4364727139735463e-09 1.2700649525442e-08
187 -3.613937918996583e-09 1.1815925028459588e-09 -3.726526420753068e-10
189 -4.291969376070573e-09 5.0980100756629595e-09 -9.4791437114011e-09
196 -3.74032906393968e-09 -1.2102196119254406e-09 -7.3409445131133495e-09
222 -1.4206368216847877e-09 -5.525824512894079e-11 -3.1591361917449484e-10
224 3.823569390415478e-09 -9.456814456746947e-10 8.096469192027634e-09
228 -5.917558527915725e-09 -4.353312251926418e-10 1.9468679263262374e-09
241 -1.7555964193108806e-09 7.09253545446038e-09 -1.001273429889681e-09
242 1.2146828425769968e-09 -7.408401522210486e-10 2.551584011422311e-10
243 -2.039283237987869e-09 1.699351077806917e-09 -5.492648201293303e-09
426 -1.5811542039452536e-10 -9.859440340969532e-10 -3.894409872931413e-09
427 -2.096472768924467e-10 -2.0452313733029124e-09 -9.995666143681084e-09
451 -4.109120116303844e-09 2.02699053024611e-09 -5.420653480020739e-09
452 -1.993100594281721e-09 1.9905707533437303e-09 -6.381174145292936e-09
454 -2.3920606595385264e-09 -1.1632450426219979e-09 -1.5542057526150544e-09
191 -1.109840927593611e-12 -5.114420812838929e-09 -1.1369947564923257e-08
197 -5.114420174554345e-09 -1.1103421627194809e-12 -1.1369946615782267e-08
226 2.6782980004034556e-09 2.6783017367455146e-09 -2.58676952388568e-09
232 -2.0949336437146324e-09 1.0117757761447877e-09 -4.301452674751e-09
244 1.0117736748467055e-09 -2.094933143603016e-09 -4.301453773580934e-09
245 -9.188972441165739e-10 -9.188973100683486e-10 2.0003893796154012e-09
198 -3.6172456010504693e-09 5.354662780805273e-09 -3.893492254925584e-09
230 -1.5797437642841882e-09 -2.848209123519715e-10 -5.001359950616878e-10
246 -5.398952634267243e-09 -5.707914476483859e-09 -2.4189049853745584e-10
428 5.354664116622031e-09 -3.617245204941912e-09 -3.893491418158969e-09
453 -2.848209420091165e-10 -1.5797431548617068e-09 -5.001354501583147e-10
456 -5.707917005548365e-09 -5.398955574974301e-09 -2.4189269342599864e-10
455 -5.091080360494502e-09 -5.091080804595649e-09 3.153080025077685e-10
193 1.974098248752293e-09 2.2739209106736646e-09 -4.770296701978835e-09
199 -5.671607406179385e-10 5.671576379335609e-10 3.631353476954567e-09
234 -8.16954150544277e-09 5.324181247599824e-09 9.991151430729098e-09
236 -4.393841446081012e-09 2.395301348934148e-10 7.231793987878846e-09
247 3.722466485506746e-10 -1.4015645938522465e-09 2.0856409076895154e-09
248 -2.8264516992665774e-09 2.826453914118684e-09 4.710476429467944e-09
429 -2.451588172826798e-09 2.451588177119563e-09 3.9505419082870547e-10
457 1.4015648810236657e-09 -3.7224576785567835e-10 2.0856414921731988e-09
458 1.18632452541254e-09 -1.1863275453218652e-09 -2.438056790350284e-09
195 -2.026324970592051e-09 2.026320523890474e-09 -2.3265291292188994e-09
200 4.4851656117557014e-09 4.714664911291002e-09 -7.2434529727671855e-09
238 -2.499070105823637e-09 1.6243898219284062e-09 4.182414674757885e-09
240 -4.006748966920204e-09 4.006750060769244e-09 -1.4446646380701407e-09
249 -5.324180425182533e-09 8.169539020978965e-09 9.99115337427916e-09
250 -4.5547675314899187e-10 8.733169138517944e-09 -8.355811394975834e-10
430 -2.2739226610207593e-09 -1.974095446739006e-09 -4.770297741927498e-09
459 7.091143030171573e-09 4.451159320033913e-09 1.5469984905270928e-09
460 -2.395321360381964e-10 4.393841234709217e-09 7.231793964509844e-09
251 2.6818007404370053e-09 8.741849521387095e-10 -1.4021401010583156e-16
262 -3.3904514674145868e-09 -5.92492198919389e-09 -3.644665454994532e-16
263 1.993097956280954e-09 -1.9905707143953943e-09 6.381177913095053e-09
264 -1.214684290256691e-09 7.408382527406553e-10 -2.5515629283883557e-10
265 -2.011291527027115e-09 -6.080513978535395e-09 6.210902040194712e-17
268 4.554756703852472e-10 -8.733170485081764e-09 8.355798342789188e-10
311 4.109121875570227e-09 -2.026987400897103e-09 5.42065255784398e-09
312 1.7555974739119823e-09 -7.0925329908283176e-09 1.001271190734856e-09
313 1.5811533650580134e-10 9.859418949344913e-10 3.894410476930226e-09
314 3.740328294560239e-09 1.210218658590013e-09 7.340944533186723e-09
315 -7.0911421643201006e-09 -4.4511620674610134e-09 -1.5469969194111335e-09
318 -4.485164969098793e-09 -4.714663851431641e-09 7.2434543846443705e-09
266 2.281193603411528e-09 -8.714218048582241e-09 -5.214711739528772e-16
267 2.3953036187828775e-10 -4.393835835863554e-09 -7.231792620499667e-09
269 -8.61553226689136e-09 1.7466774660485657e-10 -4.482054682015471e-16
272 2.8264518169977212e-09 -2.8264591535687027e-09 -4.710472121182762e-09
316 5.324185638638517e-09 -8.169542257885301e-09 -9.991157462056839e-09
317 2.2739187021532044e-09 1.9740940636037737e-09 4.7702999952104575e-09
319 -1.4015617733788757e-09 3.7225310884476714e-10 -2.0856413528989577e-09
322 5.67162471498147e-10 -5.671613374262892e-10 -3.631357632442431e-09
270 -1.7466287577251768e-10 8.615528260544728e-09 -1.0820346337261096e-15
271 -1.1863253537968297e-09 1.1863308411001093e-09 2.438060193236452e-09
320 -3.722508750949309e-10 1.4015615612748741e-09 -2.085640463978086e-09
321 2.4515888046348384e-09 -2.451588690170266e-09 -3.950588408902187e-10
273 3.09764328862159e-09 3.097646389817317e-09 -9.467441708000593e-16
274 1.0443139404457208e-08 1.0443143731498162e-08 -9.090597830679564e-16
275 5.707919073995547e-09 5.398955290019473e-09 2.418906311786151e-10
276 5.398952983729384e-09 5.707916075762462e-09 2.418890880084824e-10
323 5.0910736239900495e-09 5.091078271156184e-09 -3.1530457265736743e-10
324 9.188994389076874e-10 9.188996625478515e-10 -2.000389700190168e-09
325 -5.35466225716081e-09 3.6172448320701093e-09 3.8934967504553605e-09
326 3.617245691940685e-09 -5.354662092318531e-09 3.8934936199149646e-09
261 -2.6818020730693065e-09 -8.741908003811823e-10 -7.160501798139689e-16
277 6.079716962816564e-09 3.833409582680473e-09 -5.392846542531983e-16
278 7.237045486715088e-09 2.5401315857390647e-09 1.325441839120083e-15
279 2.3920614241945446e-09 1.1632456900959547e-09 1.5542042696161947e-09
280 -1.0117766294943073e-09 2.094930749179151e-09 4.301452100600096e-09
327 2.8482395308181117e-10 1.5797439284355832e-09 5.00135514722672e-10
328 2.039283677935541e-09 -1.6993514905083084e-09 5.492649721754962e-09
329 2.0964077827361716e-10 2.04523332899273e-09 9.995664203093109e-09
330 5.1144217146427114e-09 1.1063951982555188e-12 1.136994754305227e-08
281 1.0490226453142763e-10 1.156261776458645e-09 2.5705901852735787e-16
282 3.0855868392679277e-09 -1.4672907685519553e-09 6.466921812252936e-16
283 -3.823571686569695e-09 9.456804800555612e-10 -8.0964674150847e-09
284 5.222361013135019e-09 -5.454110103761462e-09 -3.9555015356793355e-09
285 1.355731502943011e-09 2.3930087100468193e-10 -4.51652068259654e-16
288 1.4364737660444105e-09 -1.4364735094886308e-09 -1.2700644710525334e-08
331 1.4206371812078907e-09 5.526018753384128e-11 3.1591427590336267e-10
332 -4.6438906607951785e-09 -1.929822156828213e-09 -7.474530943415182e-10
333 3.6139407879909438e-09 -1.1815906895762095e-09 3.7265167196213434e-10
334 1.5455979682799972e-09 6.877313908416392e-09 -7.380915188250273e-09
335 2.4990701381900787e-09 -1.6243893470746193e-09 -4.1824122084247184e-09
338 2.5672935817649424e-09 -2.5672905074012017e-09 -5.296786543147629e-09
341 -1.974093825925418e-09 -2.273921578497191e-09 4.7702976841276056e-09
340 4.451162249757946e-09 7.091140818952349e-09 -1.5469998762850181e-09
291 4.393843133485357e-09 -2.395283889086571e-10 -7.231791547656422e-09
286 -2.392961015562196e-10 -1.3557342802589802e-09 8.724427295473964e-16
287 4.006749152718408e-09 -4.006745196421663e-09 1.4446672748373878e-09
289 8.714214061213597e-09 -2.2811886284965487e-09 -3.843207758341796e-15
292 8.733168549952174e-09 -4.554742601558763e-10 8.355764941594921e-10
336 1.6243872304564228e-09 -2.499070870114514e-09 -4.1824113717423666e-09
337 2.02632232309834e-09 -2.0263178449752287e-09 2.3265283983506798e-09
339 8.169539515682041e-09 -5.324182349426953e-09 -9.991153618907012e-09
342 4.714658935193126e-09 4.4851596002298194e-09 7.2434541849592475e-09
290 6.08051311419949e-09 2.0112927302310993e-09 -3.33637439431312e-15
346 2.0452319705946062e-09 2.0964084538459636e-10 9.995667302182255e-09
345 1.1059342643587156e-12 5.114418112449434e-09 1.1369947149138067e-08
344 -1.69935128062498e-09 2.0392846335999105e-09 5.492648086495961e-09
343 1.5797443472714582e-09 2.8482379659563565e-10 5.00137142931649e-10
296 1.1632446247508526e-09 2.3920623259983276e-09 1.554206488323143e-09
295 2.0949315429481145e-09 -1.01177660204088e-09 4.301452829164862e-09
294 2.5401304199526346e-09 7.237045754236628e-09 -4.651306736481828e-16
293 3.8334112274563594e-09 6.079712454659007e-09 -1.2866409636272215e-15
13 -8.741861599707344e-10 -2.6818011431028807e-09 -1.4644574388831296e-15
350 -5.098012916047084e-09 4.291972566931736e-09 9.479144814313118e-09
349 4.29197181193322e-09 -5.0980136371905075e-09 9.479141742637608e-09
348 7.567058111459927e-09 7.567056292422828e-09 -1.423525374102209e-10
347 -2.6782974444094884e-09 -2.6782977324773747e-09 2.5867689819601932e-09
300 4.353293052652497e-10 5.9175606032628364e-09 -1.9468684126549645e-09
299 5.9175615254395944e-09 4.3532998236709344e-10 -1.9468693164061643e-09
298 -7.88967784766103e-09 -7.889680913194686e-09 -9.347600673722105e-16
297 1.8477346435784768e-09 1.8477352060823314e-09 -1.632834092044406e-15
361 -1.0683503844183873e-09 3.7067366105730897e-09 -2.6571578237646786e-09
362 2.485411492385663e-10 6.037139948464438e-09 -3.2998462232924535e-09
363 1.5280612462427163e-09 6.82150586459832e-10 -1.2607276806096993e-15
364 -1.8737735590980604e-09 8.263644436423449e-09 -2.7994865607454916e-15
365 9.1019181250968e-09 4.138250187299126e-09 -4.977079334074286e-09
368 9.535030178171482e-09 3.552329894712543e-09 -1.0913937035613154e-15
406 -1.0683529993497552e-09 3.706732020661477e-09 2.6571620996927816e-09
407 2.4854487869155307e-10 6.037137589393678e-09 3.2998511457629364e-09
408 9.101912623045114e-09 4.138244960669992e-09 4.977076867689625e-09
366 3.130850182531202e-09 1.7243843156781095e-09 -9.339073656068359e-09
367 8.156395119942763e-09 -5.2708680235661035e-11 -1.9162581381130313e-15
369 8.945602953058437e-09 8.692835161540571e-10 1.3755176286103903e-09
372 6.662998578164322e-09 -6.662999193187135e-09 -2.2800517481172684e-15
409 3.1308498068421404e-09 1.724390005730417e-09 9.339074821222813e-09
410 8.945605743877003e-09 8.69282358489666e-10 -1.3755143896068364e-09
370 -8.692828237724816e-10 -8.945604489420496e-09 1.375516277402729e-09
371 -5.0614033197056865e-09 5.061403833453317e-09 -3.1727913825229834e-16
411 -8.692782661674778e-10 -8.945606263067803e-09 -1.3755150484329224e-09
373 -2.180133456148228e-09 -2.1801331586077504e-09 -3.733152064824761e-09
374 -6.124399569610239e-09 -6.1244000104754435e-09 6.932263260065189e-10
375 -4.495503152814175e-09 -4.055127658821932e-09 -1.7653052478261507e-15
376 -4.0551243576486104e-09 -4.495505117195979e-09 -2.5171298488884093e-16
412 -2.180134454625046e-09 -2.1801332113378054e-09 3.7331511381539634e-09
413 -6.124398318749256e-09 -6.1243976040674755e-09 -6.932290074496609e-10
377 -5.696204955829775e-09 2.758884318264676e-09 8.399189957547057e-10
378 1.430804314794526e-10 4.190129592938471e-09 -2.264611955887273e-09
379 -9.099112628442647e-09 3.2280842165521777e-09 -9.946805845114546e-16
380 -4.17830787650889e-09 -5.034975814468406e-09 -5.572608093949716e-17
414 -5.6962035578841104e-09 2.758884441850743e-09 -8.399171022663642e-10
415 1.4308026160478651e-10 4.190129876062915e-09 2.264611382447924e-09
381 5.594737143595114e-09 2.2389378638896696e-10 3.8798144501443805e-09
382 3.2889552336802364e-09 1.3186306892165969e-09 2.587112274392551e-09
383 1.199887119882092e-09 5.11249248401224e-09 -2.3890193151156648e-15
384 5.039125912481496e-09 3.2801076481506548e-09 -3.792968734914161e-16
385 -2.1201705428299024e-09 1.3933288751896145e-10 -2.471450689038535e-09
388 -4.85909764534832e-09 4.85909139962333e-09 6.54334387805748e-16
416 5.594735489788841e-09 2.2389437428414075e-10 -3.879812704060511e-09
417 3.288954457110334e-09 1.3186349624482768e-09 -2.587112598562549e-09
418 -2.1201681545291654e-09 1.3933178940023906e-10 2.4714502357170015e-09
421 -4.138246712702611e-09 -9.101914878537643e-09 4.977076594336204e-09
391 5.271175734322323e-11 -8.156394499297282e-09 -1.46206061819756e-15
390 -4.138245510697038e-09 -9.101915432353023e-09 -4.977074329939862e-09
386 -1.3933211300473897e-10 2.1201692483782056e-09 -2.4714547971447178e-09
387 3.4478107122350436e-09 -3.447812211342025e-09 8.700494198296278e-16
389 -1.7243868244189638e-09 -3.1308508398873626e-09 -9.33907653050589e-09
392 -3.5523301521460646e-09 -9.535029827084064e-09 4.506022888871168e-16
419 -1.393291899142642e-10 2.1201688502063693e-09 2.471451559039972e-09
420 -1.7243883343793951e-09 -3.1308465010427165e-09 9.339075089904306e-09
423 4.190130292810111e-09 1.430803778505898e-10 2.264617222301524e-09
422 2.758884408737603e-09 -5.696203097488562e-09 -8.399165203058963e-10
396 3.2280828353795764e-09 -9.099112685966344e-09 -2.0612657895900026e-15
395 -5.034975072618436e-09 -4.178308541181908e-09 3.833646807858026e-15
394 4.190130517811654e-09 1.430817952704227e-10 -2.2646133026008956e-09
393 2.7588799112683265e-09 -5.696202628563702e-09 8.39918047737224e-10
425 4.955460539218165e-09 4.955460256692927e-09 -5.099858045535327e-09
424 2.112127676644262e-09 2.1121284478213177e-09 5.506765194681825e-10
400 9.463608418749695e-10 4.99341962297381e-09 -1.5851972809187067e-15
399 4.993423441109162e-09 9.463570938466224e-10 -1.126505722217792e-15
398 4.955458681981736e-09 4.955459533152682e-09 5.099858946739905e-09
397 2.112132051141616e-09 2.112132466091197e-09 -5.506753698930612e-10
431 1.5811575355260064e-10 9.859393710823093e-10 -3.894413697658022e-09
432 3.740327104538769e-09 1.210219039684502e-09 -7.340943874061034e-09
434 -4.485165407501639e-09 -4.714662746835528e-09 -7.243456354569992e-09
461 4.109123280107149e-09 -2.026985544559482e-09 -5.42064905968419e-09
462 1.7555943724260152e-09 -7.092535913151939e-09 -1.0012688366824395e-09
463 1.9930973858376307e-09 -1.9905696897545513e-09 -6.381179061921168e-09
464 -1.2146803232188536e-09 7.408380250426902e-10 2.5515310746414444e-10
465 -7.091141598136752e-09 -4.451162698448635e-09 1.546999772352179e-09
468 4.554738271224703e-10 -8.733170522351859e-09 -8.355794018201411e-10
433 2.2739224035114267e-09 1.974095295569606e-09 -4.770295592250858e-09
436 5.671594563714549e-10 -5.671611744424825e-10 3.6313619967532966e-09
466 5.324187262463831e-09 -8.169541649092848e-09 9.991153863530182e-09
467 2.395318572018149e-10 -4.393841419997148e-09 7.231793518101992e-09
469 -1.4015668913434105e-09 3.7224833198114077e-10 2.0856409753996996e-09
472 2.826451322780435e-09 -2.8264516994563707e-09 4.710472301992923e-09
435 2.4515881326215574e-09 -2.451587175379593e-09 3.9505516416728705e-10
470 -3.722505653218761e-10 1.4015651085694888e-09 2.085636544876662e-09
471 -1.186324849387789e-09 1.1863257838084626e-09 -2.438056439515656e-09
437 -5.354661704087415e-09 3.6172448461280243e-09 -3.8934915529775185e-09
438 3.6172434881032338e-09 -5.354662154635869e-09 -3.893493190584459e-09
473 5.0910807752896005e-09 5.091079733216803e-09 3.153040357695339e-10
474 9.189013933730549e-10 9.188935889829156e-10 2.000389922446133e-09
475 5.7079181305189165e-09 5.3989546977929346e-09 -2.418923613808382e-10
476 5.398954304647487e-09 5.7079159942705586e-09 -2.418888409861505e-10
439 2.0964638204038002e-10 2.0452347958469895e-09 -9.995667150583347e-09
440 5.114418388754408e-09 1.110491964012329e-12 -1.136994705791825e-08
477 2.848173970282297e-10 1.579743407127084e-09 -5.001361817878289e-10
478 2.0392848946216414e-09 -1.6993520363842195e-09 -5.492650469862618e-09
479 2.3920618580190887e-09 1.1632437918139717e-09 -1.5542021902244485e-09
480 -1.0117775354925266e-09 2.0949351862934455e-09 -4.3014537352318025e-09
441 3.6139399299291383e-09 -1.181590187442276e-09 -3.7265281479619746e-10
442 1.5455982139541175e-09 6.87731344583e-09 7.380915432126778e-09
444 2.5672927714710244e-09 -2.5672956410376725e-09 5.296790040600544e-09
481 1.4206384179673643e-09 5.5259422273936764e-11 -3.1591224759385753e-10
482 -4.643888652259444e-09 -1.9298225163513157e-09 7.474525727334165e-10
483 -3.8235705744448965e-09 9.456798985269422e-10 8.096467014665843e-09
484 5.222358267427122e-09 -5.454109756222463e-09 3.955502768543976e-09
485 2.4990712939445033e-09 -1.6243836093308978e-09 4.182411286335478e-09
488 1.436472745925694e-09 -1.4364727020655138e-09 1.2700642933493452e-08
491 4.393838433806458e-09 -2.3952705335523067e-10 7.231797297928004e-09
490 4.451163416322178e-09 7.0911378794039205e-09 1.5469987062409546e-09
445 -1.9740928117566215e-09 -2.273921862454904e-09 -4.770295495314207e-09
443 2.0263232117575827e-09 -2.0263195621006357e-09 -2.32652714729279e-09
446 4.714659971648372e-09 4.485164831134727e-09 -7.243457522665469e-09
486 1.6243830110089907e-09 -2.49906966241181e-09 4.182410084846273e-09
487 4.0067518643791505e-09 -4.006749467219072e-09 -1.4446642636043589e-09
489 8.169539829577964e-09 -5.324187622263935e-09 9.991153562215606e-09
492 8.73317277388343e-09 -4.554779166556334e-10 -8.355749562994198e-10
496 1.1632447287670774e-09 2.392063450107229e-09 -1.5542034356723973e-09
495 2.0949358293365607e-09 -1.011776814092802e-09 -4.30144768008283e-09
494 -1.6993509123946908e-09 2.039285212815457e-09 -5.492651134715866e-09
493 1.579739031069392e-09 2.8482398342593555e-10 -5.001390205644601e-10
448 2.0452331229407406e-09 2.096414032446109e-10 -9.995666750314292e-09
447 1.1091925946201e-12 5.114423213383581e-09 -1.1369948644114437e-08
500 4.3533411688277605e-10 5.917560421703669e-09 1.9468674742996662e-09
499 5.917560837552058e-09 4.3533399704174174e-10 1.9468693605975457e-09
498 7.567058849381094e-09 7.567062054529557e-09 1.423574365117022e-10
497 -2.6783015218508785e-09 -2.6783023526488487e-09 -2.586769055662429e-09
450 -5.098019895888523e-09 4.291969460652127e-09 -9.479145075491732e-09
449 4.291972344027413e-09 -5.098014130935569e-09 -9.479145255777528e-09
