#Generated by cif2cell 2.1.0.  :  Failed to get author information, No journal information.

500 atoms
3 atom types

0.0 17.245000 xlo xhi
0.0 17.245000 ylo yhi
0.0 17.245000 zlo zhi
1.0559517025648053e-15 1.0559517025648053e-15 1.0559517025648053e-15 xy xz yz

Atoms

1 1  12.071500000000000  10.347000000000000   8.622500000000000 
2 1  13.796000000000001   3.449000000000000   0.000000000000000 
3 1  15.520500000000002   5.173500000000000   0.000000000000000 
4 1  13.796000000000003  12.071500000000002  15.520500000000002 
5 1  15.520500000000002  13.796000000000001   5.173500000000000 
6 1  15.520500000000002  13.796000000000001   8.622500000000000 
7 1  15.520500000000004  15.520500000000002   6.898000000000001 
8 1  10.347000000000000  10.347000000000000   6.898000000000001 
9 1  13.796000000000005  15.520500000000004  15.520500000000002 
10 1  12.071500000000000  10.347000000000000   5.173500000000000 
11 1  10.347000000000000  12.071500000000000   5.173500000000000 
12 1  13.796000000000001   0.000000000000000   6.898000000000001 
13 1   0.000000000000000   0.000000000000000   0.000000000000000 
14 1  15.520500000000004  15.520500000000002  13.796000000000001 
15 1  15.520500000000004   3.449000000000001  15.520500000000002 
16 1  15.520500000000002   6.898000000000001   8.622500000000000 
17 1  10.347000000000000  13.796000000000001  10.347000000000000 
18 1  12.071500000000002  15.520500000000002   6.898000000000001 
19 1  15.520500000000002   8.622500000000000  10.347000000000000 
20 1  13.796000000000001   6.898000000000001  13.796000000000001 
21 1  15.520500000000002   6.898000000000001   5.173500000000000 
22 1  13.796000000000001   6.898000000000001   3.449000000000000 
23 1  10.347000000000001  15.520500000000002   8.622500000000000 
24 1  13.796000000000001  10.347000000000000   0.000000000000000 
25 1  10.347000000000003  15.520500000000004  15.520500000000002 
26 1  15.520500000000002   8.622500000000000   0.000000000000000 
27 1  15.520500000000002  12.071500000000000   0.000000000000000 
28 1  12.071500000000000  13.796000000000001   5.173500000000000 
29 1  10.347000000000001  15.520500000000002   5.173500000000000 
30 1  15.520500000000002  10.347000000000000   8.622500000000000 
31 1  15.520500000000004  15.520500000000002   0.000000000000000 
32 1  12.071500000000000  13.796000000000001   1.724500000000000 
33 1  13.796000000000001  10.347000000000000  10.347000000000000 
34 1  10.347000000000000  13.796000000000001   0.000000000000000 
35 1  12.071500000000000  12.071500000000000  13.796000000000001 
36 1  13.796000000000001  12.071500000000000  12.071500000000000 
37 1  13.796000000000001   3.449000000000001  13.796000000000001 
38 1  15.520500000000002   5.173500000000001  10.347000000000000 
39 1  12.071500000000002  10.347000000000001  15.520500000000002 
40 1  13.796000000000001   1.724500000000000   1.724500000000000 
41 1  13.796000000000001   6.898000000000001  10.347000000000000 
42 1  15.520500000000002   0.000000000000000   1.724500000000000 
43 1  13.796000000000001   5.173500000000001   8.622500000000000 
44 1  15.520500000000002   5.173500000000000   3.449000000000000 
45 1  15.520500000000002   1.724500000000000   0.000000000000000 
46 1   0.000000000000002  13.796000000000001  13.796000000000001 
47 1   5.173500000000001   1.724500000000001  10.347000000000000 
48 1   5.173500000000000   1.724500000000001   6.898000000000001 
49 1   3.449000000000001   1.724500000000001   8.622500000000000 
50 1   5.173500000000000   1.724500000000000   3.449000000000000 
51 1   5.173500000000000   0.000000000000000   5.173500000000000 
52 1   3.449000000000000   0.000000000000000   3.449000000000000 
53 1   3.449000000000000   0.000000000000000   0.000000000000000 
54 1   0.000000000000002  15.520500000000004  15.520500000000002 
55 1   3.449000000000001   1.724500000000001  15.520500000000002 
56 1   1.724500000000002  15.520500000000002  10.347000000000000 
57 1   1.724500000000002  13.796000000000001  12.071500000000000 
58 1   0.000000000000001  13.796000000000001  10.347000000000000 
59 1   0.000000000000001  15.520500000000002   8.622500000000000 
60 1   0.000000000000001  13.796000000000001   6.898000000000001 
61 1   1.724500000000001  13.796000000000001   5.173500000000000 
62 1   0.000000000000001  13.796000000000001   3.449000000000000 
63 1   1.724500000000001  15.520500000000002   0.000000000000000 
64 1   5.173500000000000   5.173500000000000   6.898000000000001 
65 1   5.173500000000001   6.898000000000001   8.622500000000000 
66 1   3.449000000000001   8.622500000000000   5.173500000000000 
67 1   5.173500000000000   6.898000000000001   1.724500000000000 
68 1   3.449000000000001   8.622500000000000   1.724500000000000 
69 1   3.449000000000001   6.898000000000001   0.000000000000000 
70 1   5.173500000000001   3.449000000000001  15.520500000000002 
71 1   3.449000000000001   3.449000000000001  13.796000000000001 
72 1   3.449000000000002   5.173500000000001  12.071500000000000 
73 1   1.724500000000001  13.796000000000001   1.724500000000000 
74 1   3.449000000000001   3.449000000000001   6.898000000000001 
75 1   3.449000000000000   3.449000000000000   3.449000000000000 
76 1   5.173500000000000   3.449000000000000   1.724500000000000 
77 1   3.449000000000001   5.173500000000000   1.724500000000000 
78 1   3.449000000000000   3.449000000000000   0.000000000000000 
79 1   5.173500000000001   1.724500000000001  13.796000000000001 
80 1   5.173500000000001   0.000000000000001  15.520500000000002 
81 1   0.000000000000000   3.449000000000000   0.000000000000000 
82 1   1.724500000000001   6.898000000000001   1.724500000000000 
83 1   1.724500000000001   3.449000000000001  15.520500000000002 
84 1   1.724500000000001   5.173500000000001  10.347000000000000 
85 1   1.724500000000001   3.449000000000001  12.071500000000000 
86 1   0.000000000000001   3.449000000000001  10.347000000000000 
87 1   1.724500000000001   5.173500000000000   6.898000000000001 
88 1   0.000000000000001   5.173500000000001   8.622500000000000 
89 1   1.724500000000000   3.449000000000000   1.724500000000000 
90 1   0.000000000000001   6.898000000000001   3.449000000000000 
91 1   1.724500000000001   1.724500000000001  13.796000000000001 
92 1   0.000000000000001   1.724500000000001  15.520500000000002 
93 1   0.000000000000001   1.724500000000001  12.071500000000000 
94 1   1.724500000000001   1.724500000000001   6.898000000000001 
95 1   1.724500000000001   0.000000000000001   8.622500000000000 
96 1   0.000000000000000   1.724500000000000   5.173500000000000 
97 1   0.000000000000000   1.724500000000000   1.724500000000000 
98 1   0.000000000000001  10.347000000000000   3.449000000000000 
99 1   0.000000000000001  13.796000000000001   0.000000000000000 
100 1   0.000000000000001  10.347000000000000  13.796000000000001 
101 1   1.724500000000001  12.071500000000000  10.347000000000000 
102 1   1.724500000000001  10.347000000000000  12.071500000000000 
103 1   1.724500000000001  12.071500000000000   6.898000000000001 
104 1   1.724500000000001  10.347000000000000   8.622500000000000 
105 1   0.000000000000001  10.347000000000000   6.898000000000001 
106 1   0.000000000000001  12.071500000000000   5.173500000000000 
107 1   3.449000000000002   8.622500000000002  15.520500000000002 
108 1   1.724500000000001  12.071500000000000   0.000000000000000 
109 1   0.000000000000001  12.071500000000000   1.724500000000000 
110 1   0.000000000000001  10.347000000000000   0.000000000000000 
111 1   1.724500000000001   8.622500000000000  13.796000000000001 
112 1   1.724500000000001   6.898000000000001  15.520500000000002 
113 1   0.000000000000001   6.898000000000001  13.796000000000001 
114 1   1.724500000000001   6.898000000000001  12.071500000000000 
115 1   6.898000000000002  15.520500000000002   8.622500000000000 
116 1  10.347000000000000   0.000000000000000   6.898000000000001 
117 1  12.071500000000000   1.724500000000000   3.449000000000000 
118 1  12.071500000000000   1.724500000000000   0.000000000000000 
119 1  10.347000000000000   1.724500000000000   1.724500000000000 
120 1  10.347000000000000   0.000000000000000   0.000000000000000 
121 1   6.898000000000002  15.520500000000004  15.520500000000002 
122 1   6.898000000000002  13.796000000000001  13.796000000000001 
123 1   6.898000000000002  15.520500000000002  12.071500000000000 
124 1  12.071500000000000   0.000000000000001   8.622500000000000 
125 1   6.898000000000001  15.520500000000002   5.173500000000000 
126 1   6.898000000000001  15.520500000000002   1.724500000000000 
127 1   8.622500000000000  12.071500000000000  13.796000000000001 
128 1   8.622500000000002  10.347000000000001  15.520500000000002 
129 1   6.898000000000002  10.347000000000000  13.796000000000001 
130 1   8.622500000000000  12.071500000000000  10.347000000000000 
131 1   8.622500000000000  10.347000000000000   8.622500000000000 
132 1  10.347000000000000   3.449000000000001  10.347000000000000 
133 1  10.347000000000000  10.347000000000000   0.000000000000000 
134 1  10.347000000000001   8.622500000000002  15.520500000000002 
135 1  10.347000000000000   6.898000000000001  13.796000000000001 
136 1  10.347000000000000   8.622500000000000  12.071500000000000 
137 1  10.347000000000000   6.898000000000001  10.347000000000000 
138 1  10.347000000000001   5.173500000000001  15.520500000000002 
139 1  12.071500000000000   3.449000000000001  12.071500000000000 
140 1  10.347000000000000   5.173500000000001  12.071500000000000 
141 1   6.898000000000002  12.071500000000000   8.622500000000000 
142 1  12.071500000000000   3.449000000000001   8.622500000000000 
143 1  10.347000000000000   5.173500000000000   5.173500000000000 
144 1  10.347000000000000   5.173500000000000   1.724500000000000 
145 1  12.071500000000000   1.724500000000001  13.796000000000001 
146 1  10.347000000000000   0.000000000000001  13.796000000000001 
147 1  12.071500000000000   1.724500000000001  10.347000000000000 
148 1  12.071500000000000   1.724500000000001   6.898000000000001 
149 1   5.173500000000002  10.347000000000001  15.520500000000002 
150 1   5.173500000000002  15.520500000000002  10.347000000000000 
151 1   5.173500000000002  13.796000000000001  12.071500000000000 
152 1   3.449000000000002  13.796000000000001  10.347000000000000 
153 1   3.449000000000002  15.520500000000002   8.622500000000000 
154 1   3.449000000000002  13.796000000000001   6.898000000000001 
155 1   5.173500000000001  13.796000000000001   1.724500000000000 
156 1   3.449000000000001  15.520500000000002   1.724500000000000 
157 1   5.173500000000002  12.071500000000000  13.796000000000001 
158 1   5.173500000000002  15.520500000000002  13.796000000000001 
159 1   3.449000000000002  12.071500000000002  15.520500000000002 
160 1   3.449000000000001  10.347000000000000  10.347000000000000 
161 1   5.173500000000001  12.071500000000000   6.898000000000001 
162 1   3.449000000000001  10.347000000000000   6.898000000000001 
163 1   5.173500000000001  12.071500000000000   3.449000000000000 
164 1   3.449000000000002  12.071500000000000   5.173500000000000 
165 1   3.449000000000001  12.071500000000000   1.724500000000000 
166 1   8.622500000000000   5.173500000000000   3.449000000000000 
167 1   6.898000000000001  10.347000000000000   6.898000000000001 
168 1   8.622500000000000  10.347000000000000   1.724500000000000 
169 1   6.898000000000001  12.071500000000000   1.724500000000000 
170 1   6.898000000000001   6.898000000000001  10.347000000000000 
171 1   8.622500000000000   8.622500000000000   3.449000000000000 
172 1   6.898000000000001   6.898000000000001   0.000000000000000 
173 1   8.622500000000002   3.449000000000001  15.520500000000002 
174 1   6.898000000000001   3.449000000000001   6.898000000000001 
175 1  10.347000000000000  12.071500000000000   1.724500000000000 
176 1   6.898000000000001   5.173500000000000   1.724500000000000 
177 1   6.898000000000001   0.000000000000001  13.796000000000001 
178 1   8.622500000000000   1.724500000000001   6.898000000000001 
179 1   8.622500000000000   0.000000000000001   8.622500000000000 
180 1   6.898000000000001   1.724500000000000   5.173500000000000 
181 1   6.898000000000001   0.000000000000000   3.449000000000000 
182 1   6.898000000000001   1.724500000000000   1.724500000000000 
183 2   6.898000000000001   5.173500000000001  12.071500000000000 
184 2  12.071500000000000   6.898000000000001   5.173500000000000 
185 2   6.898000000000001   3.449000000000001  10.347000000000000 
186 2   8.622500000000000  10.347000000000000  12.071500000000000 
187 2  12.071500000000000  13.796000000000001  12.071500000000000 
188 2   8.622500000000000   5.173500000000001  10.347000000000000 
189 2   6.898000000000001   5.173500000000001   8.622500000000000 
190 2  10.347000000000000  13.796000000000001   3.449000000000000 
191 2  12.071500000000000  10.347000000000000   1.724500000000000 
192 2  10.347000000000000   8.622500000000000   5.173500000000000 
193 2   8.622500000000000   5.173500000000000   6.898000000000001 
194 2   8.622500000000000   3.449000000000001   8.622500000000000 
195 2  10.347000000000000   8.622500000000000   8.622500000000000 
196 2  10.347000000000000   8.622500000000000   1.724500000000000 
197 2   8.622500000000002  15.520500000000002  13.796000000000001 
198 2  12.071500000000000   6.898000000000001   8.622500000000000 
199 2   6.898000000000001  13.796000000000001   0.000000000000000 
200 2   8.622500000000002  15.520500000000002  10.347000000000000 
201 2   6.898000000000001   5.173500000000000   5.173500000000000 
202 2  12.071500000000000   8.622500000000000  13.796000000000001 
203 2   6.898000000000001   3.449000000000000   3.449000000000000 
204 2   6.898000000000002  13.796000000000001  10.347000000000000 
205 2   8.622500000000000   3.449000000000000   1.724500000000000 
206 2   6.898000000000001   3.449000000000000   0.000000000000000 
207 2  12.071500000000000  12.071500000000000   0.000000000000000 
208 2  12.071500000000002  15.520500000000002  13.796000000000001 
209 2   8.622500000000000   8.622500000000000   6.898000000000001 
210 2   6.898000000000002   8.622500000000000  12.071500000000000 
211 2  10.347000000000000   1.724500000000001  12.071500000000000 
212 2  10.347000000000000   3.449000000000001   6.898000000000001 
213 2  10.347000000000001  12.071500000000002  15.520500000000002 
214 2  12.071500000000000   3.449000000000001   5.173500000000000 
215 2   8.622500000000000   6.898000000000001  12.071500000000000 
216 2  12.071500000000000  10.347000000000000  12.071500000000000 
217 2  10.347000000000001   1.724500000000001  15.520500000000002 
218 2  10.347000000000000  12.071500000000000  12.071500000000000 
219 2  13.796000000000001   0.000000000000000   0.000000000000000 
220 2  12.071500000000000   5.173500000000000   0.000000000000000 
221 2  12.071500000000002   0.000000000000001  15.520500000000002 
222 2   8.622500000000000   8.622500000000000  10.347000000000000 
223 2  10.347000000000000  10.347000000000000  13.796000000000001 
224 2   6.898000000000002   8.622500000000002  15.520500000000002 
225 2   8.622500000000002   6.898000000000001  15.520500000000002 
226 2  12.071500000000000  12.071500000000000  10.347000000000000 
227 2  10.347000000000000   1.724500000000000   5.173500000000000 
228 2  12.071500000000000   6.898000000000001   1.724500000000000 
229 2  13.796000000000001   0.000000000000000   3.449000000000000 
230 2  10.347000000000000   0.000000000000000   3.449000000000000 
231 2   8.622500000000000   6.898000000000001   1.724500000000000 
232 2  10.347000000000000   6.898000000000001   0.000000000000000 
233 2  12.071500000000000   5.173500000000001  13.796000000000001 
234 2   6.898000000000002  10.347000000000000  10.347000000000000 
235 2   8.622500000000000   8.622500000000000   0.000000000000000 
236 2  12.071500000000000   8.622500000000000   0.000000000000000 
237 2   6.898000000000001   6.898000000000001   3.449000000000000 
238 2  10.347000000000000  12.071500000000000   8.622500000000000 
239 2   8.622500000000000   6.898000000000001   5.173500000000000 
240 2  12.071500000000002  13.796000000000003  15.520500000000002 
241 2   8.622500000000000  10.347000000000000   5.173500000000000 
242 2   8.622500000000000   6.898000000000001   8.622500000000000 
243 2  10.347000000000000  10.347000000000000  10.347000000000000 
244 2   6.898000000000001  12.071500000000000   5.173500000000000 
245 2   0.000000000000001  15.520500000000002   1.724500000000000 
246 2  15.520500000000002  12.071500000000000  13.796000000000001 
247 2  15.520500000000004  10.347000000000001  15.520500000000002 
248 2   1.724500000000001  10.347000000000000   1.724500000000000 
249 2  13.796000000000001  10.347000000000000  13.796000000000001 
250 2  15.520500000000002  12.071500000000000  10.347000000000000 
251 2  15.520500000000002  10.347000000000000  12.071500000000000 
252 2   1.724500000000001  10.347000000000000   5.173500000000000 
253 2   1.724500000000001  12.071500000000000   3.449000000000000 
254 2   0.000000000000001  12.071500000000000   8.622500000000000 
255 2  15.520500000000002  12.071500000000000   6.898000000000001 
256 2   0.000000000000001  10.347000000000000  10.347000000000000 
257 2  13.796000000000001  12.071500000000000   8.622500000000000 
258 2  13.796000000000001  10.347000000000000   6.898000000000001 
259 2   0.000000000000002  12.071500000000002  15.520500000000002 
260 2   0.000000000000001   8.622500000000002  15.520500000000002 
261 2  15.520500000000002  10.347000000000000   5.173500000000000 
262 2  13.796000000000001  12.071500000000000   5.173500000000000 
263 2   0.000000000000001  15.520500000000002   5.173500000000000 
264 2  15.520500000000002  10.347000000000000   1.724500000000000 
265 2  13.796000000000001  12.071500000000000   1.724500000000000 
266 2   1.724500000000001  15.520500000000002   6.898000000000001 
267 2   0.000000000000002  15.520500000000002  12.071500000000000 
268 2  15.520500000000004   6.898000000000001  15.520500000000002 
269 2   1.724500000000002  13.796000000000003  15.520500000000002 
270 2   5.173500000000000   0.000000000000000   1.724500000000000 
271 2  15.520500000000002   6.898000000000001  12.071500000000000 
272 2   3.449000000000001   1.724500000000000   5.173500000000000 
273 2  13.796000000000001   8.622500000000000  12.071500000000000 
274 2   0.000000000000001   5.173500000000001  12.071500000000000 
275 2  15.520500000000004  13.796000000000003  15.520500000000002 
276 2   1.724500000000000   0.000000000000000   5.173500000000000 
277 2   0.000000000000000   0.000000000000000   6.898000000000001 
278 2   0.000000000000001   1.724500000000001   8.622500000000000 
279 2   0.000000000000001   0.000000000000001  10.347000000000000 
280 2   1.724500000000001   0.000000000000001  12.071500000000000 
281 2   1.724500000000001   1.724500000000001  10.347000000000000 
282 2  15.520500000000002  13.796000000000001  12.071500000000000 
283 2  13.796000000000003  15.520500000000002  12.071500000000000 
284 2   0.000000000000000   5.173500000000000   1.724500000000000 
285 2   0.000000000000000   3.449000000000000   3.449000000000000 
286 2   1.724500000000001   5.173500000000000   3.449000000000000 
287 2   0.000000000000001   3.449000000000001   6.898000000000001 
288 2  13.796000000000003  15.520500000000002   8.622500000000000 
289 2   6.898000000000001   1.724500000000001  15.520500000000002 
290 2  15.520500000000004  15.520500000000002   3.449000000000000 
291 2  13.796000000000003  15.520500000000002   5.173500000000000 
292 2   0.000000000000001   8.622500000000000   1.724500000000000 
293 2  13.796000000000001  13.796000000000001   3.449000000000000 
294 2   1.724500000000001   8.622500000000000   0.000000000000000 
295 2   0.000000000000001   8.622500000000000   5.173500000000000 
296 2   1.724500000000001   6.898000000000001   5.173500000000000 
297 2   0.000000000000001   8.622500000000000   8.622500000000000 
298 2   1.724500000000001   6.898000000000001   8.622500000000000 
299 2   1.724500000000001   8.622500000000000   6.898000000000001 
300 2   0.000000000000001   6.898000000000001  10.347000000000000 
301 2   0.000000000000001   8.622500000000000  12.071500000000000 
302 2  13.796000000000003  15.520500000000002   1.724500000000000 
303 2   5.173500000000002  13.796000000000001   8.622500000000000 
304 2  13.796000000000001   1.724500000000001  12.071500000000000 
305 2   3.449000000000001   3.449000000000001  10.347000000000000 
306 2  15.520500000000002   5.173500000000001  13.796000000000001 
307 2   5.173500000000001   5.173500000000001  10.347000000000000 
308 2  15.520500000000002   0.000000000000001  12.071500000000000 
309 2   5.173500000000002  13.796000000000003  15.520500000000002 
310 2  13.796000000000003   5.173500000000001  15.520500000000002 
311 2  15.520500000000002   1.724500000000001  10.347000000000000 
312 2   5.173500000000001   5.173500000000001  13.796000000000001 
313 2  13.796000000000001   0.000000000000001  13.796000000000001 
314 2  13.796000000000001   6.898000000000001   0.000000000000000 
315 2   3.449000000000001  10.347000000000000   3.449000000000000 
316 2  15.520500000000002   1.724500000000001  13.796000000000001 
317 2   5.173500000000001  13.796000000000001   5.173500000000000 
318 2   3.449000000000001  13.796000000000001   3.449000000000000 
319 2   3.449000000000001   6.898000000000001   6.898000000000001 
320 2   5.173500000000001   6.898000000000001  12.071500000000000 
321 2   5.173500000000001  12.071500000000000   0.000000000000000 
322 2   5.173500000000002   8.622500000000000  10.347000000000000 
323 2   5.173500000000001  15.520500000000002   0.000000000000000 
324 2   3.449000000000001  10.347000000000000   0.000000000000000 
325 2   3.449000000000001   5.173500000000001   8.622500000000000 
326 2   3.449000000000002  10.347000000000000  13.796000000000001 
327 2   3.449000000000001   0.000000000000001  10.347000000000000 
328 2   8.622500000000000   1.724500000000001  13.796000000000001 
329 2   3.449000000000001   1.724500000000001  12.071500000000000 
330 2   3.449000000000001   0.000000000000001  13.796000000000001 
331 2   5.173500000000002  12.071500000000000  10.347000000000000 
332 2  15.520500000000002   8.622500000000000   3.449000000000000 
333 2   8.622500000000000   0.000000000000001  12.071500000000000 
334 2  15.520500000000002   3.449000000000001   5.173500000000000 
335 2   6.898000000000001   1.724500000000001  12.071500000000000 
336 2  13.796000000000001   3.449000000000001   6.898000000000001 
337 2  13.796000000000001   1.724500000000001   8.622500000000000 
338 2  15.520500000000002   3.449000000000000   1.724500000000000 
339 2   5.173500000000000   5.173500000000000   0.000000000000000 
340 2   8.622500000000000   1.724500000000000   3.449000000000000 
341 2   3.449000000000001   5.173500000000000   5.173500000000000 
342 2   5.173500000000000   3.449000000000001   5.173500000000000 
343 2   8.622500000000000   0.000000000000000   1.724500000000000 
344 3   6.898000000000001   6.898000000000001  13.796000000000001 
345 3   8.622500000000000  12.071500000000000   3.449000000000000 
346 3  15.520500000000002   6.898000000000001   1.724500000000000 
347 3   5.173500000000000   5.173500000000000   3.449000000000000 
348 3  13.796000000000001   8.622500000000000   1.724500000000000 
349 3   6.898000000000001  10.347000000000000   3.449000000000000 
350 3   5.173500000000001   3.449000000000001   8.622500000000000 
351 3   8.622500000000000  12.071500000000000   0.000000000000000 
352 3   5.173500000000001   3.449000000000001  12.071500000000000 
353 3   6.898000000000001  10.347000000000000   0.000000000000000 
354 3   8.622500000000000   8.622500000000000  13.796000000000001 
355 3   3.449000000000002   5.173500000000001  15.520500000000002 
356 3  10.347000000000000  13.796000000000001  13.796000000000001 
357 3  15.520500000000002   3.449000000000001  12.071500000000000 
358 3   5.173500000000001   8.622500000000000   0.000000000000000 
359 3   3.449000000000001   6.898000000000001   3.449000000000000 
360 3  13.796000000000001   5.173500000000001  12.071500000000000 
361 3   5.173500000000000   6.898000000000001   5.173500000000000 
362 3   5.173500000000001   8.622500000000000   3.449000000000000 
363 3   3.449000000000001   8.622500000000000   8.622500000000000 
364 3  13.796000000000001   3.449000000000001  10.347000000000000 
365 3   5.173500000000001   8.622500000000000   6.898000000000001 
366 3   3.449000000000001   6.898000000000001  10.347000000000000 
367 3   3.449000000000002   8.622500000000000  12.071500000000000 
368 3  10.347000000000001  15.520500000000002  12.071500000000000 
369 3  15.520500000000002   8.622500000000000  13.796000000000001 
370 3   8.622500000000002  15.520500000000002   3.449000000000000 
371 3  13.796000000000003   8.622500000000002  15.520500000000002 
372 3   8.622500000000000  13.796000000000001   5.173500000000000 
373 3  12.071500000000000  13.796000000000001   8.622500000000000 
374 3   1.724500000000002  15.520500000000002  13.796000000000001 
375 3   6.898000000000001  13.796000000000001   3.449000000000000 
376 3   3.449000000000000   1.724500000000000   1.724500000000000 
377 3   8.622500000000002  15.520500000000002   0.000000000000000 
378 3   5.173500000000000   1.724500000000000   0.000000000000000 
379 3   8.622500000000000  13.796000000000001   1.724500000000000 
380 3   3.449000000000002   6.898000000000001  13.796000000000001 
381 3   6.898000000000002  12.071500000000002  15.520500000000002 
382 3   3.449000000000001   0.000000000000000   6.898000000000001 
383 3   5.173500000000001   0.000000000000001   8.622500000000000 
384 3  12.071500000000002  15.520500000000002  10.347000000000000 
385 3   5.173500000000001   0.000000000000001  12.071500000000000 
386 3  13.796000000000001   8.622500000000000   8.622500000000000 
387 3   6.898000000000002  12.071500000000000  12.071500000000000 
388 3  13.796000000000001   6.898000000000001   6.898000000000001 
389 3   8.622500000000000  12.071500000000000   6.898000000000001 
390 3  13.796000000000001   8.622500000000000   5.173500000000000 
391 3   8.622500000000000   1.724500000000000   0.000000000000000 
392 3   5.173500000000001  15.520500000000002   3.449000000000000 
393 3  15.520500000000004   0.000000000000001  15.520500000000002 
394 3   5.173500000000001  15.520500000000002   6.898000000000001 
395 3  13.796000000000003   1.724500000000001  15.520500000000002 
396 3   3.449000000000002  15.520500000000002  12.071500000000000 
397 3   3.449000000000002  13.796000000000001  13.796000000000001 
398 3   3.449000000000002  15.520500000000004  15.520500000000002 
399 3  13.796000000000001   1.724500000000000   5.173500000000000 
400 3   6.898000000000001   0.000000000000000   0.000000000000000 
401 3  15.520500000000002   0.000000000000000   5.173500000000000 
402 3   8.622500000000000   3.449000000000001   5.173500000000000 
403 3   8.622500000000000   3.449000000000001  12.071500000000000 
404 3  13.796000000000001   0.000000000000001  10.347000000000000 
405 3  15.520500000000002   1.724500000000001   6.898000000000001 
406 3   8.622500000000000   0.000000000000000   5.173500000000000 
407 3   6.898000000000001   0.000000000000000   6.898000000000001 
408 3   6.898000000000001   1.724500000000001   8.622500000000000 
409 3  15.520500000000002   0.000000000000001   8.622500000000000 
410 3   6.898000000000001   0.000000000000001  10.347000000000000 
411 3   8.622500000000000   5.173500000000000   0.000000000000000 
412 3   8.622500000000000   1.724500000000001  10.347000000000000 
413 3  15.520500000000002   1.724500000000000   3.449000000000000 
414 3   8.622500000000002   0.000000000000001  15.520500000000002 
415 3  13.796000000000001   5.173500000000000   5.173500000000000 
416 3  15.520500000000002   5.173500000000000   6.898000000000001 
417 3   5.173500000000001   6.898000000000001  15.520500000000002 
418 3   5.173500000000002   8.622500000000000  13.796000000000001 
419 3  15.520500000000002   3.449000000000001   8.622500000000000 
420 3   5.173500000000001  10.347000000000000   1.724500000000000 
421 3   6.898000000000002   8.622500000000000   8.622500000000000 
422 3   6.898000000000001   6.898000000000001   6.898000000000001 
423 3   5.173500000000001  10.347000000000000   5.173500000000000 
424 3   6.898000000000001   8.622500000000000   5.173500000000000 
425 3   3.449000000000002  12.071500000000000   8.622500000000000 
426 3   5.173500000000002  10.347000000000000   8.622500000000000 
427 3  15.520500000000002   8.622500000000000   6.898000000000001 
428 3   3.449000000000002  12.071500000000000  12.071500000000000 
429 3   5.173500000000002  10.347000000000000  12.071500000000000 
430 3   6.898000000000001   8.622500000000000   1.724500000000000 
431 3  13.796000000000001   3.449000000000000   3.449000000000000 
432 3   8.622500000000000   5.173500000000001  13.796000000000001 
433 3   3.449000000000001  13.796000000000001   0.000000000000000 
434 3  13.796000000000001   5.173500000000000   1.724500000000000 
435 3   6.898000000000001   5.173500000000001  15.520500000000002 
436 3   6.898000000000001   3.449000000000001  13.796000000000001 
437 3   3.449000000000002  15.520500000000002   5.173500000000000 
438 3  12.071500000000000   5.173500000000000   6.898000000000001 
439 3   1.724500000000001   3.449000000000001   8.622500000000000 
440 3  13.796000000000001  13.796000000000001   6.898000000000001 
441 3  12.071500000000002   3.449000000000001  15.520500000000002 
442 3   0.000000000000001   3.449000000000001  13.796000000000001 
443 3   0.000000000000001   5.173500000000001  15.520500000000002 
444 3   1.724500000000001   5.173500000000001  13.796000000000001 
445 3   0.000000000000000   6.898000000000001   0.000000000000000 
446 3  10.347000000000000   3.449000000000001  13.796000000000001 
447 3  12.071500000000000   5.173500000000001  10.347000000000000 
448 3  12.071500000000000  12.071500000000000   6.898000000000001 
449 3  10.347000000000000   6.898000000000001   3.449000000000000 
450 3   1.724500000000001   8.622500000000000   3.449000000000000 
451 3   0.000000000000001   6.898000000000001   6.898000000000001 
452 3  10.347000000000000   5.173500000000001   8.622500000000000 
453 3  12.071500000000000   5.173500000000000   3.449000000000000 
454 3  15.520500000000002  13.796000000000001   1.724500000000000 
455 3   1.724500000000001   8.622500000000000  10.347000000000000 
456 3  10.347000000000000   3.449000000000000   3.449000000000000 
457 3  13.796000000000001  13.796000000000001   0.000000000000000 
458 3  12.071500000000000   3.449000000000000   1.724500000000000 
459 3  15.520500000000004  15.520500000000002  10.347000000000000 
460 3   1.724500000000000   0.000000000000000   1.724500000000000 
461 3   1.724500000000000   1.724500000000000   0.000000000000000 
462 3   0.000000000000000   0.000000000000000   3.449000000000000 
463 3  10.347000000000000  10.347000000000000   3.449000000000000 
464 3   1.724500000000000   1.724500000000000   3.449000000000000 
465 3  12.071500000000002   6.898000000000001  15.520500000000002 
466 3  12.071500000000000   8.622500000000000  10.347000000000000 
467 3  12.071500000000000   6.898000000000001  12.071500000000000 
468 3  13.796000000000001  13.796000000000001  13.796000000000001 
469 3  12.071500000000000  12.071500000000000   3.449000000000000 
470 3   8.622500000000000  13.796000000000001   8.622500000000000 
471 3  12.071500000000000   8.622500000000000   6.898000000000001 
472 3   0.000000000000001   0.000000000000001  13.796000000000001 
473 3   1.724500000000001   0.000000000000001  15.520500000000002 
474 3  10.347000000000000   6.898000000000001   6.898000000000001 
475 3  13.796000000000001  13.796000000000001  10.347000000000000 
476 3  12.071500000000000   8.622500000000000   3.449000000000000 
477 3   1.724500000000000   5.173500000000000   0.000000000000000 
478 3   0.000000000000001   5.173500000000000   5.173500000000000 
479 3   1.724500000000001   3.449000000000001   5.173500000000000 
480 3  13.796000000000001  10.347000000000000   3.449000000000000 
481 3  12.071500000000000   0.000000000000000   5.173500000000000 
482 3   1.724500000000002  12.071500000000000  13.796000000000001 
483 3  10.347000000000001  15.520500000000002   1.724500000000000 
484 3  10.347000000000000   1.724500000000001   8.622500000000000 
485 3  15.520500000000002  12.071500000000000   3.449000000000000 
486 3   0.000000000000001  12.071500000000000  12.071500000000000 
487 3  10.347000000000000   0.000000000000001  10.347000000000000 
488 3   8.622500000000002  13.796000000000003  15.520500000000002 
489 3  12.071500000000002  15.520500000000002   3.449000000000000 
490 3  12.071500000000000   0.000000000000001  12.071500000000000 
491 3   1.724500000000002  10.347000000000001  15.520500000000002 
492 3   8.622500000000000  13.796000000000001  12.071500000000000 
493 3   1.724500000000001  15.520500000000002   3.449000000000000 
494 3  12.071500000000000   0.000000000000000   1.724500000000000 
495 3   6.898000000000001  13.796000000000001   6.898000000000001 
496 3   8.622500000000002  15.520500000000002   6.898000000000001 
497 3   1.724500000000001  13.796000000000001   8.622500000000000 
498 3  12.071500000000002  15.520500000000002   0.000000000000000 
499 3  10.347000000000000   3.449000000000000   0.000000000000000 
500 3  10.347000000000000  13.796000000000001   6.898000000000001 
