#Generated by cif2cell 2.1.0.  :  Failed to get author information, No journal information.

500 atoms
3 atom types

0.0 17.245000 xlo xhi
0.0 17.245000 ylo yhi
0.0 17.245000 zlo zhi
1.0559517025648053e-15 1.0559517025648053e-15 1.0559517025648053e-15 xy xz yz

Atoms

1 1  15.520500000000002   5.173500000000001  10.347000000000000 
2 1  13.796000000000001   0.000000000000001  13.796000000000001 
3 1  12.071500000000002  10.347000000000001  15.520500000000002 
4 1  15.520500000000002  12.071500000000000  10.347000000000000 
5 1  15.520500000000002   5.173500000000000   3.449000000000000 
6 1  13.796000000000001   0.000000000000000   3.449000000000000 
7 1  15.520500000000002   1.724500000000001  13.796000000000001 
8 1  15.520500000000002   3.449000000000001   5.173500000000000 
9 1  10.347000000000000  10.347000000000000  13.796000000000001 
10 1  15.520500000000004  15.520500000000002  13.796000000000001 
11 1  13.796000000000001   5.173500000000000   1.724500000000000 
12 1  13.796000000000001  12.071500000000000   8.622500000000000 
13 1  15.520500000000002  12.071500000000000   3.449000000000000 
14 1  10.347000000000000  10.347000000000000  10.347000000000000 
15 1   0.000000000000000   0.000000000000000   0.000000000000000 
16 1  12.071500000000000  12.071500000000000   6.898000000000001 
17 1  12.071500000000000  10.347000000000000   8.622500000000000 
18 1  15.520500000000004  10.347000000000001  15.520500000000002 
19 1  13.796000000000001  12.071500000000000   5.173500000000000 
20 1  13.796000000000003   5.173500000000001  15.520500000000002 
21 1  13.796000000000001   1.724500000000000   5.173500000000000 
22 1  13.796000000000001   5.173500000000001  12.071500000000000 
23 1  13.796000000000001   8.622500000000000   5.173500000000000 
24 1  13.796000000000003  15.520500000000002   1.724500000000000 
25 1  12.071500000000000  13.796000000000001   5.173500000000000 
26 1  15.520500000000004  15.520500000000002   0.000000000000000 
27 1  15.520500000000002  12.071500000000000  13.796000000000001 
28 1  15.520500000000002   6.898000000000001  12.071500000000000 
29 1  15.520500000000002   1.724500000000001   6.898000000000001 
30 1  13.796000000000001   6.898000000000001  13.796000000000001 
31 1  10.347000000000000  13.796000000000001  13.796000000000001 
32 1  13.796000000000001   6.898000000000001  10.347000000000000 
33 1  15.520500000000002  10.347000000000000  12.071500000000000 
34 1  15.520500000000002   3.449000000000001   8.622500000000000 
35 1  13.796000000000001   6.898000000000001   6.898000000000001 
36 1  12.071500000000000  13.796000000000001   1.724500000000000 
37 1  15.520500000000004   3.449000000000001  15.520500000000002 
38 1  13.796000000000005  15.520500000000004  15.520500000000002 
39 1  10.347000000000001  15.520500000000002   1.724500000000000 
40 1  13.796000000000003  15.520500000000002   8.622500000000000 
41 1  15.520500000000002   8.622500000000000  13.796000000000001 
42 1  15.520500000000002  13.796000000000001  12.071500000000000 
43 1   3.449000000000001   5.173500000000001   8.622500000000000 
44 1   3.449000000000001   6.898000000000001  10.347000000000000 
45 1   3.449000000000001   6.898000000000001   6.898000000000001 
46 1   5.173500000000001   8.622500000000000   3.449000000000000 
47 1   3.449000000000001   6.898000000000001   0.000000000000000 
48 1   5.173500000000001   5.173500000000001  13.796000000000001 
49 1   5.173500000000001   3.449000000000001  15.520500000000002 
50 1   3.449000000000002   5.173500000000001  12.071500000000000 
51 1   5.173500000000001   3.449000000000001   8.622500000000000 
52 1   5.173500000000002   8.622500000000000  10.347000000000000 
53 1   5.173500000000001   0.000000000000001  15.520500000000002 
54 1   3.449000000000001   1.724500000000001  15.520500000000002 
55 1   5.173500000000000   1.724500000000001   6.898000000000001 
56 1   5.173500000000001   0.000000000000001   8.622500000000000 
57 1   3.449000000000001   0.000000000000000   6.898000000000001 
58 1   3.449000000000001   1.724500000000000   5.173500000000000 
59 1   3.449000000000000   0.000000000000000   3.449000000000000 
60 1   3.449000000000000   1.724500000000000   1.724500000000000 
61 1   5.173500000000001   6.898000000000001  15.520500000000002 
62 1   5.173500000000001  12.071500000000000   0.000000000000000 
63 1   3.449000000000001  10.347000000000000   3.449000000000000 
64 1   3.449000000000002  12.071500000000000   5.173500000000000 
65 1   5.173500000000001  10.347000000000000   5.173500000000000 
66 1   3.449000000000002  12.071500000000000   8.622500000000000 
67 1   5.173500000000002  12.071500000000000  13.796000000000001 
68 1   5.173500000000001  13.796000000000001   1.724500000000000 
69 1   5.173500000000001  15.520500000000002   0.000000000000000 
70 1   3.449000000000001  13.796000000000001   3.449000000000000 
71 1   3.449000000000002  13.796000000000001   6.898000000000001 
72 1   3.449000000000002  13.796000000000001  10.347000000000000 
73 1   5.173500000000002  13.796000000000001  12.071500000000000 
74 1   8.622500000000000   1.724500000000000   0.000000000000000 
75 1   6.898000000000001   0.000000000000000   3.449000000000000 
76 1   1.724500000000001   5.173500000000000   6.898000000000001 
77 1   0.000000000000001   6.898000000000001  13.796000000000001 
78 1   1.724500000000001   6.898000000000001  12.071500000000000 
79 1   0.000000000000001   8.622500000000000  12.071500000000000 
80 1   1.724500000000001   8.622500000000000   6.898000000000001 
81 1   1.724500000000001   8.622500000000000   3.449000000000000 
82 1   1.724500000000001   6.898000000000001   5.173500000000000 
83 1   1.724500000000001   5.173500000000001  13.796000000000001 
84 1   1.724500000000001   3.449000000000001  12.071500000000000 
85 1   1.724500000000001  10.347000000000000   1.724500000000000 
86 1   0.000000000000001   3.449000000000001   6.898000000000001 
87 1   0.000000000000001   5.173500000000000   5.173500000000000 
88 1   0.000000000000000   5.173500000000000   1.724500000000000 
89 1   1.724500000000001   1.724500000000001  13.796000000000001 
90 1   0.000000000000001   1.724500000000001   8.622500000000000 
91 1   0.000000000000000   0.000000000000000   3.449000000000000 
92 1   1.724500000000000   0.000000000000000   1.724500000000000 
93 1   6.898000000000001   1.724500000000000   5.173500000000000 
94 1   1.724500000000001  12.071500000000000   0.000000000000000 
95 1   0.000000000000001  10.347000000000000   6.898000000000001 
96 1   0.000000000000001  10.347000000000000  10.347000000000000 
97 1   1.724500000000001  10.347000000000000  12.071500000000000 
98 1   1.724500000000001  12.071500000000000  10.347000000000000 
99 1   0.000000000000001  10.347000000000000  13.796000000000001 
100 1   0.000000000000002  12.071500000000002  15.520500000000002 
101 1   1.724500000000002  10.347000000000001  15.520500000000002 
102 1   0.000000000000001  15.520500000000002   1.724500000000000 
103 1   0.000000000000001  13.796000000000001   3.449000000000000 
104 1   0.000000000000001  15.520500000000002   8.622500000000000 
105 1   0.000000000000002  13.796000000000001  13.796000000000001 
106 1   0.000000000000002  15.520500000000004  15.520500000000002 
107 1   1.724500000000002  15.520500000000002  13.796000000000001 
108 1   3.449000000000000   0.000000000000000   0.000000000000000 
109 1  12.071500000000000   1.724500000000001   6.898000000000001 
110 1  12.071500000000000   3.449000000000001   8.622500000000000 
111 1  12.071500000000000   5.173500000000000   3.449000000000000 
112 1  10.347000000000000   5.173500000000000   5.173500000000000 
113 1  10.347000000000000   3.449000000000000   0.000000000000000 
114 1  12.071500000000000   1.724500000000001  13.796000000000001 
115 1  10.347000000000000   0.000000000000001  13.796000000000001 
116 1  10.347000000000000   1.724500000000001  12.071500000000000 
117 1  10.347000000000000   0.000000000000001  10.347000000000000 
118 1  10.347000000000000   5.173500000000001  12.071500000000000 
119 1  12.071500000000000   0.000000000000000   5.173500000000000 
120 1  10.347000000000000   1.724500000000000   5.173500000000000 
121 1  10.347000000000000   0.000000000000000   3.449000000000000 
122 1  12.071500000000000   0.000000000000000   1.724500000000000 
123 1  10.347000000000000   0.000000000000000   0.000000000000000 
124 1   8.622500000000002  15.520500000000002  13.796000000000001 
125 1   6.898000000000002  15.520500000000004  15.520500000000002 
126 1   8.622500000000002  15.520500000000002  10.347000000000000 
127 1  12.071500000000000   3.449000000000001  12.071500000000000 
128 1  12.071500000000002   3.449000000000001  15.520500000000002 
129 1  10.347000000000000   8.622500000000000   1.724500000000000 
130 1  12.071500000000000   8.622500000000000   0.000000000000000 
131 1  10.347000000000000   6.898000000000001   3.449000000000000 
132 1  12.071500000000000   8.622500000000000   3.449000000000000 
133 1  10.347000000000000   6.898000000000001   6.898000000000001 
134 1  12.071500000000000   6.898000000000001  12.071500000000000 
135 1  10.347000000000000   6.898000000000001  13.796000000000001 
136 1  10.347000000000001   8.622500000000002  15.520500000000002 
137 1  12.071500000000002   6.898000000000001  15.520500000000002 
138 1  12.071500000000000   8.622500000000000  13.796000000000001 
139 1  10.347000000000000  12.071500000000000   1.724500000000000 
140 1  12.071500000000000  10.347000000000000   1.724500000000000 
141 1  12.071500000000000  10.347000000000000   5.173500000000000 
142 1   8.622500000000000   5.173500000000000   3.449000000000000 
143 1   6.898000000000001   8.622500000000000   5.173500000000000 
144 1   6.898000000000001   6.898000000000001   3.449000000000000 
145 1   8.622500000000000   6.898000000000001   1.724500000000000 
146 1   6.898000000000001   8.622500000000000   1.724500000000000 
147 1   8.622500000000002   3.449000000000001  15.520500000000002 
148 1   6.898000000000001   3.449000000000001  13.796000000000001 
149 1   8.622500000000000   3.449000000000001  12.071500000000000 
150 1   6.898000000000001   3.449000000000001   6.898000000000001 
151 1   8.622500000000000   8.622500000000000   3.449000000000000 
152 1   6.898000000000001   3.449000000000000   3.449000000000000 
153 1   8.622500000000000   5.173500000000000   0.000000000000000 
154 1   8.622500000000000   1.724500000000001  13.796000000000001 
155 1   8.622500000000002   0.000000000000001  15.520500000000002 
156 1   8.622500000000000   1.724500000000001  10.347000000000000 
157 1   6.898000000000001   0.000000000000001  10.347000000000000 
158 1   8.622500000000000   0.000000000000001   8.622500000000000 
159 1  12.071500000000000  12.071500000000000   3.449000000000000 
160 1   8.622500000000000   6.898000000000001   8.622500000000000 
161 1   6.898000000000001   6.898000000000001  10.347000000000000 
162 1   8.622500000000000   6.898000000000001  12.071500000000000 
163 1   6.898000000000001   6.898000000000001  13.796000000000001 
164 1   6.898000000000002   8.622500000000002  15.520500000000002 
165 1   8.622500000000000   8.622500000000000  13.796000000000001 
166 1   8.622500000000000  12.071500000000000   0.000000000000000 
167 1   8.622500000000000  10.347000000000000   5.173500000000000 
168 1   8.622500000000000  12.071500000000000   3.449000000000000 
169 1   6.898000000000002  12.071500000000000  12.071500000000000 
170 1   6.898000000000002  12.071500000000002  15.520500000000002 
171 1   8.622500000000002  10.347000000000001  15.520500000000002 
172 1   8.622500000000000  13.796000000000001   5.173500000000000 
173 1   8.622500000000002  15.520500000000002   3.449000000000000 
174 1   8.622500000000000  13.796000000000001  12.071500000000000 
175 2  12.071500000000002  15.520500000000002  13.796000000000001 
176 2   6.898000000000001  13.796000000000001   3.449000000000000 
177 2   6.898000000000001  13.796000000000001   6.898000000000001 
178 2  13.796000000000001  13.796000000000001  10.347000000000000 
179 2   6.898000000000001  15.520500000000002   5.173500000000000 
180 2   0.000000000000001   3.449000000000001  13.796000000000001 
181 2   1.724500000000001   5.173500000000001  10.347000000000000 
182 2   8.622500000000000  12.071500000000000  10.347000000000000 
183 2  15.520500000000004  15.520500000000002   6.898000000000001 
184 2  15.520500000000002   0.000000000000000   5.173500000000000 
185 2   8.622500000000000  12.071500000000000  13.796000000000001 
186 2   6.898000000000001  13.796000000000001   0.000000000000000 
187 2   0.000000000000001   6.898000000000001  10.347000000000000 
188 2   6.898000000000001  15.520500000000002   1.724500000000000 
189 2   5.173500000000000   1.724500000000000   3.449000000000000 
190 2   0.000000000000001   3.449000000000001  10.347000000000000 
191 2   8.622500000000000   8.622500000000000   0.000000000000000 
192 2   6.898000000000002   8.622500000000000  12.071500000000000 
193 2  13.796000000000001  13.796000000000001   6.898000000000001 
194 2   6.898000000000001   6.898000000000001   6.898000000000001 
195 2   8.622500000000000   6.898000000000001   5.173500000000000 
196 2   8.622500000000000   8.622500000000000  10.347000000000000 
197 2  15.520500000000004   0.000000000000001  15.520500000000002 
198 2  13.796000000000001   0.000000000000001  10.347000000000000 
199 2   8.622500000000002   6.898000000000001  15.520500000000002 
200 2   6.898000000000001  10.347000000000000   0.000000000000000 
201 2   6.898000000000001  12.071500000000000   1.724500000000000 
202 2   8.622500000000000  12.071500000000000   6.898000000000001 
203 2   8.622500000000000  10.347000000000000   1.724500000000000 
204 2   1.724500000000001   6.898000000000001   1.724500000000000 
205 2   0.000000000000001   8.622500000000000   1.724500000000000 
206 2   0.000000000000000   6.898000000000001   0.000000000000000 
207 2   1.724500000000001   6.898000000000001   8.622500000000000 
208 2  13.796000000000001   0.000000000000000   6.898000000000001 
209 2   6.898000000000001  10.347000000000000   6.898000000000001 
210 2  15.520500000000002  13.796000000000001   8.622500000000000 
211 2   1.724500000000001   3.449000000000001  15.520500000000002 
212 2   1.724500000000000   1.724500000000000   3.449000000000000 
213 2  12.071500000000000   3.449000000000000   1.724500000000000 
214 2  10.347000000000000   3.449000000000000   3.449000000000000 
215 2   0.000000000000001   1.724500000000001  15.520500000000002 
216 2  12.071500000000000   3.449000000000001   5.173500000000000 
217 2   0.000000000000001   0.000000000000001  13.796000000000001 
218 2   1.724500000000001   0.000000000000001  12.071500000000000 
219 2  12.071500000000000   5.173500000000000   6.898000000000001 
220 2  10.347000000000000   3.449000000000001  10.347000000000000 
221 2  10.347000000000001   5.173500000000001  15.520500000000002 
222 2  12.071500000000000   5.173500000000001  13.796000000000001 
223 2  12.071500000000000   6.898000000000001   1.724500000000000 
224 2   0.000000000000000   0.000000000000000   6.898000000000001 
225 2  10.347000000000000   5.173500000000000   1.724500000000000 
226 2  10.347000000000000   8.622500000000000   5.173500000000000 
227 2  10.347000000000000   8.622500000000000   8.622500000000000 
228 2  12.071500000000000   6.898000000000001   8.622500000000000 
229 2  10.347000000000000   8.622500000000000  12.071500000000000 
230 2  12.071500000000000   8.622500000000000  10.347000000000000 
231 2  12.071500000000000  12.071500000000000  10.347000000000000 
232 2  12.071500000000000  10.347000000000000  12.071500000000000 
233 2  10.347000000000000  12.071500000000000  12.071500000000000 
234 2  12.071500000000000  12.071500000000000   0.000000000000000 
235 2  10.347000000000000  10.347000000000000   3.449000000000000 
236 2  10.347000000000000  12.071500000000000   8.622500000000000 
237 2  10.347000000000000  10.347000000000000   6.898000000000001 
238 2  13.796000000000003  15.520500000000002  12.071500000000000 
239 2   8.622500000000000  13.796000000000001   8.622500000000000 
240 2   8.622500000000002  15.520500000000002   6.898000000000001 
241 2   6.898000000000002  13.796000000000001  10.347000000000000 
242 2   6.898000000000002  15.520500000000002  12.071500000000000 
243 2  15.520500000000002   0.000000000000000   1.724500000000000 
244 2  13.796000000000001   1.724500000000000   1.724500000000000 
245 2   6.898000000000002  13.796000000000001  13.796000000000001 
246 2  13.796000000000001   0.000000000000000   0.000000000000000 
247 2   0.000000000000001   5.173500000000001   8.622500000000000 
248 2   6.898000000000001   5.173500000000001  15.520500000000002 
249 2  12.071500000000002  13.796000000000003  15.520500000000002 
250 2  10.347000000000000   1.724500000000000   1.724500000000000 
251 2   1.724500000000001   3.449000000000001   8.622500000000000 
252 2  12.071500000000000   1.724500000000000   0.000000000000000 
253 2   1.724500000000001   5.173500000000000   3.449000000000000 
254 2  12.071500000000000  13.796000000000001  12.071500000000000 
255 2  12.071500000000000   1.724500000000000   3.449000000000000 
256 2   1.724500000000001   3.449000000000001   5.173500000000000 
257 2  10.347000000000001  15.520500000000002  12.071500000000000 
258 2   1.724500000000000   3.449000000000000   1.724500000000000 
259 2  12.071500000000000   0.000000000000001  12.071500000000000 
260 2  12.071500000000000   1.724500000000001  10.347000000000000 
261 2  13.796000000000001  13.796000000000001  13.796000000000001 
262 2  10.347000000000001  15.520500000000002   8.622500000000000 
263 2  10.347000000000000  13.796000000000001   6.898000000000001 
264 2  13.796000000000001  12.071500000000000  12.071500000000000 
265 2  13.796000000000001  10.347000000000000  10.347000000000000 
266 2   0.000000000000001  13.796000000000001   6.898000000000001 
267 2   3.449000000000001   8.622500000000000   8.622500000000000 
268 2   1.724500000000001  15.520500000000002   3.449000000000000 
269 2   5.173500000000001   8.622500000000000   6.898000000000001 
270 2  15.520500000000002   8.622500000000000   6.898000000000001 
271 2   1.724500000000001  13.796000000000001   5.173500000000000 
272 2   5.173500000000001   6.898000000000001  12.071500000000000 
273 2  15.520500000000002   6.898000000000001   8.622500000000000 
274 2   3.449000000000002   6.898000000000001  13.796000000000001 
275 2   3.449000000000002   8.622500000000002  15.520500000000002 
276 2  13.796000000000001   8.622500000000000   8.622500000000000 
277 2   5.173500000000002   8.622500000000000  13.796000000000001 
278 2   1.724500000000001  13.796000000000001   8.622500000000000 
279 2  15.520500000000002   8.622500000000000   3.449000000000000 
280 2   5.173500000000001  12.071500000000000   3.449000000000000 
281 2   3.449000000000001  10.347000000000000   6.898000000000001 
282 2   5.173500000000002  10.347000000000000   8.622500000000000 
283 2   0.000000000000001  13.796000000000001   0.000000000000000 
284 2   3.449000000000001  10.347000000000000  10.347000000000000 
285 2   3.449000000000002  12.071500000000000  12.071500000000000 
286 2   3.449000000000002  10.347000000000000  13.796000000000001 
287 2  13.796000000000001  10.347000000000000  13.796000000000001 
288 2  13.796000000000003  12.071500000000002  15.520500000000002 
289 2   3.449000000000001  13.796000000000001   0.000000000000000 
290 2   3.449000000000001  15.520500000000002   1.724500000000000 
291 2  15.520500000000002  10.347000000000000   8.622500000000000 
292 2  13.796000000000001  10.347000000000000   3.449000000000000 
293 2  15.520500000000002  12.071500000000000   0.000000000000000 
294 2  15.520500000000002  10.347000000000000   5.173500000000000 
295 2  13.796000000000001  10.347000000000000   0.000000000000000 
296 2   5.173500000000001   1.724500000000001  13.796000000000001 
297 2   3.449000000000000   3.449000000000000   0.000000000000000 
298 2   3.449000000000001   5.173500000000000   1.724500000000000 
299 2   1.724500000000002  13.796000000000003  15.520500000000002 
300 2   5.173500000000000   5.173500000000000   0.000000000000000 
301 2   3.449000000000000   3.449000000000000   3.449000000000000 
302 2   3.449000000000001   5.173500000000000   5.173500000000000 
303 2   5.173500000000000   3.449000000000001   5.173500000000000 
304 2  13.796000000000001   3.449000000000000   3.449000000000000 
305 2  15.520500000000002  12.071500000000000   6.898000000000001 
306 2  15.520500000000004   6.898000000000001  15.520500000000002 
307 2   1.724500000000002  15.520500000000002  10.347000000000000 
308 2  13.796000000000003   8.622500000000002  15.520500000000002 
309 2   5.173500000000001   3.449000000000001  12.071500000000000 
310 2   5.173500000000001   5.173500000000001  10.347000000000000 
311 2   0.000000000000002  15.520500000000002  12.071500000000000 
312 2   0.000000000000001  13.796000000000001  10.347000000000000 
313 2  15.520500000000002   8.622500000000000  10.347000000000000 
314 2   3.449000000000001   8.622500000000000   1.724500000000000 
315 2   5.173500000000001   8.622500000000000   0.000000000000000 
316 2   3.449000000000001   6.898000000000001   3.449000000000000 
317 2   6.898000000000001   1.724500000000001  15.520500000000002 
318 2   6.898000000000001   1.724500000000000   1.724500000000000 
319 2  13.796000000000001   3.449000000000001  13.796000000000001 
320 2  15.520500000000002   3.449000000000001  12.071500000000000 
321 2   8.622500000000000   0.000000000000000   5.173500000000000 
322 2   0.000000000000001  12.071500000000000   5.173500000000000 
323 2   6.898000000000001   0.000000000000000   6.898000000000001 
324 2   0.000000000000001  10.347000000000000   3.449000000000000 
325 2  15.520500000000002  13.796000000000001   1.724500000000000 
326 2  13.796000000000001   3.449000000000001  10.347000000000000 
327 2  15.520500000000002   5.173500000000000   6.898000000000001 
328 2   0.000000000000001  10.347000000000000   0.000000000000000 
329 2   0.000000000000001  12.071500000000000   1.724500000000000 
330 2  13.796000000000001   5.173500000000001   8.622500000000000 
331 2   1.724500000000001   8.622500000000000  13.796000000000001 
332 2   6.898000000000001   5.173500000000000   1.724500000000000 
333 2   8.622500000000000   3.449000000000000   1.724500000000000 
334 2  13.796000000000001   3.449000000000001   6.898000000000001 
335 2   6.898000000000001   5.173500000000000   5.173500000000000 
336 2   8.622500000000000   3.449000000000001   5.173500000000000 
337 2  13.796000000000001   5.173500000000000   5.173500000000000 
338 2   6.898000000000001   5.173500000000001   8.622500000000000 
339 2   6.898000000000001   5.173500000000001  12.071500000000000 
340 2   1.724500000000001   8.622500000000000  10.347000000000000 
341 2   5.173500000000002  15.520500000000002  13.796000000000001 
342 2   0.000000000000001  12.071500000000000  12.071500000000000 
343 2   3.449000000000002  15.520500000000002   5.173500000000000 
344 2   5.173500000000001  15.520500000000002   3.449000000000000 
345 2  15.520500000000002   5.173500000000001  13.796000000000001 
346 2   5.173500000000002  13.796000000000001   8.622500000000000 
347 2   5.173500000000001  15.520500000000002   6.898000000000001 
348 2   0.000000000000001  12.071500000000000   8.622500000000000 
349 2   6.898000000000001   0.000000000000000   0.000000000000000 
350 2   3.449000000000002  13.796000000000001  13.796000000000001 
351 2   1.724500000000001  12.071500000000000   3.449000000000000 
352 2   5.173500000000002  13.796000000000003  15.520500000000002 
353 3   8.622500000000000   0.000000000000000   1.724500000000000 
354 3   5.173500000000002  10.347000000000000  12.071500000000000 
355 3   5.173500000000002  12.071500000000000  10.347000000000000 
356 3   3.449000000000002  12.071500000000002  15.520500000000002 
357 3   5.173500000000002  10.347000000000001  15.520500000000002 
358 3  15.520500000000002   8.622500000000000   0.000000000000000 
359 3  15.520500000000002   6.898000000000001   1.724500000000000 
360 3  13.796000000000001   8.622500000000000   1.724500000000000 
361 3  13.796000000000001   6.898000000000001   0.000000000000000 
362 3   5.173500000000001  13.796000000000001   5.173500000000000 
363 3   3.449000000000002  15.520500000000002   8.622500000000000 
364 3   3.449000000000002  15.520500000000002  12.071500000000000 
365 3   5.173500000000002  15.520500000000002  10.347000000000000 
366 3   3.449000000000002  15.520500000000004  15.520500000000002 
367 3   5.173500000000001  12.071500000000000   6.898000000000001 
368 3   8.622500000000000   1.724500000000000   3.449000000000000 
369 3   6.898000000000001   1.724500000000001   8.622500000000000 
370 3   8.622500000000000   1.724500000000001   6.898000000000001 
371 3   6.898000000000001   1.724500000000001  12.071500000000000 
372 3   8.622500000000000   0.000000000000001  12.071500000000000 
373 3   6.898000000000001   0.000000000000001  13.796000000000001 
374 3   6.898000000000001   3.449000000000000   0.000000000000000 
375 3   8.622500000000000   3.449000000000001   8.622500000000000 
376 3   8.622500000000000   5.173500000000000   6.898000000000001 
377 3   6.898000000000001   3.449000000000001  10.347000000000000 
378 3   8.622500000000000   5.173500000000001  10.347000000000000 
379 3  15.520500000000002   5.173500000000000   0.000000000000000 
380 3   3.449000000000001   3.449000000000001  13.796000000000001 
381 3   3.449000000000001   1.724500000000001   8.622500000000000 
382 3  15.520500000000002  10.347000000000000   1.724500000000000 
383 3   3.449000000000001   0.000000000000001  10.347000000000000 
384 3   3.449000000000001   1.724500000000001  12.071500000000000 
385 3   5.173500000000001   0.000000000000001  12.071500000000000 
386 3   5.173500000000001   1.724500000000001  10.347000000000000 
387 3   3.449000000000001   0.000000000000001  13.796000000000001 
388 3  13.796000000000001  12.071500000000000   1.724500000000000 
389 3   5.173500000000000   3.449000000000000   1.724500000000000 
390 3   5.173500000000000   5.173500000000000   3.449000000000000 
391 3   3.449000000000001   3.449000000000001   6.898000000000001 
392 3   5.173500000000000   5.173500000000000   6.898000000000001 
393 3   3.449000000000001   3.449000000000001  10.347000000000000 
394 3  15.520500000000002   3.449000000000000   1.724500000000000 
395 3   3.449000000000002   5.173500000000001  15.520500000000002 
396 3   5.173500000000000   6.898000000000001   1.724500000000000 
397 3   3.449000000000001   8.622500000000000   5.173500000000000 
398 3   5.173500000000000   6.898000000000001   5.173500000000000 
399 3  13.796000000000001   8.622500000000000  12.071500000000000 
400 3   5.173500000000001   6.898000000000001   8.622500000000000 
401 3   3.449000000000002   8.622500000000000  12.071500000000000 
402 3   3.449000000000001  10.347000000000000   0.000000000000000 
403 3   3.449000000000001  12.071500000000000   1.724500000000000 
404 3   5.173500000000001  10.347000000000000   1.724500000000000 
405 3  15.520500000000002   6.898000000000001   5.173500000000000 
406 3  13.796000000000001   6.898000000000001   3.449000000000000 
407 3  10.347000000000000  13.796000000000001   3.449000000000000 
408 3  10.347000000000000   0.000000000000000   6.898000000000001 
409 3  10.347000000000000   1.724500000000001   8.622500000000000 
410 3  12.071500000000000   0.000000000000001   8.622500000000000 
411 3  10.347000000000000  13.796000000000001  10.347000000000000 
412 3  12.071500000000002  15.520500000000002   6.898000000000001 
413 3  12.071500000000000  13.796000000000001   8.622500000000000 
414 3  10.347000000000001   1.724500000000001  15.520500000000002 
415 3  12.071500000000002   0.000000000000001  15.520500000000002 
416 3  12.071500000000000   5.173500000000000   0.000000000000000 
417 3  12.071500000000002  15.520500000000002   3.449000000000000 
418 3  10.347000000000000   3.449000000000001   6.898000000000001 
419 3  10.347000000000000   5.173500000000001   8.622500000000000 
420 3  10.347000000000001  15.520500000000002   5.173500000000000 
421 3  12.071500000000002  15.520500000000002  10.347000000000000 
422 3  12.071500000000002  15.520500000000002   0.000000000000000 
423 3  12.071500000000000   5.173500000000001  10.347000000000000 
424 3  10.347000000000000   3.449000000000001  13.796000000000001 
425 3  10.347000000000000   6.898000000000001   0.000000000000000 
426 3  10.347000000000000  13.796000000000001   0.000000000000000 
427 3  12.071500000000000  12.071500000000000  13.796000000000001 
428 3  12.071500000000000   6.898000000000001   5.173500000000000 
429 3  10.347000000000001  12.071500000000002  15.520500000000002 
430 3  12.071500000000000   8.622500000000000   6.898000000000001 
431 3  10.347000000000000   6.898000000000001  10.347000000000000 
432 3  10.347000000000000  10.347000000000000   0.000000000000000 
433 3  10.347000000000000  12.071500000000000   5.173500000000000 
434 3  13.796000000000001   1.724500000000001   8.622500000000000 
435 3   8.622500000000000   5.173500000000001  13.796000000000001 
436 3   6.898000000000001   6.898000000000001   0.000000000000000 
437 3  13.796000000000001   3.449000000000000   0.000000000000000 
438 3  13.796000000000003   1.724500000000001  15.520500000000002 
439 3   6.898000000000002   8.622500000000000   8.622500000000000 
440 3   8.622500000000000   8.622500000000000   6.898000000000001 
441 3  15.520500000000002   1.724500000000001  10.347000000000000 
442 3  15.520500000000002   0.000000000000001  12.071500000000000 
443 3  13.796000000000001   1.724500000000001  12.071500000000000 
444 3  15.520500000000002   0.000000000000001   8.622500000000000 
445 3   6.898000000000001  10.347000000000000   3.449000000000000 
446 3   6.898000000000001  12.071500000000000   5.173500000000000 
447 3   0.000000000000000   1.724500000000000   1.724500000000000 
448 3   6.898000000000002  12.071500000000000   8.622500000000000 
449 3   8.622500000000000  10.347000000000000   8.622500000000000 
450 3   6.898000000000002  10.347000000000000  10.347000000000000 
451 3  15.520500000000002   1.724500000000000   3.449000000000000 
452 3   8.622500000000000  10.347000000000000  12.071500000000000 
453 3   6.898000000000002  10.347000000000000  13.796000000000001 
454 3   8.622500000000000  13.796000000000001   1.724500000000000 
455 3   8.622500000000002  15.520500000000002   0.000000000000000 
456 3  15.520500000000002   1.724500000000000   0.000000000000000 
457 3   6.898000000000002  15.520500000000002   8.622500000000000 
458 3   8.622500000000002  13.796000000000003  15.520500000000002 
459 3  10.347000000000003  15.520500000000004  15.520500000000002 
460 3   1.724500000000000   5.173500000000000   0.000000000000000 
461 3   1.724500000000001   0.000000000000001   8.622500000000000 
462 3   1.724500000000001   1.724500000000001   6.898000000000001 
463 3   0.000000000000001   0.000000000000001  10.347000000000000 
464 3   0.000000000000001   1.724500000000001  12.071500000000000 
465 3   0.000000000000001   8.622500000000000   5.173500000000000 
466 3   0.000000000000001   6.898000000000001   3.449000000000000 
467 3   1.724500000000001   1.724500000000001  10.347000000000000 
468 3   1.724500000000001  15.520500000000002   6.898000000000001 
469 3   1.724500000000001   0.000000000000001  15.520500000000002 
470 3   1.724500000000001   8.622500000000000   0.000000000000000 
471 3   0.000000000000000   3.449000000000000   0.000000000000000 
472 3  15.520500000000004  15.520500000000002  10.347000000000000 
473 3  13.796000000000003  15.520500000000002   5.173500000000000 
474 3   0.000000000000001  15.520500000000002   5.173500000000000 
475 3   0.000000000000000   3.449000000000000   3.449000000000000 
476 3   1.724500000000001  15.520500000000002   0.000000000000000 
477 3   1.724500000000001  10.347000000000000   5.173500000000000 
478 3   1.724500000000001  13.796000000000001   1.724500000000000 
479 3   0.000000000000001   5.173500000000001  15.520500000000002 
480 3   1.724500000000002  12.071500000000000  13.796000000000001 
481 3   0.000000000000001   5.173500000000001  12.071500000000000 
482 3   1.724500000000001  10.347000000000000   8.622500000000000 
483 3   1.724500000000001  12.071500000000000   6.898000000000001 
484 3  13.796000000000001  13.796000000000001   0.000000000000000 
485 3   1.724500000000002  13.796000000000001  12.071500000000000 
486 3  13.796000000000001  13.796000000000001   3.449000000000000 
487 3  13.796000000000001  10.347000000000000   6.898000000000001 
488 3   0.000000000000001   8.622500000000002  15.520500000000002 
489 3   1.724500000000001   6.898000000000001  15.520500000000002 
490 3   5.173500000000000   0.000000000000000   1.724500000000000 
491 3  15.520500000000004  15.520500000000002   3.449000000000000 
492 3   5.173500000000000   1.724500000000000   0.000000000000000 
493 3   1.724500000000000   1.724500000000000   0.000000000000000 
494 3  15.520500000000004  13.796000000000003  15.520500000000002 
495 3  15.520500000000002  13.796000000000001   5.173500000000000 
496 3   0.000000000000001   6.898000000000001   6.898000000000001 
497 3   5.173500000000000   0.000000000000000   5.173500000000000 
498 3   0.000000000000001   8.622500000000000   8.622500000000000 
499 3   0.000000000000000   1.724500000000000   5.173500000000000 
500 3   1.724500000000000   0.000000000000000   5.173500000000000 
