LAMMPS data file via write_data, version 29 Aug 2024, timestep = 27, units = metal

500 atoms
3 atom types

0 17.650847051042536 xlo xhi
0 17.650847051042536 ylo yhi
0 17.650847051042536 zlo zhi

Masses

1 55.0503
2 58.71
3 58.71

Atoms # atomic

1 2 0.004980244022875071 0.004980244022875506 0 0 0 0
2 3 1.7601044610813772 1.7601044610813774 0 0 0 0
3 1 1.7593898293263914 0.005694875777860495 1.7533969329143257 0 0 0
4 1 0.005694875777860891 1.7593898293263919 1.7533969329143257 0 0 0
5 1 3.523904232747512 0.005629997402473962 1.9646960439617178e-16 0 0 0
8 1 3.5235050435337856 1.7643459104781207 1.7587012382034568 0 0 0
11 1 0.00562999740247524 3.5239042327475114 4.621420402908194e-19 0 0 0
13 1 1.7643459104781203 3.5235050435337856 1.7587012382034566 0 0 0
15 1 3.5230079031640362 3.5230079031640362 4.659017492398914e-16 0 0 0
51 1 0.000756550536471075 0.0007565505364697404 3.528233160422331 0 0 0
52 1 1.764328154567782 1.764328154567782 3.5282331604223307 0 0 0
53 1 1.764805636615714 0.00027906848853804616 5.295080164323041 0 0 0
54 1 0.0002790684885390596 1.7648056366157143 5.295080164323041 0 0 0
55 1 3.5277140106860094 0.0007114722048683926 3.5273719246165456 0 0 0
58 1 3.5294052975652 1.7647811279282262 5.2946075910361055 0 0 0
61 1 0.000711472204869144 3.5277140106860094 3.5273719246165456 0 0 0
63 1 1.7647811279282262 3.5294052975652 5.294607591036106 0 0 0
65 1 3.528997441922401 3.528997441922401 3.528696534343652 0 0 0
6 1 5.294358107458399 1.7648563874687289 0 0 0 0
7 1 5.294264735314201 0.0006950203780019377 1.7641187806259002 0 0 0
9 1 7.060423098663493 0.00028083332219102833 1.8267620869121782e-16 0 0 0
10 1 7.060266520188202 1.7650459956730187 1.764758335483367 0 0 0
17 1 5.293796366883821 3.5290409251636365 1.7641354068723134 0 0 0
19 1 7.060188771874559 3.5297683327008826 0 0 0 0
56 1 5.292997727878881 1.7647892567584729 3.527962103372472 0 0 0
57 1 5.294069617459409 0.0002969249889136812 5.293991193941897 0 0 0
59 1 7.059733085518976 0.0002927785760638964 3.529566119452735 0 0 0
60 1 7.059384363456213 1.7649567473297276 5.2943080375082845 0 0 0
67 1 5.294494370860268 3.529623242226864 5.294423448615836 0 0 0
69 1 7.059579306302238 3.5296920288026565 3.529541170916803 0 0 0
252 1 8.825404726626205 4.778504869293288e-05 1.7650384181571663 0 0 0
262 1 8.825405495783809 3.530066884326931 1.7650080622303157 0 0 0
301 1 8.82533502056497 1.7650542589655114 3.529961085908996 0 0 0
302 1 8.825177268040637 0.0001257787189056639 5.294889679647267 0 0 0
312 1 8.825179579725937 3.5298961305398118 5.29486979902315 0 0 0
12 1 1.7648563874687286 5.294358107458399 7.986171477527364e-17 0 0 0
14 1 0.0006950203780016418 5.294264735314201 1.7641187806259 0 0 0
18 1 3.5290409251636365 5.293796366883821 1.7641354068723134 0 0 0
21 1 0.00028083332219092815 7.060423098663493 5.959199993223725e-20 0 0 0
23 1 1.7650459956730182 7.060266520188202 1.7647583354833667 0 0 0
24 1 4.778504869301961e-05 8.825404726626205 1.7650384181571657 0 0 0
25 1 3.5297683327008826 7.060188771874559 2.0918067522451068e-19 0 0 0
28 1 3.530066884326931 8.825405495783809 1.7650080622303146 0 0 0
62 1 1.7647892567584729 5.292997727878883 3.5279621033724715 0 0 0
64 1 0.00029692498891311443 5.29406961745941 5.293991193941897 0 0 0
68 1 3.5296232422268643 5.294494370860268 5.294423448615836 0 0 0
71 1 0.0002927785760646927 7.059733085518976 3.529566119452735 0 0 0
72 1 1.7650542589655116 8.82533502056497 3.529961085908996 0 0 0
73 1 1.7649567473297274 7.059384363456213 5.2943080375082845 0 0 0
74 1 0.00012577871890597056 8.825177268040637 5.294889679647267 0 0 0
75 1 3.529692028802656 7.059579306302239 3.5295411709168025 0 0 0
78 1 3.5298961305398113 8.825179579725937 5.29486979902315 0 0 0
16 1 5.292893941456086 5.292893941456086 1.9188434546500123e-19 0 0 0
20 1 7.059586985710039 5.294575614720984 1.7646857029722103 0 0 0
26 1 5.294988757566022 8.825334388087656 0 0 0 0
27 1 5.294575614720984 7.059586985710039 1.76468570297221 0 0 0
29 1 7.059409706050743 7.059409706050743 0 0 0 0
30 1 7.059977289545091 8.8251842519772 1.7648705746953155 0 0 0
66 1 5.294518138097188 5.294518138097188 3.529489041160058 0 0 0
70 1 7.059920634786359 5.294845743310818 5.294819968124995 0 0 0
76 1 5.29491418596517 8.825178272432826 3.5298564364137404 0 0 0
77 1 5.294845743310817 7.059920634786359 5.294819968124994 0 0 0
79 1 7.059935175263753 7.059935175263753 3.529798227492429 0 0 0
80 1 7.060087740367691 8.825295570123686 5.294985483899454 0 0 0
261 1 8.825334388087654 5.294988757566023 0 0 0 0
271 1 8.825175492101213 8.825175492101213 0 0 0 0
272 1 8.8251842519772 7.059977289545091 1.7648705746953153 0 0 0
311 1 8.825178272432826 5.29491418596517 3.529856436413741 0 0 0
321 1 8.82530293186986 8.825302931869862 3.52990302293755 0 0 0
322 1 8.825295570123686 7.060087740367691 5.294985483899454 0 0 0
22 1 1.7650948726388456 8.825570773858182 9.942134682572234e-20 0 0 0
32 1 1.764803871782061 12.355508657483297 0 0 0 0
33 1 1.7650369200555607 10.590527029520585 1.765038418157166 0 0 0
34 1 3.8709431234268616e-05 12.355665235958586 1.7647583354833667 0 0 0
35 1 3.530032101542744 10.590598857402151 4.2309729091318326e-19 0 0 0
38 1 3.5296748770559794 12.356118746289658 1.764747831174763 0 0 0
81 1 3.0446138740906302e-05 10.59059673558182 3.529961085908996 0 0 0
82 1 1.7647919265281888 12.356198670627812 3.529566119452735 0 0 0
83 1 1.7649589263853467 10.590754488106151 5.294889679647267 0 0 0
84 1 0.00012795777452541176 12.356547392690574 5.2943080375082845 0 0 0
85 1 3.529953199591639 10.590753119089413 3.5299277049248783 0 0 0
88 1 3.5297957737503602 12.35613946856593 5.29471896108429 0 0 0
36 1 5.294429964207052 12.356365013364307 0 0 0 0
37 1 5.294961622493582 10.590747301360658 1.7649380637689958 0 0 0
39 1 7.059965217279294 10.590758503079844 0 0 0 0
40 1 7.059857817787385 12.356073938359403 1.7648485704637034 0 0 0
86 1 5.294777744225712 12.356131464683775 3.5297460113483696 0 0 0
87 1 5.294941930629198 10.590643221604246 5.2949485953511894 0 0 0
89 1 7.06005977001884 10.59063260512483 3.5298932720268676 0 0 0
90 1 7.06004051201971 12.355891244127077 5.29494326323784 0 0 0
281 1 8.825173253066945 12.355966538867495 0 0 0 0
282 1 8.825293521814771 10.590638234332019 1.7648902258069108 0 0 0
331 1 8.825299151021959 12.35587198612795 3.529893272026867 0 0 0
332 1 8.825334350580436 10.590597405566353 5.295019387629437 0 0 0
41 1 0.0002283176355248487 14.12157364868839 0 0 0 0
42 1 1.7594547077017786 15.892027523399278 0 0 0 0
43 1 1.7643896847262504 14.121667020832588 1.7641187806258996 0 0 0
44 1 0.0007387946261319625 15.892426712613004 1.758701238203457 0 0 0
45 1 3.528215937493697 14.122406062852436 0 0 0 0
48 1 3.5284631385572633 15.887468617589526 1.7636151303076948 0 0 0
91 1 0.00029544834578054056 14.122934028267906 3.527962103372472 0 0 0
92 1 1.7643732328993833 15.88821774546078 3.527371924616546 0 0 0
93 1 1.764787780115339 14.121862138687378 5.293991193941896 0 0 0
94 1 0.00030357717602685924 15.886526458581589 5.2946075910361055 0 0 0
95 1 3.5294123808492874 14.121675716012314 3.5292258650270765 0 0 0
98 1 3.529400756727474 15.886530999419314 5.2941613728301204 0 0 0
100 1 7.0597922875808585 15.886135982396429 5.29471896108429 0 0 0
46 1 5.293525693294352 15.88771581865309 0 0 0 0
47 1 5.294273850785285 14.121657905361502 1.7645021657198696 0 0 0
49 1 7.059566742782482 14.121501791939737 0 0 0 0
50 1 7.059813009857132 15.886256879090809 1.7647478311747633 0 0 0
96 1 5.294256040134473 15.8865193752975 3.5292258650270765 0 0 0
97 1 5.294710865539603 14.121220890607185 5.294668514478366 0 0 0
99 1 7.059800291463012 14.121154011921076 3.529746011348369 0 0 0
342 1 8.825288534542544 14.12098982551759 5.29494859535119 0 0 0
341 1 8.825178637057375 15.885978556555148 3.529927704924879 0 0 0
291 1 8.825332898744637 15.885899654604046 1.396155426983844e-18 0 0 0
292 1 8.82518445478613 14.120970133653206 1.764938063768996 0 0 0
101 1 5.554715168238381e-05 5.5547151683312356e-05 7.060440238647375 0 0 0
102 1 1.7650291579525696 1.7650291579525696 7.060440238647375 0 0 0
103 1 1.7650829077345498 1.7973697029596415e-06 8.825423525521268 0 0 0
104 1 1.7973697027312e-06 1.7650829077345491 8.825423525521268 0 0 0
105 1 3.5299560625624 5.5161199805362e-05 7.060205015847354 0 0 0
108 1 3.5300943864998158 1.7650485879331907 8.825423525521268 0 0 0
111 1 5.516119980620118e-05 3.5299560625624005 7.060205015847354 0 0 0
113 1 1.765048587933191 3.530094386499816 8.825423525521268 0 0 0
115 1 3.529915206757952 3.529915206757952 7.060044438590883 0 0 0
151 1 5.554715168300022e-05 5.554715168243939e-05 10.59040681239516 0 0 0
152 1 1.7650291579525699 1.7650291579525694 10.590406812395162 0 0 0
153 1 3.5299560625624005 5.51611998057026e-05 10.59064203519518 0 0 0
156 1 5.5161199805835576e-05 3.5299560625624005 10.59064203519518 0 0 0
158 1 3.529915206757952 3.529915206757951 10.590802612451652 0 0 0
106 1 5.294839048399918 1.7649547107332397 7.0599797771645045 0 0 0
107 1 5.295038984751986 3.705962472854286e-05 8.825423525521268 0 0 0
109 1 7.059820566469653 0.0001278024162310956 7.05982793374143 0 0 0
110 1 7.060053433349054 1.7649740273491012 8.825423525521268 0 0 0
117 1 5.295011404685419 3.5299785343546115 8.825423525521268 0 0 0
119 1 7.059959874885766 3.5298824132448465 7.059969761732925 0 0 0
154 1 5.294839048399918 1.7649547107332395 10.590867273878033 0 0 0
155 1 7.059820566469654 0.00012780241622974888 10.591019117301105 0 0 0
160 1 7.059959874885766 3.5298824132448465 10.59087728930961 0 0 0
351 1 8.825160718883106 1.7649751779857197 7.059956133924546 0 0 0
352 1 8.82528045614769 0.00010946326607320322 8.825423525521268 0 0 0
362 1 8.825286825734798 3.5299140236228745 8.825423525521268 0 0 0
401 1 8.825160718883106 1.7649751779857201 10.59089091711799 0 0 0
112 1 1.76495471073324 5.294839048399919 7.0599797771645045 0 0 0
114 1 3.705962472925992e-05 5.2950389847519865 8.825423525521268 0 0 0
118 1 3.529978534354612 5.295011404685419 8.825423525521268 0 0 0
121 1 0.0001278024162314869 7.059820566469654 7.059827933741431 0 0 0
122 1 1.7649751779857201 8.825160718883106 7.059956133924546 0 0 0
123 1 1.764974027349102 7.060053433349053 8.825423525521268 0 0 0
124 1 0.00010946326607340923 8.82528045614769 8.825423525521268 0 0 0
125 1 3.5298824132448465 7.059959874885766 7.059969761732925 0 0 0
128 1 3.5299140236228745 8.825286825734798 8.825423525521268 0 0 0
157 1 1.76495471073324 5.294839048399919 10.590867273878033 0 0 0
161 1 0.00012780241623101872 7.059820566469653 10.591019117301105 0 0 0
162 1 1.7649751779857197 8.825160718883106 10.59089091711799 0 0 0
163 1 3.529882413244847 7.059959874885766 10.59087728930961 0 0 0
116 1 5.294889193186874 5.294889193186874 7.059956360394987 0 0 0
120 1 7.060081204123948 5.294966792268627 8.825423525521268 0 0 0
126 1 5.294963416574623 8.825299869150381 7.06013971251931 0 0 0
127 1 5.294966792268627 7.060081204123948 8.825423525521268 0 0 0
129 1 7.0600878448717035 7.0600878448717035 7.0601391444230375 0 0 0
130 1 7.060129311975269 8.825334984031269 8.825423525521268 0 0 0
159 1 5.294889193186874 5.294889193186874 10.590890690647548 0 0 0
164 1 5.294963416574623 8.825299869150381 10.590707338523227 0 0 0
165 1 7.0600878448717035 7.060087844871704 10.590707906619498 0 0 0
361 1 8.825299869150381 5.294963416574623 7.060139712519309 0 0 0
371 1 8.825339794496793 8.825339794496793 7.060198908027246 0 0 0
372 1 8.825334984031269 7.0601293119752695 8.825423525521268 0 0 0
406 1 8.825299869150381 5.294963416574622 10.590707338523227 0 0 0
411 1 8.825339794496793 8.825339794496793 10.590648143015292 0 0 0
131 1 0.00010952711853189344 10.590771037263682 7.059956133924547 0 0 0
132 1 1.7649569026880216 12.356111189677135 7.05982793374143 0 0 0
133 1 1.7649752418381794 10.590651299999099 8.825423525521268 0 0 0
134 1 0.00011067775515054549 12.355878322797736 8.825423525521268 0 0 0
135 1 3.529902625545253 10.590641188735534 7.060088919056102 0 0 0
138 1 3.5299070917467956 12.35590297320235 8.825423525521268 0 0 0
166 1 0.00010952711853273007 10.59077103726368 10.59089091711799 0 0 0
167 1 1.7649569026880219 12.356111189677135 10.591019117301105 0 0 0
168 1 3.529902625545253 10.590641188735534 10.590758131986433 0 0 0
136 1 5.294926772633591 12.355892714076676 7.060088049566242 0 0 0
137 1 5.294973590686758 10.590604293159618 8.825423525521268 0 0 0
139 1 7.0601197357025365 10.5905962030117 7.0601813644254445 0 0 0
140 1 7.060110290496503 12.355821465650287 8.825423525521268 0 0 0
169 1 5.294926772633591 12.355892714076676 10.590759001476293 0 0 0
170 1 7.0601197357025365 10.5905962030117 10.590665686617092 0 0 0
381 1 8.82533555313509 12.355812020444251 7.060181364425444 0 0 0
382 1 8.825346986079083 10.590584770067707 8.825423525521268 0 0 0
416 1 8.825335553135089 12.355812020444251 10.590665686617093 0 0 0
141 1 0.00012999437101156745 14.12109270774687 7.059979777164504 0 0 0
142 1 1.765029543904447 15.885975693584388 7.060205015847354 0 0 0
143 1 1.765047645479524 14.120892771394802 8.825423525521268 0 0 0
144 1 3.611717106170803e-05 15.885837369646975 8.825423525521268 0 0 0
145 1 3.529844105338975 14.1211270717046 7.059828764753371 0 0 0
148 1 3.530060381773058 15.88587137437373 8.825423525521268 0 0 0
171 1 0.00012999437101288085 14.121092707746872 10.590867273878033 0 0 0
172 1 1.7650295439044466 15.885975693584388 10.59064203519518 0 0 0
173 1 3.5298441053389746 14.121127071704601 10.591018286289165 0 0 0
146 1 5.294804684442189 15.886087650807813 7.059828764753371 0 0 0
147 1 5.294933458272625 14.120998297874165 8.825423525521268 0 0 0
149 1 7.060039042070111 14.121004983513197 7.060088049566242 0 0 0
150 1 7.060028782944439 15.886024664399994 8.825423525521268 0 0 0
174 1 5.29480468444219 15.886087650807813 10.591018286289165 0 0 0
175 1 7.060039042070112 14.121004983513197 10.590759001476295 0 0 0
421 1 8.825290567411253 15.886029130601536 10.590758131986433 0 0 0
391 1 8.825290567411255 15.886029130601536 7.060088919056101 0 0 0
392 1 8.825327462987172 14.120958165460031 8.825423525521268 0 0 0
176 1 1.7648056366157148 0.0002790684885392405 12.355766886719493 0 0 0
177 1 0.00027906848853884007 1.7648056366157148 12.355766886719493 0 0 0
179 1 3.5294052975652 1.7647811279282257 12.35623946000643 0 0 0
181 1 1.764781127928226 3.5294052975651997 12.35623946000643 0 0 0
201 1 0.0007565505364697058 0.0007565505364708401 14.122613890620205 0 0 0
202 1 1.764328154567782 1.7643281545677827 14.122613890620205 0 0 0
203 1 1.759389829326391 0.005694875777860969 15.89745011812821 0 0 0
204 1 0.005694875777860417 1.759389829326392 15.89745011812821 0 0 0
205 1 3.527714010686009 0.0007114722048672935 14.12347512642599 0 0 0
208 1 3.523505043533786 1.7643459104781207 15.892145812839079 0 0 0
211 1 0.0007114722048691875 3.5277140106860094 14.12347512642599 0 0 0
213 1 1.7643459104781203 3.5235050435337856 15.892145812839079 0 0 0
215 1 3.528997441922401 3.5289974419224013 14.122150516698884 0 0 0
178 1 5.294069617459409 0.00029692498891255515 12.35685585710064 0 0 0
180 1 7.059384363456213 1.7649567473297272 12.356539013534254 0 0 0
183 1 5.294494370860268 3.529623242226864 12.3564236024267 0 0 0
206 1 5.292997727878882 1.7647892567584729 14.122884947670066 0 0 0
207 1 5.294264735314201 0.0006950203780014748 15.886728270416635 0 0 0
209 1 7.059733085518976 0.00029277857606458936 14.1212809315898 0 0 0
210 1 7.060266520188202 1.7650459956730182 15.886088715559168 0 0 0
217 1 5.293796366883821 3.5290409251636365 15.886711644170223 0 0 0
219 1 7.059579306302238 3.5296920288026565 14.121305880125734 0 0 0
426 1 8.825177268040637 0.00012577871890585274 12.355957371395268 0 0 0
431 1 8.825179579725937 3.5298961305398113 12.355977252019386 0 0 0
451 1 8.82533502056497 1.7650542589655118 14.120885965133539 0 0 0
452 1 8.825404726626205 4.7785048692763035e-05 15.885808632885372 0 0 0
462 1 8.825405495783809 3.530066884326931 15.88583898881222 0 0 0
182 1 0.00029692498891224246 5.294069617459409 12.35685585710064 0 0 0
184 1 3.5296232422268643 5.294494370860268 12.3564236024267 0 0 0
186 1 1.7649567473297276 7.059384363456212 12.356539013534253 0 0 0
187 1 0.00012577871890588022 8.825177268040637 12.355957371395268 0 0 0
189 1 3.5298961305398113 8.825179579725937 12.355977252019386 0 0 0
212 1 1.7647892567584733 5.292997727878882 14.122884947670066 0 0 0
214 1 0.0006950203780019334 5.294264735314201 15.886728270416636 0 0 0
218 1 3.5290409251636365 5.293796366883821 15.886711644170223 0 0 0
221 1 0.0002927785760646949 7.0597330855189755 14.1212809315898 0 0 0
222 1 1.765054258965512 8.82533502056497 14.120885965133539 0 0 0
223 1 1.7650459956730185 7.060266520188202 15.886088715559168 0 0 0
224 1 4.778504869269848e-05 8.825404726626205 15.885808632885372 0 0 0
225 1 3.529692028802656 7.059579306302238 14.121305880125734 0 0 0
228 1 3.5300668843269305 8.825405495783809 15.885838988812221 0 0 0
185 1 7.059920634786359 5.294845743310816 12.35602708291754 0 0 0
188 1 5.294845743310817 7.059920634786359 12.35602708291754 0 0 0
190 1 7.060087740367691 8.825295570123686 12.355861567143082 0 0 0
216 1 5.294518138097187 5.294518138097187 14.121358009882478 0 0 0
220 1 7.059586985710039 5.294575614720984 15.886161348070326 0 0 0
226 1 5.29491418596517 8.825178272432826 14.120990614628795 0 0 0
227 1 5.294575614720984 7.059586985710039 15.886161348070326 0 0 0
229 1 7.059935175263753 7.059935175263754 14.121048823550105 0 0 0
230 1 7.059977289545091 8.8251842519772 15.88597647634722 0 0 0
436 1 8.825295570123684 7.060087740367691 12.355861567143082 0 0 0
461 1 8.825178272432826 5.294914185965169 14.120990614628795 0 0 0
471 1 8.82530293186986 8.825302931869862 14.120944028104987 0 0 0
472 1 8.8251842519772 7.059977289545091 15.88597647634722 0 0 0
191 1 1.7649589263853462 10.590754488106151 12.355957371395268 0 0 0
192 1 0.00012795777452541136 12.356547392690574 12.356539013534253 0 0 0
194 1 3.5297957737503602 12.35613946856593 12.356128089958247 0 0 0
231 1 3.0446138741498334e-05 10.59059673558182 14.12088596513354 0 0 0
232 1 1.7647919265281886 12.356198670627812 14.1212809315898 0 0 0
233 1 1.765036920055561 10.590527029520585 15.885808632885372 0 0 0
234 1 3.870943123387245e-05 12.355665235958586 15.886088715559168 0 0 0
235 1 3.5299531995916396 10.590753119089413 14.120919346117658 0 0 0
238 1 3.52967487705598 12.356118746289656 15.886099219867772 0 0 0
193 1 5.294941930629198 10.590643221604246 12.355898455691346 0 0 0
195 1 7.060040512019711 12.355891244127077 12.355903787804696 0 0 0
236 1 5.294777744225711 12.356131464683775 14.121101039694166 0 0 0
237 1 5.294961622493581 10.590747301360658 15.88590898727354 0 0 0
239 1 7.06005977001884 10.59063260512483 14.120953779015668 0 0 0
240 1 7.0598578177873845 12.356073938359403 15.885998480578833 0 0 0
441 1 8.825334350580436 10.590597405566355 12.3558276634131 0 0 0
481 1 8.825299151021959 12.35587198612795 14.120953779015668 0 0 0
482 1 8.825293521814771 10.590638234332019 15.885956825235624 0 0 0
196 1 1.764787780115339 14.121862138687378 12.35685585710064 0 0 0
197 1 0.0003035771760267375 15.886526458581589 12.35623946000643 0 0 0
199 1 3.529400756727475 15.886530999419314 12.356685678212417 0 0 0
241 1 0.00029544834578002665 14.122934028267906 14.122884947670064 0 0 0
242 1 1.7643732328993846 15.88821774546078 14.12347512642599 0 0 0
243 1 1.7643896847262512 14.121667020832588 15.886728270416636 0 0 0
244 1 0.0007387946261318456 15.892426712613004 15.892145812839077 0 0 0
245 1 3.5294123808492883 14.121675716012314 14.12162118601546 0 0 0
248 1 3.5284631385572633 15.887468617589526 15.88723192073484 0 0 0
198 1 5.294710865539602 14.121220890607187 12.356178536564169 0 0 0
200 1 7.0597922875808585 15.88613598239643 12.356128089958245 0 0 0
246 1 5.294256040134473 15.886519375297501 14.12162118601546 0 0 0
247 1 5.294273850785286 14.121657905361502 15.886344885322666 0 0 0
249 1 7.059800291463012 14.121154011921076 14.121101039694166 0 0 0
250 1 7.059813009857132 15.886256879090809 15.886099219867772 0 0 0
492 1 8.82518445478613 14.120970133653207 15.88590898727354 0 0 0
491 1 8.825178637057375 15.885978556555148 14.120919346117658 0 0 0
446 1 8.825288534542544 14.12098982551759 12.355898455691346 0 0 0
251 1 8.82557077385818 1.7650948726388453 3.222832649396504e-19 0 0 0
254 1 12.355508657483295 1.7648038717820616 6.68502321266305e-20 0 0 0
255 1 12.355665235958586 3.8709431234748565e-05 1.7647583354833665 0 0 0
256 1 10.590527029520585 1.7650369200555605 1.7650384181571663 0 0 0
263 1 10.590598857402151 3.5300321015427443 0 0 0 0
265 1 12.356118746289656 3.52967487705598 1.764747831174763 0 0 0
303 1 10.59059673558182 3.044613874112357e-05 3.5299610859089965 0 0 0
304 1 12.356198670627812 1.7647919265281882 3.5295661194527357 0 0 0
305 1 12.356547392690574 0.00012795777452558123 5.2943080375082845 0 0 0
306 1 10.590754488106151 1.7649589263853462 5.294889679647267 0 0 0
313 1 10.590753119089413 3.5299531995916396 3.5299277049248783 0 0 0
315 1 12.35613946856593 3.5297957737503607 5.29471896108429 0 0 0
257 1 14.12157364868839 0.00022831763552375823 0 0 0 0
258 1 15.892027523399278 1.7594547077017784 0 0 0 0
259 1 15.892426712613004 0.0007387946261317941 1.7587012382034566 0 0 0
260 1 14.12166702083259 1.7643896847262515 1.7641187806259 0 0 0
267 1 14.122406062852436 3.528215937493697 0 0 0 0
269 1 15.887468617589525 3.528463138557263 1.7636151303076948 0 0 0
307 1 14.122934028267908 0.00029544834578011897 3.5279621033724715 0 0 0
308 1 15.888217745460778 1.7643732328993846 3.5273719246165456 0 0 0
309 1 15.886526458581589 0.0003035771760273491 5.294607591036106 0 0 0
310 1 14.121862138687378 1.7647877801153395 5.293991193941897 0 0 0
317 1 14.121675716012314 3.5294123808492883 3.529225865027077 0 0 0
319 1 15.886530999419314 3.529400756727475 5.29416137283012 0 0 0
264 1 12.356365013364305 5.294429964207051 0 0 0 0
266 1 10.590747301360658 5.294961622493582 1.7649380637689962 0 0 0
273 1 10.590758503079844 7.059965217279293 1.5080424472647792e-19 0 0 0
274 1 12.355966538867495 8.825173253066945 5.183139623813896e-17 0 0 0
275 1 12.356073938359405 7.059857817787385 1.7648485704637031 0 0 0
276 1 10.590638234332019 8.825293521814771 1.7648902258069104 0 0 0
314 1 12.356131464683777 5.294777744225712 3.5297460113483687 0 0 0
316 1 10.590643221604246 5.294941930629198 5.2949485953511894 0 0 0
323 1 10.59063260512483 7.0600597700188406 3.5298932720268676 0 0 0
324 1 12.35587198612795 8.825299151021959 3.529893272026868 0 0 0
325 1 12.355891244127077 7.060040512019712 5.2949432632378395 0 0 0
326 1 10.590597405566353 8.825334350580436 5.295019387629436 0 0 0
268 1 15.88771581865309 5.293525693294352 6.080816319616045e-19 0 0 0
270 1 14.121657905361502 5.294273850785286 1.7645021657198696 0 0 0
277 1 14.121501791939739 7.059566742782482 1.942077284061343e-17 0 0 0
278 1 15.885899654604044 8.825332898744637 0 0 0 0
279 1 15.886256879090809 7.059813009857132 1.764747831174763 0 0 0
280 1 14.120970133653207 8.82518445478613 1.7649380637689966 0 0 0
318 1 15.886519375297501 5.294256040134473 3.5292258650270774 0 0 0
320 1 14.121220890607187 5.294710865539603 5.294668514478365 0 0 0
327 1 14.121154011921076 7.059800291463013 3.5297460113483696 0 0 0
328 1 15.885978556555148 8.825178637057377 3.529927704924879 0 0 0
329 1 15.88613598239643 7.0597922875808585 5.29471896108429 0 0 0
330 1 14.12098982551759 8.825288534542544 5.2949485953511894 0 0 0
283 1 10.590756264045575 10.590756264045575 0 0 0 0
284 1 12.356522050096046 12.356522050096046 6.886574516853777e-17 0 0 0
285 1 12.355954466601698 10.590747504169588 1.7648705746953157 0 0 0
286 1 10.590747504169588 12.355954466601696 1.7648705746953153 0 0 0
333 1 10.590628824276926 10.590628824276928 3.52990302293755 0 0 0
334 1 12.355996580883035 12.355996580883035 3.529798227492429 0 0 0
335 1 12.355844015779098 10.590636186023104 5.2949854838994534 0 0 0
336 1 10.590636186023103 12.355844015779098 5.294985483899454 0 0 0
287 1 14.120942998580764 10.590597368059134 0 0 0 0
288 1 15.886163423445906 12.355742984272231 6.567281625185329e-20 0 0 0
289 1 15.885864871819859 10.590526260362982 1.7650080622303155 0 0 0
290 1 14.121356141425803 12.356344770436749 1.76468570297221 0 0 0
337 1 14.121017570181618 10.590753483713963 3.5298564364137404 0 0 0
338 1 15.886239727344131 12.35635244984455 3.5295411709168025 0 0 0
339 1 15.886035625606977 10.590752176420851 5.294869799023151 0 0 0
340 1 14.121086012835972 12.35601112136043 5.294819968124993 0 0 0
31 1 17.650836883507942 10.590360982288608 0 -1 0 0
253 1 10.590360982288608 17.650836883507946 9.48607345860103e-19 0 -1 0
346 1 10.590752176420851 15.886035625606977 5.29486979902315 0 0 0
345 1 12.356011121360432 14.121086012835972 5.294819968124994 0 0 0
344 1 12.35635244984455 15.886239727344131 3.5295411709168025 0 0 0
343 1 10.590753483713963 14.121017570181618 3.52985643641374 0 0 0
296 1 10.590526260362982 15.885864871819859 1.7650080622303157 0 0 0
295 1 12.356344770436749 14.121356141425805 1.7646857029722103 0 0 0
294 1 12.355742984272231 15.886163423445906 0 0 0 0
293 1 10.590597368059132 14.120942998580766 3.2593175473142e-19 0 0 0
350 1 14.121437385286521 15.886308513919925 5.294423448615837 0 0 0
349 1 15.886308513919925 14.12143738528652 5.294423448615836 0 0 0
348 1 15.886934314224389 15.886934314224387 3.5286965343436516 0 0 0
347 1 14.121413618049601 14.121413618049601 3.529489041160057 0 0 0
300 1 14.122135389262969 15.886890830983152 1.764135406872313 0 0 0
299 1 15.886890830983152 14.12213538926297 1.7641354068723136 0 0 0
298 1 15.892923852982753 15.892923852982754 0 0 0 0
297 1 14.123037814690704 14.123037814690704 5.325384210710155e-17 0 0 0
353 1 10.590771037263682 0.00010952711853209412 7.059956133924545 0 0 0
354 1 12.356111189677135 1.7649569026880223 7.05982793374143 0 0 0
355 1 12.355878322797734 0.00011067775515001106 8.825423525521268 0 0 0
356 1 10.5906512999991 1.764975241838179 8.825423525521268 0 0 0
363 1 10.590641188735534 3.5299026255452537 7.060088919056102 0 0 0
365 1 12.355902973202348 3.5299070917467956 8.825423525521268 0 0 0
402 1 10.590771037263682 0.00010952711853270773 10.590890917117989 0 0 0
403 1 12.356111189677135 1.7649569026880212 10.591019117301105 0 0 0
407 1 10.590641188735534 3.5299026255452537 10.590758131986433 0 0 0
357 1 14.12109270774687 0.00012999437101363564 7.059979777164504 0 0 0
358 1 15.885975693584388 1.765029543904447 7.060205015847354 0 0 0
359 1 15.885837369646973 3.611717106174213e-05 8.825423525521268 0 0 0
360 1 14.120892771394802 1.7650476454795248 8.825423525521268 0 0 0
367 1 14.1211270717046 3.5298441053389755 7.05982876475337 0 0 0
369 1 15.88587137437373 3.5300603817730583 8.825423525521268 0 0 0
404 1 14.12109270774687 0.00012999437101251306 10.59086727387803 0 0 0
405 1 15.885975693584388 1.7650295439044466 10.59064203519518 0 0 0
409 1 14.121127071704601 3.529844105338975 10.591018286289163 0 0 0
364 1 12.355892714076676 5.294926772633591 7.060088049566242 0 0 0
366 1 10.590604293159618 5.294973590686758 8.825423525521268 0 0 0
373 1 10.5905962030117 7.0601197357025365 7.0601813644254445 0 0 0
374 1 12.355812020444251 8.82533555313509 7.060181364425444 0 0 0
375 1 12.355821465650285 7.060110290496503 8.825423525521268 0 0 0
376 1 10.590584770067705 8.825346986079083 8.825423525521268 0 0 0
408 1 12.355892714076678 5.294926772633591 10.590759001476295 0 0 0
412 1 10.590596203011698 7.0601197357025365 10.590665686617093 0 0 0
413 1 12.355812020444251 8.82533555313509 10.590665686617093 0 0 0
368 1 15.886087650807813 5.29480468444219 7.05982876475337 0 0 0
370 1 14.120998297874165 5.294933458272625 8.825423525521268 0 0 0
377 1 14.121004983513197 7.060039042070111 7.060088049566242 0 0 0
378 1 15.886029130601536 8.825290567411255 7.060088919056102 0 0 0
379 1 15.886024664399994 7.060028782944439 8.825423525521268 0 0 0
380 1 14.120958165460031 8.82532746298717 8.825423525521268 0 0 0
410 1 15.886087650807813 5.294804684442189 10.591018286289165 0 0 0
414 1 14.121004983513197 7.060039042070112 10.590759001476293 0 0 0
415 1 15.886029130601536 8.825290567411255 10.590758131986433 0 0 0
383 1 10.590591961649995 10.590591961649997 7.060198908027246 0 0 0
384 1 12.355843911275086 12.355843911275086 7.0601391444230375 0 0 0
385 1 12.35580244417152 10.590596772115521 8.82542352552127 0 0 0
386 1 10.590596772115521 12.35580244417152 8.825423525521268 0 0 0
417 1 10.590591961649995 10.590591961649997 10.59064814301529 0 0 0
418 1 12.355843911275086 12.355843911275086 10.590707906619498 0 0 0
387 1 14.120968339572167 10.590631886996407 7.060139712519309 0 0 0
388 1 15.886049342901943 12.355971881261022 7.059969761732925 0 0 0
389 1 15.886017732523914 10.59064493041199 8.825423525521268 0 0 0
390 1 14.120964963878162 12.35585055202284 8.825423525521268 0 0 0
419 1 14.120968339572165 10.590631886996409 10.590707338523227 0 0 0
420 1 15.886049342901943 12.355971881261022 10.590877289309612 0 0 0
423 1 12.355971881261022 15.886049342901943 10.59087728930961 0 0 0
422 1 10.590631886996407 14.120968339572167 10.590707338523227 0 0 0
396 1 10.59064493041199 15.886017732523914 8.825423525521268 0 0 0
395 1 12.35585055202284 14.120964963878162 8.825423525521268 0 0 0
394 1 12.355971881261022 15.886049342901943 7.059969761732925 0 0 0
393 1 10.590631886996409 14.120968339572167 7.060139712519309 0 0 0
425 1 15.886016549388836 15.886016549388836 10.590802612451652 0 0 0
424 1 14.121042562959916 14.121042562959916 10.590890690647548 0 0 0
400 1 14.120920351461368 15.885953221792176 8.825423525521268 0 0 0
399 1 15.885953221792176 14.12092035146137 8.825423525521268 0 0 0
398 1 15.886016549388836 15.886016549388836 7.060044438590884 0 0 0
397 1 14.121042562959914 14.121042562959914 7.059956360394987 0 0 0
427 1 12.356547392690574 0.00012795777452585127 12.356539013534253 0 0 0
428 1 10.590754488106151 1.764958926385347 12.355957371395268 0 0 0
432 1 12.35613946856593 3.5297957737503607 12.356128089958247 0 0 0
453 1 10.59059673558182 3.0446138741724618e-05 14.12088596513354 0 0 0
454 1 12.356198670627812 1.7647919265281886 14.1212809315898 0 0 0
455 1 12.355665235958586 3.870943123430236e-05 15.886088715559168 0 0 0
456 1 10.590527029520585 1.7650369200555602 15.885808632885372 0 0 0
463 1 10.590753119089413 3.52995319959164 14.120919346117658 0 0 0
465 1 12.356118746289656 3.5296748770559803 15.886099219867772 0 0 0
429 1 15.886526458581589 0.00030357717602695703 12.35623946000643 0 0 0
430 1 14.121862138687378 1.764787780115339 12.35685585710064 0 0 0
434 1 15.886530999419314 3.5294007567274748 12.356685678212417 0 0 0
457 1 14.122934028267906 0.0002954483457804334 14.122884947670064 0 0 0
458 1 15.888217745460778 1.7643732328993842 14.12347512642599 0 0 0
459 1 15.892426712613004 0.0007387946261317341 15.892145812839077 0 0 0
460 1 14.121667020832588 1.7643896847262512 15.886728270416635 0 0 0
467 1 14.121675716012316 3.529412380849288 14.12162118601546 0 0 0
469 1 15.887468617589526 3.5284631385572633 15.88723192073484 0 0 0
433 1 10.590643221604246 5.294941930629198 12.355898455691346 0 0 0
437 1 12.355891244127077 7.060040512019711 12.355903787804696 0 0 0
438 1 10.590597405566353 8.825334350580436 12.355827663413098 0 0 0
464 1 12.356131464683777 5.294777744225712 14.121101039694166 0 0 0
466 1 10.590747301360658 5.294961622493582 15.88590898727354 0 0 0
473 1 10.59063260512483 7.0600597700188406 14.120953779015668 0 0 0
474 1 12.35587198612795 8.825299151021959 14.120953779015668 0 0 0
475 1 12.356073938359403 7.059857817787385 15.885998480578833 0 0 0
476 1 10.590638234332017 8.82529352181477 15.885956825235624 0 0 0
435 1 14.121220890607187 5.294710865539602 12.356178536564169 0 0 0
439 1 15.886135982396429 7.0597922875808585 12.356128089958247 0 0 0
440 1 14.12098982551759 8.825288534542542 12.355898455691346 0 0 0
468 1 15.8865193752975 5.294256040134474 14.12162118601546 0 0 0
470 1 14.121657905361504 5.294273850785286 15.886344885322668 0 0 0
477 1 14.121154011921076 7.059800291463012 14.121101039694166 0 0 0
478 1 15.885978556555148 8.825178637057375 14.120919346117658 0 0 0
479 1 15.886256879090809 7.059813009857132 15.886099219867772 0 0 0
480 1 14.120970133653207 8.82518445478613 15.88590898727354 0 0 0
442 1 12.355844015779098 10.590636186023103 12.355861567143082 0 0 0
443 1 10.590636186023103 12.355844015779098 12.355861567143084 0 0 0
483 1 10.590628824276928 10.590628824276928 14.120944028104987 0 0 0
484 1 12.355996580883035 12.355996580883035 14.121048823550106 0 0 0
485 1 12.355954466601698 10.590747504169588 15.88597647634722 0 0 0
486 1 10.590747504169588 12.355954466601698 15.88597647634722 0 0 0
444 1 15.886035625606976 10.590752176420851 12.355977252019386 0 0 0
445 1 14.121086012835972 12.35601112136043 12.356027082917542 0 0 0
487 1 14.121017570181618 10.590753483713963 14.120990614628795 0 0 0
488 1 15.886239727344131 12.35635244984455 14.121305880125734 0 0 0
489 1 15.885864871819859 10.590526260362982 15.88583898881222 0 0 0
490 1 14.121356141425805 12.356344770436749 15.886161348070326 0 0 0
496 1 10.59052626036298 15.885864871819859 15.885838988812221 0 0 0
495 1 12.356344770436749 14.121356141425805 15.886161348070326 0 0 0
494 1 12.35635244984455 15.886239727344131 14.121305880125734 0 0 0
493 1 10.590753483713963 14.12101757018162 14.120990614628795 0 0 0
448 1 10.590752176420851 15.886035625606976 12.355977252019386 0 0 0
447 1 12.35601112136043 14.121086012835974 12.356027082917542 0 0 0
500 1 14.122135389262969 15.886890830983154 15.886711644170223 0 0 0
499 1 15.886890830983152 14.12213538926297 15.886711644170223 0 0 0
498 1 15.886934314224389 15.886934314224389 14.122150516698884 0 0 0
497 1 14.1214136180496 14.121413618049601 14.121358009882478 0 0 0
450 1 14.121437385286521 15.886308513919925 12.356423602426698 0 0 0
449 1 15.886308513919923 14.121437385286521 12.356423602426698 0 0 0

Velocities

1 -4.939957421252971e-09 -4.9399581391054835e-09 -1.343621482133525e-15
2 4.939957347700172e-09 4.93995580822298e-09 -1.111844638302726e-16
3 2.610199891268646e-09 -2.6101971181123634e-09 1.4928957814195537e-09
4 -2.6101986410528108e-09 2.6101989086087288e-09 1.492896969002981e-09
5 2.3562970121097117e-09 -3.190447542411937e-09 -1.1871851413777142e-15
8 -5.833634123130131e-09 -1.0626839274061106e-10 -1.682970952609608e-09
11 -3.1904538470218936e-09 2.3562974271064227e-09 4.621420402908195e-16
13 -1.062668428238158e-10 -5.83363297939509e-09 -1.6829701410373772e-09
15 -3.4082989335661637e-09 -3.408298457949533e-09 -3.5997660633492665e-16
51 5.434403362022926e-10 5.434478338488147e-10 -4.755669948703946e-09
52 -5.434431966182893e-10 -5.434435651157583e-10 -4.755669430770416e-09
53 -7.861892770749946e-11 7.862059628349756e-11 7.736386809903873e-09
54 7.861855799386723e-11 -7.861937403941732e-11 7.736385277091601e-09
55 1.4080899281619221e-09 -5.72924215887613e-09 -4.836707022908239e-09
58 3.4046249696956246e-10 -4.2129338490562595e-09 4.335659971040441e-09
61 -5.729242559051742e-09 1.4080909967632515e-09 -4.8367069957200424e-09
63 -4.212933316186404e-09 3.404644289993029e-10 4.335656978081058e-09
65 1.2519507053101166e-09 1.251952877346233e-09 -1.812019242098402e-10
6 6.196809204117263e-09 -4.2588689785243795e-09 -4.2635029011229037e-16
7 5.4271771585367916e-09 -5.288225384373623e-09 -1.005888386019398e-09
9 4.889754850317028e-09 -3.0047770054611924e-10 -1.9519420385967507e-16
10 3.869804353742621e-09 -4.994369502510396e-09 -1.5884668988589604e-09
17 -3.1947931734049026e-09 5.957038977518019e-10 3.3534359563194575e-09
19 -6.140454799788026e-10 -7.655537702839289e-10 -6.685857543417842e-16
56 -5.576835352995608e-10 -3.877881708807722e-09 1.3045883635549506e-09
57 2.5198993386428348e-09 -7.031473909786497e-10 -6.140013234888708e-10
59 -1.400283921821925e-09 -7.31733204231652e-10 2.376159244881552e-09
60 1.2214020392029663e-09 -6.803939279788876e-09 1.1963598523508247e-09
67 -3.873970761446693e-09 -1.5246047725525578e-09 -1.7410721012985163e-09
69 5.3080199172759905e-09 -3.400713948915864e-09 2.669874986824014e-09
252 3.768271175893994e-09 3.31830040512011e-09 4.1606715992525257e-11
262 -1.3970003895519036e-09 -2.310505935888452e-09 -1.8122166866930216e-09
301 -2.2405341670134004e-09 -2.015508402307734e-09 3.479980921356424e-09
302 2.4546406281723914e-09 1.1815280043903483e-09 1.5501974801941505e-09
312 -3.0440013628178143e-10 8.466607367244262e-11 4.178319770032458e-09
12 -4.258867432951152e-09 6.196809538291374e-09 -3.283640812592665e-17
14 -5.288225815847922e-09 5.4271762317123075e-09 -1.0058884507340701e-09
18 5.957037076930374e-10 -3.1947930980058235e-09 3.3534360922527215e-09
21 -3.004778467897517e-10 4.8897562114317505e-09 5.959199993223725e-17
23 -4.994368849430723e-09 3.869804845072579e-09 -1.5884684050771627e-09
24 3.318300028109498e-09 3.768270998334157e-09 4.160750224207538e-11
25 -7.655539752478193e-10 -6.140451609700632e-10 2.0918067522451068e-16
28 -2.310506300528403e-09 -1.3970002359127158e-09 -1.8122143505461241e-09
62 -3.877880964515804e-09 -5.576877638184686e-10 1.304589526625087e-09
64 -7.031451350162823e-10 2.519898308006227e-09 -6.140000576490787e-10
68 -1.524606025726539e-09 -3.873971033703116e-09 -1.7410725007830593e-09
71 -7.317343069876915e-10 -1.4002817483386456e-09 2.376158627070614e-09
72 -2.0155091216683046e-09 -2.240533313304794e-09 3.47997994720965e-09
73 -6.803939023178428e-09 1.2214022295325172e-09 1.1963598510586513e-09
74 1.1815284811263479e-09 2.4546418029861045e-09 1.5501982512416597e-09
75 -3.4007127277810577e-09 5.308018564306959e-09 2.66987546897871e-09
78 8.46675909887286e-11 -3.0439955590230587e-10 4.178319946703331e-09
16 -1.2785292896947409e-09 -1.278529610153761e-09 1.9188434546500124e-16
20 -2.8282569866948133e-09 -3.2100824058991656e-09 -3.4018455799920077e-09
26 -4.881971016157099e-09 -7.038089838207523e-09 -8.133972180044452e-16
27 -3.2100823080093058e-09 -2.8282564722577528e-09 -3.4018457718417625e-09
29 -2.138700350907569e-09 -2.1386987224649587e-09 -2.930953466054934e-16
30 7.495358700077757e-10 -1.5822093405882687e-09 -2.978470165737637e-09
66 -2.8816598458129678e-09 -2.881659299112693e-09 6.834054935430777e-09
70 -3.1994405681008993e-09 6.349487943121108e-09 3.3032130105117557e-09
76 2.4250687767531806e-10 5.431979368648288e-09 5.390504679816984e-09
77 6.349489182503707e-09 -3.199439975216581e-09 3.303214742813254e-09
79 -4.055370182096347e-09 -4.0553702964156936e-09 1.1042907323645861e-08
80 4.55790116248328e-10 -3.3079160515838365e-09 4.016973051390825e-09
261 -7.0380861288491556e-09 -4.881973806134202e-09 -3.989015505668126e-16
271 -2.246075564188655e-09 -2.2460755376112126e-09 -2.797175507023381e-16
272 -1.5822095611542184e-09 7.49536502412673e-10 -2.9784686996528223e-09
311 5.431979093792866e-09 2.425075397617929e-10 5.390504575355211e-09
321 -3.3654351542370664e-09 -3.3654380290222577e-09 1.2085974625530138e-09
322 -3.307915824161306e-09 4.5579130641610215e-10 4.016972481922376e-09
22 -1.2598870307113678e-09 2.357811207411967e-09 9.942134682572234e-17
32 3.0047724843742587e-10 -4.8897602841344905e-09 -2.4870538747229624e-16
33 -3.3183032509421474e-09 -3.76827208011138e-09 4.160647275987247e-11
34 4.994368932129825e-09 -3.869804317257723e-09 -1.5884667766345523e-09
35 2.849248762433229e-09 -2.2397004185332924e-09 4.2309729091318327e-16
38 2.099856857576065e-09 -2.598412235826009e-09 -3.4593487304344977e-09
81 2.015509829475324e-09 2.2405350649979503e-09 3.4799796620193645e-09
82 7.31731986548184e-10 1.400281444763392e-09 2.376159674491225e-09
83 -1.1815276833232467e-09 -2.454641027073942e-09 1.5501980738718488e-09
84 6.803940027729284e-09 -1.2214022568961905e-09 1.1963595690227892e-09
85 2.36221445298998e-09 -1.1347618793877268e-08 2.2202609635057644e-09
88 4.409650245987781e-09 -3.884482977390864e-09 -5.081415176838074e-10
36 3.3276204940463554e-09 -1.502661059887004e-09 -5.406273265536138e-16
37 8.668772622555107e-11 -5.935019903022562e-09 -4.676638236552818e-09
39 1.7710380832764995e-09 -3.862014984010131e-09 -1.3268341209402212e-15
40 6.101823138077873e-09 -6.101823560694607e-09 -6.118840831579338e-09
86 1.112970035748923e-09 -1.2305108097790855e-08 5.758509183909362e-09
87 7.392903435630862e-09 -2.6622165477319192e-09 4.506618390984712e-09
89 1.7824693487635415e-10 -2.578615915435581e-09 7.205293163073268e-09
90 4.861885292334249e-09 -4.861881054765376e-09 3.678411283518399e-09
281 3.862015476252212e-09 -1.7710393411313602e-09 -1.6624951817830268e-15
282 7.568796207981189e-11 -7.569187326086866e-11 3.8897242183822554e-09
331 2.578614983854521e-09 -1.782457162807637e-10 7.205295479256203e-09
332 1.3086225673929296e-09 -1.308621679593747e-09 5.254699113453392e-10
41 4.258865302233113e-09 -6.196806154231581e-09 -3.0312869353285987e-16
42 3.1904480167352064e-09 -2.3562974985560146e-09 -1.348421018874858e-15
43 5.288226467711431e-09 -5.42717349331169e-09 -1.0058860348257463e-09
44 1.0626655094463246e-10 5.833630574356226e-09 -1.6829729394290474e-09
45 4.038705559032847e-09 -9.468985915370583e-09 -1.2091709189853694e-15
48 6.54501250904251e-10 -6.545036791490903e-10 3.564335179023715e-09
91 3.877880993703723e-09 5.576862656240934e-10 1.3045879141446196e-09
92 5.7292452358270865e-09 -1.4080944786386761e-09 -4.836708728448653e-09
93 7.031477959815037e-10 -2.519898339322431e-09 -6.139982810625807e-10
94 4.212933642118159e-09 -3.4046535814803657e-10 4.335659755189871e-09
95 2.406530462812347e-09 -4.514821311093052e-09 1.20468169579677e-09
98 1.1968317698282948e-09 -1.1968329209425606e-09 -3.1610435926625494e-09
100 3.884482923212215e-09 -4.4096500153775725e-09 -5.081412731730846e-10
46 9.468987017266758e-09 -4.038705001840313e-09 -5.056495684620098e-16
47 4.14102013860471e-09 -4.14101748160924e-09 -2.0743275032714226e-09
49 1.5026593200944923e-09 -3.3276200283935942e-09 -3.450863261382106e-16
50 2.5984099473107873e-09 -2.0998551567717405e-09 -3.4593494838476395e-09
96 4.514822433476591e-09 -2.406528954353922e-09 1.2046810778899283e-09
97 6.871236186747463e-09 -6.871236793770594e-09 -2.5587720462527743e-09
99 1.2305111074236726e-08 -1.1129738498770368e-09 5.758511468994624e-09
342 2.6622110931641157e-09 -7.392903950192627e-09 4.506616130456536e-09
341 1.1347619254779837e-08 -2.362213464819323e-09 2.220259057473889e-09
291 2.2397027105844733e-09 -2.8492493620017183e-09 1.396155426983844e-15
292 5.935022125128115e-09 -8.668549783677585e-11 -4.6766380490449975e-09
101 5.300513477053868e-09 5.300512714519501e-09 1.491942813520311e-09
102 -5.30051080635934e-09 -5.300511680780727e-09 1.4919428408839843e-09
103 1.1013733008485135e-09 -1.1013721333317802e-09 -3.47518652666057e-16
104 -1.1013719825275356e-09 1.10137483838292e-09 1.4107493861509225e-16
105 8.630197039035673e-12 3.5978590536144847e-10 -1.8049336057903793e-09
108 2.3969798802062108e-09 -3.927033050600984e-09 -3.140769835993326e-16
111 3.5978117577733764e-10 8.629680476064642e-12 -1.804933383473467e-09
113 -3.9270335406068514e-09 2.3969792630983673e-09 4.3477836685254723e-16
115 -2.9671222313916394e-09 -2.9671220315908016e-09 7.643453213134389e-09
151 5.300512139274277e-09 5.300513389490112e-09 -1.4919420430808831e-09
152 -5.300511409576319e-09 -5.300510460360891e-09 -1.4919466474750003e-09
153 8.630720131758293e-12 3.59784329215343e-10 1.804934939311227e-09
156 3.5978498236835373e-10 8.631135007328293e-12 1.8049342797857924e-09
158 -2.967122450754713e-09 -2.967120721453985e-09 -7.643452154277657e-09
106 -2.5861799131317356e-09 -6.416807121236925e-09 6.063260820476825e-11
107 -9.900631534472e-10 -2.7838292991522007e-09 6.372695502957616e-16
109 3.1241128384445147e-09 -1.1029271727361549e-11 4.987561786624096e-09
110 -5.981672714075721e-10 9.152157902163587e-10 7.296979583539254e-16
117 -1.6384876638976094e-09 8.251634470256907e-10 -1.5450588227807232e-16
119 -2.407408724738181e-09 -1.2217507899496868e-09 1.625462719733545e-09
154 -2.5861780751159286e-09 -6.416807622936929e-09 -6.063413863415053e-11
155 3.124110006000273e-09 -1.1025600548523886e-11 -4.9875621499528705e-09
160 -2.407409728072874e-09 -1.221752526149111e-09 -1.625460136792798e-09
351 -8.737265771820263e-10 1.966173784210445e-09 1.9149453293149017e-09
352 -1.218221771051644e-09 -4.696755159555918e-09 -2.327736487149022e-15
362 -3.21797592103374e-09 4.932114288546115e-10 -1.1667316904781428e-15
401 -8.737274233276172e-10 1.9661730818761603e-09 -1.9149448185263306e-09
112 -6.416807184477415e-09 -2.5861814588324885e-09 6.063201410901381e-11
114 -2.7838302897017395e-09 -9.900654461412017e-10 -1.0459004069739598e-16
118 8.251636355642511e-10 -1.6384883400561772e-09 -1.8382177091661187e-16
121 -1.1028606296030672e-11 3.1241115632973324e-09 4.987560380739363e-09
122 1.96617259358661e-09 -8.737272956304746e-10 1.9149450337872285e-09
123 9.152157543395425e-10 -5.98164400046106e-10 6.238917543926062e-16
124 -4.696754686468409e-09 -1.2182241206790697e-09 -6.786191012691507e-16
125 -1.2217501966596386e-09 -2.407408469727157e-09 1.6254623374550698e-09
128 4.932118485122923e-10 -3.2179765595141092e-09 -5.315016483512993e-16
157 -6.416807184477415e-09 -2.586181989837101e-09 -6.063393929546061e-11
161 -1.1029754354151817e-11 3.124112916982058e-09 -4.987560987604831e-09
162 1.9661745686357504e-09 -8.737288623527993e-10 -1.914944634885678e-09
163 -1.2217518542925428e-09 -2.4074085917000433e-09 -1.6254601569479724e-09
116 3.3193811738102913e-10 3.3193852984861965e-10 6.991805839132835e-09
120 -3.465510179860711e-09 3.778953058908133e-09 -3.45998448586153e-16
126 8.322617338454684e-09 -3.7087627032708863e-09 -3.8316528816315543e-10
127 3.7789528151030285e-09 -3.4655104349889604e-09 -8.123970603007037e-16
129 3.3572580742911578e-09 3.3572587127768713e-09 2.6781253070088766e-09
130 9.02700548804492e-09 -1.2297918368719465e-09 8.269910194677821e-17
159 3.3193914185309073e-10 3.3193845611976095e-10 -6.991804257046094e-09
164 8.322616739751405e-09 -3.7087621653580236e-09 3.831645719089081e-10
165 3.357258006718086e-09 3.357255545887732e-09 -2.6781264173279315e-09
361 -3.7087622034277846e-09 8.322617752199602e-09 -3.831623170763017e-10
371 3.777292008338282e-09 3.7772925347006315e-09 9.548527021980055e-09
372 -1.2297925687742009e-09 9.02700247408831e-09 7.448999991529656e-17
406 -3.708763436617334e-09 8.322619549688905e-09 3.8316418631923834e-10
411 3.7772914466608794e-09 3.777294771955284e-09 -9.548529411132786e-09
131 -1.9661691007657155e-09 8.737275023782294e-10 1.9149433506172714e-09
132 1.1028246311704551e-11 -3.124112692504923e-09 4.987561914321238e-09
133 4.6967534666566545e-09 1.2182234323306624e-09 -2.1526089771440801e-16
134 -9.15214360616442e-10 5.981663525962263e-10 1.651549712407718e-15
135 6.759106971762771e-09 -1.0036653129381192e-10 1.1757277495995471e-09
138 8.195078436748634e-09 -3.9393842149153235e-09 6.414533775789505e-16
166 -1.966174889702852e-09 8.73731846817449e-10 -1.9149445132693516e-09
167 1.102856251415317e-11 -3.1241124997430457e-09 -4.987561520284341e-09
168 6.759106504169374e-09 -1.0036687484083923e-10 -1.1757256957019932e-09
136 1.1459720159708232e-08 -3.305300671809994e-09 -2.4142971823116543e-09
137 4.082439223221308e-09 -1.7992666493416636e-09 -7.102393461311541e-16
139 6.669611470846683e-09 -5.8079485084094696e-09 1.929791315211326e-09
140 2.901354347111122e-09 -2.901352782517083e-09 -1.01184783558411e-15
169 1.1459720120620579e-08 -3.305299056747338e-09 2.414299963148382e-09
170 6.669611698269213e-09 -5.807948405035592e-09 -1.9297890318647983e-09
381 5.807945461312412e-09 -6.6696086426590124e-09 1.9297930810803854e-09
382 9.827366469361351e-09 -9.827369137623552e-09 -4.256571423731232e-16
416 5.807949995473101e-09 -6.669609454143951e-09 -1.9297931467532015e-09
141 6.416809869765902e-09 2.5861812882655905e-09 6.06343673849295e-11
142 -3.5978483642876204e-10 -8.632749768101967e-12 -1.8049342749211393e-09
143 2.7838274779322733e-09 9.90065046584063e-10 -4.0011771383073577e-16
144 3.9270338519446464e-09 -2.396982534577547e-09 -1.1042762436422739e-15
145 1.7470785126078688e-09 -8.693256851194497e-10 8.637580732417128e-09
148 3.4758824651013126e-09 -3.475882971187049e-09 9.866035404119226e-18
171 6.416807758506475e-09 2.5861770416134984e-09 -6.063449386590895e-11
172 -3.5978192736623474e-10 -8.631128014389526e-12 1.8049352277850566e-09
173 1.7470792299517936e-09 -8.693296050704923e-10 -8.637583202265678e-09
146 8.693280492153291e-10 -1.7470796535994163e-09 8.63758153853533e-09
147 7.0128967142087525e-09 -7.012897646378743e-09 7.734798358551609e-16
149 3.305303357630552e-09 -1.1459721360222895e-08 -2.414297857890347e-09
150 3.939383200599829e-09 -8.19507754319524e-09 -9.879800376998983e-16
174 8.693273537178057e-10 -1.747078177010261e-09 -8.637584580837361e-09
175 3.305300403037913e-09 -1.1459721394883549e-08 2.414296401534839e-09
421 1.003717455800702e-10 -6.759106263865489e-09 -1.1757265164491902e-09
391 1.0036606624964809e-10 -6.759106931539121e-09 1.175730773020614e-09
392 1.7992646883990964e-09 -4.082441427861645e-09 -1.3998039167756138e-15
176 -7.862123355304787e-11 7.86178593080721e-11 -7.736381927777972e-09
177 7.861824665607166e-11 -7.862061939059958e-11 -7.736382029327604e-09
179 3.4046414754064347e-10 -4.212932978759614e-09 -4.335656519870764e-09
181 -4.212932742157344e-09 3.4046548523709763e-10 -4.335658224040321e-09
201 5.434486450297117e-10 5.434443033268595e-10 4.755666599390317e-09
202 -5.434432841820443e-10 -5.434460211574698e-10 4.755668815239784e-09
203 2.610199618848075e-09 -2.610197283814608e-09 -1.492894674102902e-09
204 -2.610198259177546e-09 2.610198012904485e-09 -1.4928957175709823e-09
205 1.4080903604248263e-09 -5.729238573005979e-09 4.836707508500912e-09
208 -5.83363457297277e-09 -1.0626833053056435e-10 1.682970146896695e-09
211 -5.729243744810925e-09 1.4080916170065161e-09 4.836707238952695e-09
213 -1.0626648770414274e-10 -5.833633572502712e-09 1.6829707117219887e-09
215 1.251951693821632e-09 1.2519500765949804e-09 1.8120190516742837e-10
178 2.519899208013955e-09 -7.031448177712171e-10 6.139988451284391e-10
180 1.2214013520707221e-09 -6.803938378003816e-09 -1.196364975476579e-09
183 -3.873971167152687e-09 -1.524606091316219e-09 1.7410714988495077e-09
206 -5.576872914411793e-10 -3.877881277168126e-09 -1.3045901745550684e-09
207 5.427177363318376e-09 -5.2882245238390925e-09 1.0058900078673786e-09
209 -1.4002819127202129e-09 -7.317342258087936e-10 -2.3761559259720048e-09
210 3.869804707646131e-09 -4.994369219752436e-09 1.588468000094796e-09
217 -3.1947933720484406e-09 5.957044073004563e-10 -3.353436608275901e-09
219 5.3080193272052505e-09 -3.4007133229958842e-09 -2.6698755405063903e-09
426 2.454643483723735e-09 1.1815272017225942e-09 -1.5501987523009246e-09
431 -3.0439998433738365e-10 8.466714412473931e-11 -4.178320306360457e-09
451 -2.240532765119203e-09 -2.015509144167325e-09 -3.479976844169082e-09
452 3.7682696459606076e-09 3.3183014510205168e-09 -4.160991936656243e-11
462 -1.3970004656381179e-09 -2.3105071829225478e-09 1.8122191761792228e-09
182 -7.031455339178329e-10 2.5198983890331045e-09 6.139990239103044e-10
184 -1.5246060171088822e-09 -3.873971373770876e-09 1.7410713212881867e-09
186 -6.803938624276877e-09 1.2214033046208424e-09 -1.196360482171375e-09
187 1.1815256705730448e-09 2.4546408495141054e-09 -1.5501972880403547e-09
189 8.466760591048177e-11 -3.0439993402427e-10 -4.178320740817562e-09
212 -3.877882321754007e-09 -5.576864804883128e-10 -1.3045901859375966e-09
214 -5.288225752607432e-09 5.427177254391597e-09 1.0058861497531748e-09
218 5.957043414091107e-10 -3.194793716316172e-09 -3.3534359536484115e-09
221 -7.317337670112023e-10 -1.4002809857472714e-09 -2.3761559113780456e-09
222 -2.0155095497577735e-09 -2.2405337155507935e-09 -3.4799774297516938e-09
223 -4.994369997488844e-09 3.8698054598431094e-09 1.588468817964591e-09
224 3.3183006884861503e-09 3.768270047294485e-09 -4.160942803660381e-11
225 -3.4007122318714843e-09 5.308020581459388e-09 -2.669875570447285e-09
228 -2.3105055713684545e-09 -1.397000952983479e-09 1.8122139431352907e-09
185 -3.1994410679440007e-09 6.349490903566533e-09 -3.3032141029304075e-09
188 6.3494889688028e-09 -3.199440908018532e-09 -3.303214191710326e-09
190 4.5578972464375704e-10 -3.307913723918024e-09 -4.016972226528091e-09
216 -2.8816571128055124e-09 -2.8816570510501906e-09 -6.834052789846941e-09
220 -2.8282573995822414e-09 -3.2100813925311263e-09 3.401843830845193e-09
226 2.4250620577439917e-10 5.431979283338692e-09 -5.390505736382128e-09
227 -3.2100819252554697e-09 -2.828256645392732e-09 3.401844808250905e-09
229 -4.055371388530304e-09 -4.055374213069485e-09 -1.1042903963166006e-08
230 7.495358225774084e-10 -1.5822096194195471e-09 2.978470599907922e-09
436 -3.30791287830984e-09 4.5578900406702314e-10 -4.016970512954052e-09
461 5.431978809210662e-09 2.42510300452402e-10 -5.390506540066964e-09
471 -3.365434434775248e-09 -3.3654373944285042e-09 -1.2085991638080551e-09
472 -1.5822107735169722e-09 7.495356924479392e-10 2.9784689854511893e-09
191 -1.1815257228680653e-09 -2.4546409686981055e-09 -1.5501985201277563e-09
192 6.803937815528306e-09 -1.2214021133889255e-09 -1.1963605042523392e-09
194 4.409650819833942e-09 -3.88448311476654e-09 5.081375476727827e-10
231 2.0155085962857744e-09 2.2405341047230383e-09 -3.479981559234056e-09
232 7.317327892159382e-10 1.4002816132400092e-09 -2.3761555960877195e-09
233 -3.3183039222642693e-09 -3.7682718484322785e-09 -4.160850987134464e-11
234 4.994370400038885e-09 -3.8698039742996825e-09 1.5884683162972444e-09
235 2.3622125768942484e-09 -1.134761932613219e-08 -2.22026219545421e-09
238 2.0998556867588262e-09 -2.5984083597198017e-09 3.459349212729931e-09
193 7.392903497528109e-09 -2.6622163810157103e-09 -4.506617501139472e-09
195 4.86188027763705e-09 -4.861880394996805e-09 -3.678411107630787e-09
236 1.1129731969535413e-09 -1.230510816957952e-08 -5.7585105791407904e-09
237 8.669073316546792e-11 -5.935021547681565e-09 4.676640124071907e-09
239 1.7824545586980481e-10 -2.5786158223990913e-09 -7.205292155177962e-09
240 6.101825606889298e-09 -6.10182375588881e-09 6.118841709041133e-09
441 1.3086233214141532e-09 -1.3086258899509668e-09 -5.254729882383969e-10
481 2.5786158284799077e-09 -1.7824411447972981e-10 -7.205291355550616e-09
482 7.568876717989261e-11 -7.569092465352281e-11 -3.889723317813358e-09
196 7.031482970407685e-10 -2.519897331731167e-09 6.139989734395289e-10
197 4.212934332898893e-09 -3.404632468886104e-10 -4.33565643871265e-09
199 1.1968281448624736e-09 -1.1968316399535786e-09 3.161042860823538e-09
241 3.877880842899478e-09 5.57687026334215e-10 -1.304587584564375e-09
242 5.729240570624806e-09 -1.4080928647900248e-09 4.836706340816125e-09
243 5.2882243126701276e-09 -5.4271754489592265e-09 1.005884520094401e-09
244 1.0626839890471198e-10 5.833630917314266e-09 1.6829739141839034e-09
245 2.4065293118919664e-09 -4.51482108249138e-09 -1.20468079355357e-09
248 6.545023540724085e-10 -6.545031551602787e-10 -3.56433181429872e-09
198 6.871239307739504e-09 -6.871241187871199e-09 2.5587723012416797e-09
200 3.884483911344867e-09 -4.409653693055283e-09 5.081436443874084e-10
246 4.514823376403753e-09 -2.406532515699373e-09 -1.2046807766652013e-09
247 4.1410179207967926e-09 -4.141017140476187e-09 2.0743286604506286e-09
249 1.2305110076754819e-08 -1.1129725087529975e-09 -5.758511357411644e-09
250 2.5984094426030327e-09 -2.099853979525701e-09 3.4593490648793953e-09
492 5.93502053195424e-09 -8.669059112852516e-11 4.676639564992506e-09
491 1.1347618393128165e-08 -2.3622115950063098e-09 -2.2202618555615184e-09
446 2.6622110323559525e-09 -7.392902388638996e-09 -4.506616147482821e-09
251 2.3578145834811874e-09 -1.2598847613507174e-09 3.222832649396504e-16
254 -4.889753674287151e-09 3.004779714464863e-10 6.68502321266305e-17
255 -3.8698040253785394e-09 4.994370374499456e-09 -1.5884663041551243e-09
256 -3.76827311932289e-09 -3.318301710063292e-09 4.160672085717831e-11
263 -2.2397046521891243e-09 2.8492475110012303e-09 -5.837583666831404e-16
265 -2.5984084100804215e-09 2.0998550266422715e-09 -3.4593477064250296e-09
303 2.2405345212589563e-09 2.015508455210836e-09 3.479979258253161e-09
304 1.4002832699584155e-09 7.317335851947944e-10 2.376157486917554e-09
305 -1.221400904522641e-09 6.803939531629387e-09 1.196359125238401e-09
306 -2.4546416643434924e-09 -1.1815251804592494e-09 1.5501981727991291e-09
313 -1.1347617943147756e-08 2.362213134669002e-09 2.2202619017757224e-09
315 -3.884483072192216e-09 4.4096503014799804e-09 -5.081418338243493e-10
257 -6.196807498690568e-09 4.258870199112714e-09 -2.394634671025439e-16
258 -2.356297424674096e-09 3.190449481603858e-09 -2.5904277521564355e-15
259 5.833633337479161e-09 1.0626971783377171e-10 -1.6829701300919078e-09
260 -5.427180212041271e-09 5.288223520213544e-09 -1.0058879777118818e-09
267 -9.468987405447307e-09 4.0387043844471e-09 -1.373655812771546e-15
269 -6.54497932681171e-10 6.545047035181224e-10 3.5643335073232815e-09
307 5.576836252433853e-10 3.877880114219195e-09 1.3045893313060306e-09
308 -1.4080882509706424e-09 5.7292410857839635e-09 -4.83670635753837e-09
309 -3.40463825782324e-10 4.2129339242680364e-09 4.33565697139216e-09
310 -2.519898210879438e-09 7.031480917093415e-10 -6.140011449113586e-10
317 -4.514822458002744e-09 2.4065296172497485e-09 1.2046804275978407e-09
319 -1.1968304175758865e-09 1.1968286165331055e-09 -3.161039767318688e-09
264 -1.502656030980945e-09 3.3276230852199578e-09 -3.02758737618102e-16
266 -5.9350210330135045e-09 8.66895397553835e-11 -4.6766383366676096e-09
273 -3.862015005597029e-09 1.7710396281838955e-09 1.5080424472647792e-16
274 -1.7710389692514372e-09 3.862015268896376e-09 -1.124038896681026e-15
275 -6.101826858321297e-09 6.101824498356483e-09 -6.118841669515827e-09
276 -7.569074222903322e-11 7.568850692095413e-11 3.8897259915482944e-09
314 -1.2305111762357102e-08 1.112971653176797e-09 5.758511747077955e-09
316 -2.6622146784134178e-09 7.392904809107932e-09 4.506617255407555e-09
323 -2.578616595878927e-09 1.7824535492825391e-10 7.205292160650697e-09
324 -1.782469395889868e-10 2.5786174015870895e-09 7.2052920916334315e-09
325 -4.86188093314905e-09 4.861879704824153e-09 3.678413465903186e-09
326 -1.3086220201194609e-09 1.3086246397351314e-09 5.254718839621533e-10
268 -4.038702697400687e-09 9.468984849403483e-09 6.080816319616045e-16
270 -4.141016887898287e-09 4.141017895180129e-09 -2.0743277247369503e-09
277 -3.327624448729002e-09 1.5026588547375507e-09 -6.664570232576295e-16
278 -2.849247329792904e-09 2.239704497076051e-09 -1.7877599979671173e-16
279 -2.0998539983762316e-09 2.5984098329914406e-09 -3.4593471250989895e-09
280 -8.668888830517953e-11 5.9350226193711055e-09 -4.676639681338594e-09
318 -2.406532065002933e-09 4.514822841511041e-09 1.2046772464619843e-09
320 -6.871241069606151e-09 6.871238894093498e-09 -2.5587708916564394e-09
327 -1.1129703337020075e-09 1.230510937677967e-08 5.758511034698001e-09
328 -2.362211754022626e-09 1.1347616212765367e-08 2.2202592334196966e-09
329 -4.40965303632712e-09 3.88448526664481e-09 -5.081414552935333e-10
330 -7.3929026194534814e-09 2.662211644259918e-09 4.5066187537873535e-09
283 2.2460776717995917e-09 2.2460769112414904e-09 -1.954374365124597e-15
284 2.1386966774864307e-09 2.1386992010252033e-09 -7.151039991868469e-16
285 -7.495379155943856e-10 1.5822096610316266e-09 -2.9784702259377184e-09
286 1.5822119808630525e-09 -7.495335738915334e-10 -2.9784709234073504e-09
333 3.36543953293165e-09 3.3654351846919206e-09 1.208599425283157e-09
334 4.0553701127750405e-09 4.055372359940712e-09 1.1042905921492902e-08
335 -4.5579555553852593e-10 3.3079141130195938e-09 4.016974307458852e-09
336 3.3079181433846505e-09 -4.5579299916334513e-10 4.0169720136995195e-09
287 4.8819753868946615e-09 7.038086296777046e-09 -3.6314869623485913e-16
288 7.655525577691547e-10 6.14045694783639e-10 6.56728162518533e-17
289 2.310503553424618e-09 1.3969977611190494e-09 -1.8122160442547775e-09
290 3.2100847142791793e-09 2.82825835483855e-09 -3.4018450705054085e-09
337 -2.4250527697602505e-10 -5.4319781641251255e-09 5.3905044500452634e-09
338 3.4007127084055815e-09 -5.308020380934709e-09 2.669874696413075e-09
339 -8.466814810551878e-11 3.0440133541875967e-10 4.178317240412869e-09
340 -6.349486836887601e-09 3.199440881951634e-09 3.3032160503180692e-09
31 1.2598913760627099e-09 -2.3578116160428233e-09 -2.225578772979473e-16
253 -2.3578124868157205e-09 1.2598838711192081e-09 9.48607345860103e-16
346 3.0440210160161595e-10 -8.466977046731286e-11 4.178317774308542e-09
345 3.199437715589964e-09 -6.349487305547516e-09 3.3032131964576557e-09
344 -5.308018926479456e-09 3.4007134919187645e-09 2.6698769666858478e-09
343 -5.431978466252622e-09 -2.4250608371032514e-10 5.390505843205413e-09
296 1.3969958201224802e-09 2.310505815488289e-09 -1.812216709192042e-09
295 2.8282563688838753e-09 3.210079901210924e-09 -3.4018463622890272e-09
294 6.140436875061719e-10 7.655542977947446e-10 -8.37936488843091e-16
293 7.038089889225967e-09 4.88197065338296e-09 3.2593175473142e-16
350 3.873971787824354e-09 1.5246030799553885e-09 -1.7410751790174428e-09
349 1.5246037402327227e-09 3.8739733978962475e-09 -1.7410728693942466e-09
348 -1.2519544157969188e-09 -1.2519521967550233e-09 -1.8120030268742443e-10
347 2.8816589856826867e-09 2.8816590212081832e-09 6.834057169026089e-09
300 3.1947936754256517e-09 -5.957015402013514e-10 3.3534367707030823e-09
299 -5.95700452665316e-10 3.1947907654878193e-09 3.3534347485645256e-09
298 3.4083017356110746e-09 3.408297503362916e-09 -5.132208973755942e-16
297 1.2785281426603821e-09 1.2785283914555122e-09 -2.9046898621705766e-16
353 8.737270159129239e-10 -1.966170268282449e-09 1.9149462815707373e-09
354 -3.1241128390525962e-09 1.1028352117908512e-11 4.987561898511116e-09
355 5.981698964959773e-10 -9.152134559334927e-10 -1.759180161264922e-15
356 1.218218380388464e-09 4.696755157009577e-09 -1.1492742844074326e-15
363 -1.003678623707685e-10 6.759104570966225e-09 1.1757275210000462e-09
365 -3.939380740301546e-09 8.195079164644913e-09 -1.5658102023011318e-16
402 8.73726762950965e-10 -1.9661758638496263e-09 -1.914940118055316e-09
403 -3.1241114526264754e-09 1.103138279676221e-11 -4.987560991861403e-09
407 -1.0036644432440276e-10 6.759104794740266e-09 -1.17572575999564e-09
357 2.5861793795353528e-09 6.416808147059504e-09 6.063552051654243e-11
358 -8.630905760553044e-12 -3.5978109551056223e-10 -1.804934255462527e-09
359 -2.396980391697876e-09 3.9270330590061986e-09 -1.1310318354485844e-15
360 9.900632123414501e-10 2.7838273554479164e-09 -1.220602141070585e-15
367 -8.693254314500319e-10 1.7470779223942761e-09 8.637583214055425e-09
369 -3.4758809705150467e-09 3.475882399402368e-09 -3.0256776198056404e-15
404 2.586179868299967e-09 6.416809203512562e-09 -6.063161408152876e-11
405 -8.631846462837688e-12 -3.5978291853929484e-10 1.8049356090522399e-09
409 -8.693302983002576e-10 1.7470773650833036e-09 -8.637579065480695e-09
364 -3.3052995322650157e-09 1.1459723815663058e-08 -2.414298583939816e-09
366 -1.7992673882815423e-09 4.082439783048337e-09 6.542958359906865e-16
373 -5.807948326897103e-09 6.669611479967907e-09 1.9297900212136132e-09
374 -6.669610618924317e-09 5.8079476993568585e-09 1.9297932720180176e-09
375 -2.9013515803396967e-09 2.9013542850867957e-09 4.651824484506274e-16
376 -9.827366051001187e-09 9.827367826599553e-09 9.729306111385672e-17
408 -3.3053025969964408e-09 1.1459721253129862e-08 2.414295908988717e-09
412 -5.807944731918494e-09 6.669610729785199e-09 -1.9297926049524674e-09
413 -6.66961130970505e-09 5.807944853838861e-09 -1.9297939302663846e-09
368 -1.747078198460071e-09 8.693263875182543e-10 8.637583786005043e-09
370 -7.012898812655115e-09 7.012896939088059e-09 -5.575621624718569e-16
377 -1.145972216249397e-08 3.3053025458586323e-09 -2.4142990904804258e-09
378 -6.7591072349338496e-09 1.0036585344720542e-10 1.1757284665669838e-09
379 -8.195077561741732e-09 3.939383136599237e-09 1.6631032634149884e-16
380 -4.082442174109638e-09 1.7992683599039466e-09 -1.729943251978971e-16
410 -1.7470780914377037e-09 8.693288733559658e-10 -8.637583620606838e-09
414 -1.1459720846051871e-08 3.305300849189745e-09 2.4142996432535e-09
415 -6.7591071990950385e-09 1.0036743049073604e-10 -1.1757257393208645e-09
383 -3.777289556743167e-09 -3.77729432349508e-09 9.548525974255402e-09
384 -3.3572590228985035e-09 -3.3572603606780937e-09 2.6781241042234088e-09
385 -9.027002731610882e-09 1.2297886509922815e-09 -5.229158949749813e-15
386 1.2297895244135103e-09 -9.02700147896272e-09 -3.6484897917696274e-17
417 -3.7772921009567156e-09 -3.777292842132215e-09 -9.548522606699326e-09
418 -3.357259679626666e-09 -3.3572554187986706e-09 -2.6781219206022683e-09
387 -8.322620881496945e-09 3.7087638646074748e-09 -3.831614952141895e-10
388 1.2217485052663274e-09 2.407410395138424e-09 1.6254628395256265e-09
389 -4.932134598597327e-10 3.2179769545994132e-09 1.8582974672746634e-15
390 -3.7789497806711705e-09 3.4655122180765577e-09 -4.521112171397575e-16
419 -8.322615237252358e-09 3.7087598838041857e-09 3.8316426149763537e-10
420 1.2217506378086108e-09 2.4074090866607673e-09 -1.6254643214205637e-09
423 2.4074088797989972e-09 1.2217494605625712e-09 -1.6254608237350166e-09
422 3.7087637090379055e-09 -8.322620677300282e-09 3.83164058014014e-10
396 3.2179749041481504e-09 -4.932123993653665e-10 -1.0459004069739598e-16
395 3.465511441972143e-09 -3.778950566989605e-09 4.2261673421331517e-16
394 2.4074103002776897e-09 1.2217493334735102e-09 1.6254622539430149e-09
393 3.7087613691397855e-09 -8.322619482799926e-09 -3.8316264604846455e-10
425 2.9671222138190305e-09 2.967123493222784e-09 -7.643453493585765e-09
424 -3.3194241568739934e-10 -3.31941899006868e-10 -6.991804135933781e-09
400 1.638487203279633e-09 -8.251643955699421e-10 -1.536751293473365e-15
399 -8.251643471100225e-10 1.638484752613268e-09 -4.718713464022052e-16
398 2.9671216218515617e-09 2.9671210487346237e-09 7.643452329717522e-09
397 -3.319369482995545e-10 -3.319378213975366e-10 6.991806040264483e-09
427 -1.2214030790225569e-09 6.803937562089799e-09 -1.1963604317766097e-09
428 -2.4546410295062687e-09 -1.1815269607322425e-09 -1.5501992533601893e-09
432 -3.88448212358487e-09 4.409649643535655e-09 5.08138620721006e-10
453 2.2405341223574057e-09 2.015507592951082e-09 -3.479981239383118e-09
454 1.4002812851799687e-09 7.317341616561815e-10 -2.3761563291301267e-09
455 -3.86980571341315e-09 4.9943707241383775e-09 1.5884684170107647e-09
456 -3.76827306337938e-09 -3.318300407362411e-09 -4.1609858558399234e-11
463 -1.1347617393441962e-08 2.3622124268619825e-09 -2.2202620525799674e-09
465 -2.598407733893647e-09 2.0998551382252506e-09 3.4593478776000088e-09
429 -3.4046500059603696e-10 4.2129344326242805e-09 -4.3356591908901165e-09
430 -2.5198978629629195e-09 7.031482796830747e-10 6.139968528730096e-10
434 -1.1968312808617785e-09 1.196829169118381e-09 3.161042493348644e-09
457 5.576864585997494e-10 3.877879969095674e-09 -1.304587949741371e-09
458 -1.4080891031970495e-09 5.7292431239595786e-09 4.836706483715309e-09
459 5.833631530260551e-09 1.0627095345564786e-10 1.6829756228932892e-09
460 -5.427176256144837e-09 5.288224556997802e-09 1.0058904631765197e-09
467 -4.5148255234740805e-09 2.4065310054405826e-09 -1.204680431839715e-09
469 -6.54501547346422e-10 6.545021730968634e-10 -3.5643304504969176e-09
433 -2.662216439417824e-09 7.392904139914096e-09 -4.506615924924944e-09
437 -4.861880816397377e-09 4.861881792368396e-09 -3.6784121548233677e-09
438 -1.3086232484443574e-09 1.3086246494644376e-09 -5.254686732911365e-10
464 -1.230511022999139e-08 1.1129711085784567e-09 -5.758509219700667e-09
466 -5.935021339486647e-09 8.66896149864829e-11 4.676638995828099e-09
473 -2.578617571241865e-09 1.7824460018493335e-10 -7.205293842604491e-09
474 -1.7824622934964068e-10 2.5786163091684376e-09 -7.2052927188696355e-09
475 -6.101822475268894e-09 6.101824115873137e-09 6.118842391384734e-09
476 -7.568823085189321e-11 7.569238404943952e-11 -3.889723419971073e-09
435 -6.871240273577412e-09 6.871239134997002e-09 2.558771283948814e-09
439 -4.4096495839436545e-09 3.88448409498552e-09 5.081381114526392e-10
440 -7.392902433499268e-09 2.662215581335365e-09 -4.5066170849346304e-09
468 -2.406527253861061e-09 4.514820457831043e-09 -1.2046802382236136e-09
470 -4.141021583347878e-09 4.141017956414996e-09 2.0743259680983803e-09
477 -1.1129735130948254e-09 1.2305110590900344e-08 -5.758509325326495e-09
478 -2.3622115171718612e-09 1.1347619065735335e-08 -2.220261605031886e-09
479 -2.099853136572539e-09 2.59841025944669e-09 3.4593488313760485e-09
480 -8.668994933636773e-11 5.935021630567575e-09 4.676639510316377e-09
442 -4.557947042242412e-10 3.3079177365780387e-09 -4.016971117159164e-09
443 3.3079188317330578e-09 -4.557923983786928e-10 -4.016975381255598e-09
483 3.3654364317153273e-09 3.3654343879529624e-09 -1.2085988092964637e-09
484 4.055370492217979e-09 4.055372294267895e-09 -1.1042906691628289e-08
485 -7.495386161044256e-10 1.5822098945349732e-09 2.978471141974692e-09
486 1.5822109763121965e-09 -7.495359940564286e-10 2.9784710444155948e-09
444 -8.466451664201271e-11 3.043988252577829e-10 -4.178319536529111e-09
445 -6.349489398837655e-09 3.199442685041049e-09 -3.3032168191130337e-09
487 -2.425063259690972e-10 -5.431979471764378e-09 -5.3905056135040615e-09
488 3.4007127771188058e-09 -5.308017511815544e-09 -2.669876995873766e-09
489 2.3105039742171073e-09 1.3969968416996219e-09 1.8122179083290203e-09
490 3.210080652840201e-09 2.828258843285614e-09 3.4018447631017346e-09
496 1.397000648290638e-09 2.3105062824949824e-09 1.812214981024044e-09
495 2.8282574099196292e-09 3.2100810711599837e-09 3.401845794036742e-09
494 -5.308020142642719e-09 3.4007152434979054e-09 -2.669876127229155e-09
493 -5.431978585436622e-09 -2.425098991185249e-10 -5.39050356168313e-09
448 3.043995780628433e-10 -8.466207215385222e-11 -4.17832100078968e-09
447 3.1994420597251427e-09 -6.349492068650939e-09 -3.3032183648985556e-09
500 3.1947940961053135e-09 -5.957056141220364e-10 -3.35343785569851e-09
499 -5.957021650231916e-10 3.194792468116389e-09 -3.3534383243885624e-09
498 -1.2519558900908354e-09 -1.2519566307342632e-09 1.811994386034254e-10
497 2.8816635344492113e-09 2.8816605537686857e-09 -6.834053033028375e-09
450 3.873970355028445e-09 1.5246045846655603e-09 1.7410753040352258e-09
449 1.5246068171257805e-09 3.873970372082047e-09 1.7410769654321195e-09
