#Generated by cif2cell 2.1.0.  :  Failed to get author information, No journal information.

500 atoms
3 atom types

0.0 17.350000 xlo xhi
0.0 17.350000 ylo yhi
0.0 17.350000 zlo zhi
1.062381098260329e-15 1.062381098260329e-15 1.062381098260329e-15 xy xz yz

Atoms

1 1  12.145000000000000  13.880000000000003   5.205000000000000 
2 1  12.145000000000000  13.880000000000003   1.735000000000000 
3 1  10.410000000000002  15.615000000000002   1.735000000000000 
4 1   1.735000000000001   6.940000000000001   1.735000000000000 
5 1  10.410000000000000  13.880000000000003   0.000000000000000 
6 1  12.145000000000001   6.940000000000002  15.615000000000002 
7 1  10.410000000000000  13.880000000000003   3.470000000000001 
8 1   1.735000000000001   0.000000000000000   5.205000000000000 
9 1  13.880000000000003  13.880000000000003   6.940000000000001 
10 1  15.615000000000002  13.880000000000003   1.735000000000000 
11 1  12.145000000000001  15.615000000000002   3.470000000000001 
12 1  13.880000000000004  15.615000000000002   1.735000000000000 
13 1   0.000000000000000   1.735000000000000   1.735000000000000 
14 1  10.410000000000000  13.880000000000003   6.940000000000001 
15 1  13.880000000000003  13.880000000000003   0.000000000000000 
16 1   0.000000000000001   8.675000000000001   1.735000000000000 
17 1  15.615000000000002  12.145000000000000  13.880000000000003 
18 1  15.615000000000002  13.880000000000003   8.675000000000001 
19 1   0.000000000000000   0.000000000000000   3.470000000000001 
20 1   1.735000000000001   8.675000000000001   3.470000000000001 
21 1  15.615000000000004  15.615000000000002  10.410000000000000 
22 1  10.410000000000000  12.145000000000000   8.675000000000001 
23 1  13.880000000000003  13.880000000000003  13.880000000000003 
24 1   1.735000000000001   6.940000000000001   5.205000000000000 
25 1   0.000000000000001   8.675000000000001   5.205000000000000 
26 1  10.410000000000000  10.410000000000000  10.410000000000000 
27 1  10.410000000000000  12.145000000000000   5.205000000000000 
28 1  15.615000000000004  15.615000000000002   6.940000000000001 
29 1  12.145000000000000  12.145000000000000  13.880000000000003 
30 1  12.145000000000000  10.410000000000000  12.145000000000000 
31 1  12.145000000000000  12.145000000000000   0.000000000000000 
32 1   1.735000000000001   8.675000000000001   6.940000000000001 
33 1   0.000000000000001   6.940000000000002  10.410000000000000 
34 1  10.410000000000000  10.410000000000000   0.000000000000000 
35 1  12.145000000000000  12.145000000000000  10.410000000000000 
36 1   0.000000000000001   8.675000000000001  12.145000000000000 
37 1  15.615000000000004  15.615000000000002   3.470000000000001 
38 1  10.410000000000000  10.410000000000000  13.880000000000003 
39 1   1.735000000000001   8.675000000000001   0.000000000000000 
40 1   0.000000000000001   1.735000000000001  12.145000000000000 
41 1  15.615000000000002  10.410000000000000   1.735000000000000 
42 1   1.735000000000001   5.205000000000000   6.940000000000001 
43 1  13.880000000000003  10.410000000000000   0.000000000000000 
44 1  15.615000000000004   0.000000000000001  15.615000000000002 
45 1  15.615000000000002   1.735000000000001  13.880000000000003 
46 1  13.880000000000003   3.470000000000001   0.000000000000000 
47 1   0.000000000000001   5.205000000000001   8.675000000000001 
48 1  15.615000000000002   3.470000000000001   1.735000000000000 
49 1   0.000000000000001   0.000000000000001  10.410000000000000 
50 1  13.880000000000003   3.470000000000001   3.470000000000001 
51 1  15.615000000000004   6.940000000000002  15.615000000000002 
52 1  15.615000000000002   5.205000000000000   3.470000000000001 
53 1  13.880000000000004   8.675000000000002  15.615000000000002 
54 1  13.880000000000003   1.735000000000001  12.145000000000000 
55 1   1.735000000000001   3.470000000000001   5.205000000000000 
56 1   0.000000000000001   5.205000000000000   5.205000000000000 
57 1  13.880000000000003   5.205000000000001  12.145000000000000 
58 1   1.735000000000001   3.470000000000001   1.735000000000000 
59 1   0.000000000000001   0.000000000000001  13.880000000000003 
60 1  15.615000000000002   5.205000000000001  13.880000000000003 
61 1  13.880000000000003   6.940000000000001   0.000000000000000 
62 1   0.000000000000000   3.470000000000001   0.000000000000000 
63 1  15.615000000000002   6.940000000000001   1.735000000000000 
64 1  15.615000000000002   8.675000000000001   0.000000000000000 
65 1  13.880000000000003   8.675000000000001   5.205000000000000 
66 1  15.615000000000002   6.940000000000001   5.205000000000000 
67 1  15.615000000000002   8.675000000000001   3.470000000000001 
68 1  12.145000000000001  13.880000000000004  15.615000000000002 
69 1  15.615000000000004  10.410000000000002  15.615000000000002 
70 1  13.880000000000004  12.145000000000001  15.615000000000002 
71 1  12.145000000000001  15.615000000000002   6.940000000000001 
72 1  13.880000000000003  10.410000000000000  13.880000000000003 
73 1  15.615000000000002  12.145000000000000  10.410000000000000 
74 1  10.410000000000002  15.615000000000002  12.145000000000000 
75 1  15.615000000000002  10.410000000000000  12.145000000000000 
76 1   1.735000000000001   5.205000000000001  13.880000000000003 
77 1  15.615000000000002  12.145000000000000   6.940000000000001 
78 1  10.410000000000000  13.880000000000003  13.880000000000003 
79 1   0.000000000000000   0.000000000000000   6.940000000000001 
80 1   0.000000000000001   1.735000000000001   8.675000000000001 
81 1   1.735000000000001   0.000000000000001   8.675000000000001 
82 1  12.145000000000000  13.880000000000003   8.675000000000001 
83 1  15.615000000000002  12.145000000000000   3.470000000000001 
84 1  13.880000000000003   0.000000000000000   0.000000000000000 
85 1  15.615000000000002   1.735000000000000   0.000000000000000 
86 1  13.880000000000003   0.000000000000000   3.470000000000001 
87 1  15.615000000000002  10.410000000000000   5.205000000000000 
88 1   1.735000000000001   1.735000000000001   6.940000000000001 
89 1  13.880000000000003   1.735000000000001   5.205000000000000 
90 1  13.880000000000003  10.410000000000000   3.470000000000001 
91 1  13.880000000000003   0.000000000000000   6.940000000000001 
92 1   1.735000000000001   3.470000000000002  12.145000000000000 
93 1   0.000000000000001   3.470000000000001  10.410000000000000 
94 1  15.615000000000002  12.145000000000000   0.000000000000000 
95 1   1.735000000000002  15.615000000000002  10.410000000000000 
96 1   8.675000000000001   3.470000000000001   1.735000000000000 
97 1   8.675000000000001   1.735000000000001  13.880000000000003 
98 1   8.675000000000002   0.000000000000001  15.615000000000002 
99 1   6.940000000000002   0.000000000000001  13.880000000000003 
100 1   1.735000000000002  13.880000000000003   8.675000000000001 
101 1   6.940000000000002   1.735000000000001  12.145000000000000 
102 1   0.000000000000002  15.615000000000002  12.145000000000000 
103 1   8.675000000000001   0.000000000000000   5.205000000000000 
104 1   8.675000000000001   5.205000000000000   0.000000000000000 
105 1   5.205000000000002  13.880000000000004  15.615000000000002 
106 1   3.470000000000002  15.615000000000004  15.615000000000002 
107 1   3.470000000000002  13.880000000000003  13.880000000000003 
108 1   3.470000000000002  15.615000000000002  12.145000000000000 
109 1   5.205000000000002  13.880000000000003   8.675000000000001 
110 1   3.470000000000002  15.615000000000002   8.675000000000001 
111 1   3.470000000000002  13.880000000000003   6.940000000000001 
112 1   3.470000000000001   0.000000000000000   0.000000000000000 
113 1   0.000000000000001  13.880000000000003   3.470000000000001 
114 1   8.675000000000001   6.940000000000001   5.205000000000000 
115 1   6.940000000000002   8.675000000000001   5.205000000000000 
116 1   0.000000000000001  15.615000000000002   1.735000000000000 
117 1   1.735000000000001  13.880000000000003   1.735000000000000 
118 1   6.940000000000001   6.940000000000001   0.000000000000000 
119 1   8.675000000000001   5.205000000000001  13.880000000000003 
120 1   1.735000000000001  15.615000000000002   0.000000000000000 
121 1   8.675000000000001   5.205000000000001  10.410000000000000 
122 1   5.205000000000001  13.880000000000003   1.735000000000000 
123 1   6.940000000000002   5.205000000000001  12.145000000000000 
124 1   0.000000000000001  15.615000000000002   5.205000000000000 
125 1   8.675000000000001   3.470000000000001   8.675000000000001 
126 1   6.940000000000002   5.205000000000001   8.675000000000001 
127 1   6.940000000000001   3.470000000000001   6.940000000000001 
128 1   8.675000000000001   5.205000000000000   3.470000000000001 
129 1   8.675000000000001   3.470000000000001   5.205000000000000 
130 1   6.940000000000001   3.470000000000001   3.470000000000001 
131 1   3.470000000000001   3.470000000000001   0.000000000000000 
132 1   3.470000000000002   8.675000000000001  12.145000000000000 
133 1   3.470000000000002   6.940000000000002  10.410000000000000 
134 1   5.205000000000001   8.675000000000001   6.940000000000001 
135 1   5.205000000000001   0.000000000000001  15.615000000000002 
136 1   3.470000000000002   8.675000000000001   8.675000000000001 
137 1   3.470000000000002   6.940000000000001   6.940000000000001 
138 1   5.205000000000000   6.940000000000001   5.205000000000000 
139 1   5.205000000000001   1.735000000000001  13.880000000000003 
140 1   3.470000000000002   1.735000000000001  15.615000000000002 
141 1   5.205000000000001   5.205000000000001  13.880000000000003 
142 1   3.470000000000002   3.470000000000002  13.880000000000003 
143 1   5.205000000000000   5.205000000000000   0.000000000000000 
144 1   3.470000000000002   5.205000000000001  12.145000000000000 
145 1   3.470000000000001   3.470000000000001  10.410000000000000 
146 1   5.205000000000000   5.205000000000000   6.940000000000001 
147 1   3.470000000000001   3.470000000000001   6.940000000000001 
148 1   3.470000000000001   3.470000000000001   3.470000000000001 
149 1   3.470000000000001  10.410000000000000   3.470000000000001 
150 1   5.205000000000000   1.735000000000000   0.000000000000000 
151 1   3.470000000000001   0.000000000000000   3.470000000000001 
152 1   3.470000000000001   0.000000000000000   6.940000000000001 
153 1   5.205000000000001  12.145000000000000   6.940000000000001 
154 1   3.470000000000002  10.410000000000000   6.940000000000001 
155 1   5.205000000000001  12.145000000000000   3.470000000000001 
156 1   3.470000000000002   1.735000000000001  12.145000000000000 
157 1   3.470000000000002  12.145000000000000   5.205000000000000 
158 1   6.940000000000001   6.940000000000001   6.940000000000001 
159 1   5.205000000000001  12.145000000000000   0.000000000000000 
160 1   5.205000000000001  10.410000000000000   1.735000000000000 
161 1   3.470000000000002  12.145000000000000   1.735000000000000 
162 1   5.205000000000001   0.000000000000001  12.145000000000000 
163 1   5.205000000000001   1.735000000000001  10.410000000000000 
164 1   5.205000000000001   6.940000000000002  15.615000000000002 
165 1   3.470000000000002   0.000000000000001  13.880000000000003 
166 1   5.205000000000002   8.675000000000001  10.410000000000000 
167 1  12.145000000000000   0.000000000000001  12.145000000000000 
168 1   1.735000000000002   6.940000000000002  15.615000000000002 
169 1   1.735000000000002   8.675000000000001  13.880000000000003 
170 1  10.410000000000000   3.470000000000001   0.000000000000000 
171 1   0.000000000000001  10.410000000000000   0.000000000000000 
172 1  12.145000000000001   0.000000000000001  15.615000000000002 
173 1  10.410000000000002   1.735000000000001  15.615000000000002 
174 1  10.410000000000000   0.000000000000001  13.880000000000003 
175 1  12.145000000000000   1.735000000000001  10.410000000000000 
176 1  12.145000000000000   5.205000000000000   3.470000000000001 
177 1  10.410000000000000   0.000000000000001  10.410000000000000 
178 1  12.145000000000000   1.735000000000001   6.940000000000001 
179 1  10.410000000000000   1.735000000000001   8.675000000000001 
180 1   1.735000000000001  10.410000000000000   1.735000000000000 
181 1  10.410000000000000   0.000000000000000   3.470000000000001 
182 1  12.145000000000000   0.000000000000000   1.735000000000000 
183 1  10.410000000000000   0.000000000000000   0.000000000000000 
184 1   6.940000000000003  15.615000000000004  15.615000000000002 
185 1  12.145000000000000   6.940000000000001   5.205000000000000 
186 1  12.145000000000000   6.940000000000002  12.145000000000000 
187 1  10.410000000000000   8.675000000000001  12.145000000000000 
188 1  10.410000000000000   6.940000000000002  10.410000000000000 
189 1  12.145000000000000   8.675000000000001   6.940000000000001 
190 1  12.145000000000000   6.940000000000002   8.675000000000001 
191 1  10.410000000000000   8.675000000000001   8.675000000000001 
192 1  10.410000000000000   6.940000000000001   6.940000000000001 
193 1  12.145000000000000   8.675000000000001   3.470000000000001 
194 1   8.675000000000002  15.615000000000002  10.410000000000000 
195 1  10.410000000000000   8.675000000000001   5.205000000000000 
196 1  10.410000000000000   6.940000000000001   3.470000000000001 
197 1   1.735000000000001   6.940000000000002  12.145000000000000 
198 1  12.145000000000000   5.205000000000001  13.880000000000003 
199 1  10.410000000000002   5.205000000000001  15.615000000000002 
200 1  12.145000000000000   3.470000000000002  12.145000000000000 
201 1  10.410000000000000   5.205000000000001  12.145000000000000 
202 1  10.410000000000000   3.470000000000001   6.940000000000001 
203 1   8.675000000000002   6.940000000000002  15.615000000000002 
204 1   0.000000000000002  12.145000000000001  15.615000000000002 
205 1   6.940000000000002  10.410000000000000   6.940000000000001 
206 1   6.940000000000002  12.145000000000000   5.205000000000000 
207 1   6.940000000000002  10.410000000000000   3.470000000000001 
208 1   8.675000000000001  12.145000000000000   0.000000000000000 
209 1   8.675000000000001  10.410000000000000   1.735000000000000 
210 1   6.940000000000002  10.410000000000000   0.000000000000000 
211 1   8.675000000000001   8.675000000000001  13.880000000000003 
212 1   0.000000000000001  10.410000000000000  13.880000000000003 
213 1   6.940000000000003   8.675000000000002  15.615000000000002 
214 1   6.940000000000002   6.940000000000002  13.880000000000003 
215 1   1.735000000000002  12.145000000000000  13.880000000000003 
216 1   8.675000000000001   6.940000000000002  12.145000000000000 
217 1   6.940000000000002   6.940000000000002  10.410000000000000 
218 1   8.675000000000001   8.675000000000001   6.940000000000001 
219 1   0.000000000000000   0.000000000000000   0.000000000000000 
220 1   6.940000000000003   8.675000000000001   8.675000000000001 
221 1   6.940000000000002  15.615000000000002   1.735000000000000 
222 1   1.735000000000001  12.145000000000000   3.470000000000001 
223 1   6.940000000000003  15.615000000000002  12.145000000000000 
224 1   6.940000000000003  13.880000000000003  10.410000000000000 
225 1   1.735000000000001  10.410000000000000   8.675000000000001 
226 1   8.675000000000001  13.880000000000003   5.205000000000000 
227 1   6.940000000000002  15.615000000000002   5.205000000000000 
228 1   6.940000000000002  13.880000000000003   3.470000000000001 
229 1   0.000000000000001  12.145000000000000  12.145000000000000 
230 1  10.410000000000000   6.940000000000002  13.880000000000003 
231 1   6.940000000000002  13.880000000000003   0.000000000000000 
232 1   8.675000000000001  12.145000000000000  13.880000000000003 
233 1   1.735000000000002  10.410000000000000  12.145000000000000 
234 1   8.675000000000001  12.145000000000000  10.410000000000000 
235 1   8.675000000000001  10.410000000000000  12.145000000000000 
236 1   6.940000000000003  12.145000000000000  12.145000000000000 
237 1   6.940000000000003  10.410000000000000  10.410000000000000 
238 1   1.735000000000002  12.145000000000000  10.410000000000000 
239 2   1.735000000000001   8.675000000000001  10.410000000000000 
240 2   6.940000000000002  12.145000000000000   1.735000000000000 
241 2   0.000000000000001   3.470000000000001   6.940000000000001 
242 2   0.000000000000001  13.880000000000003   0.000000000000000 
243 2  10.410000000000000   8.675000000000001   1.735000000000000 
244 2  15.615000000000002   3.470000000000001   5.205000000000000 
245 2  12.145000000000001   3.470000000000002  15.615000000000002 
246 2  13.880000000000003   8.675000000000001   8.675000000000001 
247 2  13.880000000000003   3.470000000000001   6.940000000000001 
248 2   8.675000000000001   8.675000000000001   3.470000000000001 
249 2  15.615000000000002   3.470000000000001   8.675000000000001 
250 2   0.000000000000000   3.470000000000001   3.470000000000001 
251 2   8.675000000000001   6.940000000000001   1.735000000000000 
252 2   6.940000000000002   8.675000000000001   1.735000000000000 
253 2  15.615000000000002   3.470000000000002  12.145000000000000 
254 2   8.675000000000002   3.470000000000002  15.615000000000002 
255 2  12.145000000000000   8.675000000000001   0.000000000000000 
256 2   6.940000000000002   3.470000000000002  13.880000000000003 
257 2  13.880000000000003   3.470000000000002  13.880000000000003 
258 2   1.735000000000001  13.880000000000003   5.205000000000000 
259 2  10.410000000000002   8.675000000000002  15.615000000000002 
260 2  12.145000000000000   8.675000000000001  10.410000000000000 
261 2  13.880000000000003   6.940000000000001   6.940000000000001 
262 2  12.145000000000000   3.470000000000001   5.205000000000000 
263 2  12.145000000000000   1.735000000000000   0.000000000000000 
264 2  12.145000000000000   0.000000000000000   5.205000000000000 
265 2  10.410000000000000   0.000000000000000   6.940000000000001 
266 2   8.675000000000002  13.880000000000004  15.615000000000002 
267 2  10.410000000000000  13.880000000000003  10.410000000000000 
268 2  10.410000000000002  15.615000000000002   5.205000000000000 
269 2  10.410000000000000   1.735000000000001  12.145000000000000 
270 2  12.145000000000001  10.410000000000002  15.615000000000002 
271 2   0.000000000000001  12.145000000000000   8.675000000000001 
272 2  12.145000000000000   3.470000000000001   1.735000000000000 
273 2   8.675000000000002  15.615000000000002   3.470000000000001 
274 2  12.145000000000000   5.205000000000000   0.000000000000000 
275 2  10.410000000000000   5.205000000000000   5.205000000000000 
276 2  13.880000000000003   0.000000000000001  13.880000000000003 
277 2  10.410000000000000   5.205000000000001   8.675000000000001 
278 2  12.145000000000000   3.470000000000001   8.675000000000001 
279 2  13.880000000000003   1.735000000000000   1.735000000000000 
280 2  15.615000000000002   0.000000000000000   1.735000000000000 
281 2  12.145000000000000   5.205000000000000   6.940000000000001 
282 2   6.940000000000003  12.145000000000001  15.615000000000002 
283 2   6.940000000000003  10.410000000000000  13.880000000000003 
284 2   1.735000000000001   5.205000000000001  10.410000000000000 
285 2   0.000000000000001   5.205000000000001  12.145000000000000 
286 2  13.880000000000003   0.000000000000001  10.410000000000000 
287 2   8.675000000000001  12.145000000000000   3.470000000000001 
288 2  12.145000000000000   5.205000000000001  10.410000000000000 
289 2  15.615000000000002   0.000000000000001  12.145000000000000 
290 2   3.470000000000002  13.880000000000003   3.470000000000001 
291 2   5.205000000000001   5.205000000000001  10.410000000000000 
292 2  13.880000000000004  15.615000000000002  12.145000000000000 
293 2   5.205000000000002  15.615000000000002  10.410000000000000 
294 2   5.205000000000000   3.470000000000001   1.735000000000000 
295 2   5.205000000000002  13.880000000000003  12.145000000000000 
296 2   5.205000000000001   3.470000000000002  15.615000000000002 
297 2  13.880000000000003  13.880000000000003  10.410000000000000 
298 2   3.470000000000001   6.940000000000001   0.000000000000000 
299 2   5.205000000000001  15.615000000000002   6.940000000000001 
300 2   3.470000000000001   8.675000000000001   1.735000000000000 
301 2  13.880000000000003  12.145000000000000   1.735000000000000 
302 2   3.470000000000001   6.940000000000001   3.470000000000001 
303 2   3.470000000000002  15.615000000000002   5.205000000000000 
304 2  15.615000000000002   6.940000000000002   8.675000000000001 
305 2   0.000000000000000   1.735000000000001   5.205000000000000 
306 2   5.205000000000001  15.615000000000002   0.000000000000000 
307 2   5.205000000000001   8.675000000000001   3.470000000000001 
308 2   5.205000000000000   0.000000000000000   1.735000000000000 
309 2  15.615000000000002  13.880000000000003   5.205000000000000 
310 2   3.470000000000002  10.410000000000000  13.880000000000003 
311 2   5.205000000000000   1.735000000000001   3.470000000000001 
312 2   3.470000000000001   1.735000000000001   8.675000000000001 
313 2  13.880000000000004  15.615000000000002   5.205000000000000 
314 2  15.615000000000004  15.615000000000002   0.000000000000000 
315 2  13.880000000000003  10.410000000000000  10.410000000000000 
316 2   3.470000000000002   6.940000000000002  13.880000000000003 
317 2   6.940000000000001   0.000000000000000   3.470000000000001 
318 2   6.940000000000002   1.735000000000001   8.675000000000001 
319 2   6.940000000000002   1.735000000000001  15.615000000000002 
320 2   0.000000000000001  13.880000000000003  10.410000000000000 
321 2   5.205000000000001   3.470000000000001   8.675000000000001 
322 2   1.735000000000002  15.615000000000002   6.940000000000001 
323 2   1.735000000000002  13.880000000000003  12.145000000000000 
324 2   1.735000000000001   1.735000000000001  10.410000000000000 
325 2   6.940000000000001   1.735000000000001   5.205000000000000 
326 2   3.470000000000002   5.205000000000001   8.675000000000001 
327 2   1.735000000000001   0.000000000000001  12.145000000000000 
328 2   1.735000000000002  13.880000000000004  15.615000000000002 
329 2   8.675000000000001   0.000000000000000   1.735000000000000 
330 2   0.000000000000002  13.880000000000003  13.880000000000003 
331 2   0.000000000000002  15.615000000000004  15.615000000000002 
332 2   8.675000000000001   1.735000000000001   6.940000000000001 
333 2   8.675000000000001   0.000000000000001   8.675000000000001 
334 3   8.675000000000001   8.675000000000001  10.410000000000000 
335 3   8.675000000000001   1.735000000000001   3.470000000000001 
336 3   6.940000000000001   0.000000000000000   6.940000000000001 
337 3   6.940000000000002   0.000000000000001  10.410000000000000 
338 3   8.675000000000001   0.000000000000001  12.145000000000000 
339 3   8.675000000000001   1.735000000000001  10.410000000000000 
340 3   6.940000000000001   3.470000000000001   0.000000000000000 
341 3   6.940000000000001   5.205000000000000   1.735000000000000 
342 3   6.940000000000001   5.205000000000000   5.205000000000000 
343 3   8.675000000000001   5.205000000000000   6.940000000000001 
344 3   6.940000000000002   3.470000000000001  10.410000000000000 
345 3   8.675000000000001   3.470000000000002  12.145000000000000 
346 3   6.940000000000002   5.205000000000001  15.615000000000002 
347 3   8.675000000000001   8.675000000000001   0.000000000000000 
348 3   6.940000000000001   6.940000000000001   3.470000000000001 
349 3   6.940000000000003   8.675000000000001  12.145000000000000 
350 3   8.675000000000001   1.735000000000000   0.000000000000000 
351 3   8.675000000000001  10.410000000000000   5.205000000000000 
352 3   6.940000000000003  12.145000000000000   8.675000000000001 
353 3   8.675000000000001  10.410000000000000   8.675000000000001 
354 3   8.675000000000001  12.145000000000000   6.940000000000001 
355 3   8.675000000000002  10.410000000000002  15.615000000000002 
356 3   8.675000000000001  13.880000000000003   1.735000000000000 
357 3   8.675000000000002  15.615000000000002   0.000000000000000 
358 3   6.940000000000002  13.880000000000003   6.940000000000001 
359 3   6.940000000000003  15.615000000000002   8.675000000000001 
360 3   8.675000000000001  13.880000000000003   8.675000000000001 
361 3   8.675000000000002  15.615000000000002   6.940000000000001 
362 3   8.675000000000001  13.880000000000003  12.145000000000000 
363 3   6.940000000000003  13.880000000000003  13.880000000000003 
364 3   8.675000000000002  15.615000000000002  13.880000000000003 
365 3  10.410000000000000   1.735000000000000   1.735000000000000 
366 3   3.470000000000002  10.410000000000000  10.410000000000000 
367 3   5.205000000000000   3.470000000000001   5.205000000000000 
368 3   5.205000000000000   5.205000000000000   3.470000000000001 
369 3   5.205000000000001   3.470000000000002  12.145000000000000 
370 3   3.470000000000002   5.205000000000001  15.615000000000002 
371 3   5.205000000000000   6.940000000000001   1.735000000000000 
372 3   5.205000000000001   8.675000000000001   0.000000000000000 
373 3   3.470000000000002   8.675000000000001   5.205000000000000 
374 3   5.205000000000001   6.940000000000002   8.675000000000001 
375 3   5.205000000000001   6.940000000000002  12.145000000000000 
376 3   3.470000000000002   8.675000000000002  15.615000000000002 
377 3   5.205000000000002   8.675000000000001  13.880000000000003 
378 3   3.470000000000001  10.410000000000000   0.000000000000000 
379 3   5.205000000000001  10.410000000000000   5.205000000000000 
380 3   3.470000000000002  12.145000000000000   8.675000000000001 
381 3   5.205000000000002  10.410000000000000   8.675000000000001 
382 3  10.410000000000000   1.735000000000001   5.205000000000000 
383 3   3.470000000000002  12.145000000000000  12.145000000000000 
384 3   5.205000000000002  10.410000000000000  12.145000000000000 
385 3   5.205000000000002  12.145000000000000  10.410000000000000 
386 3   3.470000000000002  12.145000000000001  15.615000000000002 
387 3   5.205000000000002  10.410000000000002  15.615000000000002 
388 3   5.205000000000002  12.145000000000000  13.880000000000003 
389 3   3.470000000000002  13.880000000000003   0.000000000000000 
390 3   3.470000000000002  15.615000000000002   1.735000000000000 
391 3   5.205000000000001  13.880000000000003   5.205000000000000 
392 3   5.205000000000001  15.615000000000002   3.470000000000001 
393 3   3.470000000000002  13.880000000000003  10.410000000000000 
394 3   5.205000000000002  15.615000000000002  13.880000000000003 
395 3   6.940000000000001   0.000000000000000   0.000000000000000 
396 3   6.940000000000001   1.735000000000000   1.735000000000000 
397 3  13.880000000000003   8.675000000000001  12.145000000000000 
398 3  15.615000000000002   1.735000000000001  10.410000000000000 
399 3  13.880000000000004   1.735000000000001  15.615000000000002 
400 3  13.880000000000003   5.205000000000000   1.735000000000000 
401 3  15.615000000000002   5.205000000000000   0.000000000000000 
402 3  13.880000000000003   5.205000000000000   5.205000000000000 
403 3  13.880000000000003   5.205000000000001   8.675000000000001 
404 3  15.615000000000002   5.205000000000000   6.940000000000001 
405 3  13.880000000000003   3.470000000000001  10.410000000000000 
406 3  15.615000000000002   5.205000000000001  10.410000000000000 
407 3  13.880000000000004   5.205000000000001  15.615000000000002 
408 3  15.615000000000004   3.470000000000002  15.615000000000002 
409 3  13.880000000000003   8.675000000000001   1.735000000000000 
410 3  13.880000000000003   6.940000000000001   3.470000000000001 
411 3  15.615000000000002   8.675000000000001   6.940000000000001 
412 3  13.880000000000003   6.940000000000002  10.410000000000000 
413 3  15.615000000000002   1.735000000000001   6.940000000000001 
414 3  15.615000000000002   6.940000000000002  12.145000000000000 
415 3  15.615000000000002   8.675000000000001  10.410000000000000 
416 3  13.880000000000003   6.940000000000002  13.880000000000003 
417 3  15.615000000000002   8.675000000000001  13.880000000000003 
418 3  13.880000000000003  12.145000000000000   5.205000000000000 
419 3  13.880000000000003  10.410000000000000   6.940000000000001 
420 3  13.880000000000003  12.145000000000000   8.675000000000001 
421 3  15.615000000000002  10.410000000000000   8.675000000000001 
422 3  13.880000000000003  12.145000000000000  12.145000000000000 
423 3  13.880000000000003  13.880000000000003   3.470000000000001 
424 3  13.880000000000004  15.615000000000002   8.675000000000001 
425 3  15.615000000000002  13.880000000000003  12.145000000000000 
426 3  13.880000000000006  15.615000000000004  15.615000000000002 
427 3  15.615000000000004  13.880000000000004  15.615000000000002 
428 3  15.615000000000004  15.615000000000002  13.880000000000003 
429 3  10.410000000000000  10.410000000000000   6.940000000000001 
430 3  12.145000000000000   1.735000000000001   3.470000000000001 
431 3  12.145000000000000   0.000000000000001   8.675000000000001 
432 3  12.145000000000000   1.735000000000001  13.880000000000003 
433 3  10.410000000000000   5.205000000000000   1.735000000000000 
434 3  10.410000000000000   3.470000000000001   3.470000000000001 
435 3  10.410000000000000   3.470000000000001  10.410000000000000 
436 3  10.410000000000000   3.470000000000002  13.880000000000003 
437 3  10.410000000000000   6.940000000000001   0.000000000000000 
438 3  12.145000000000000   6.940000000000001   1.735000000000000 
439 3  12.145000000000000   8.675000000000001  13.880000000000003 
440 3  10.410000000000000  12.145000000000000   1.735000000000000 
441 3  12.145000000000000  10.410000000000000   1.735000000000000 
442 3  10.410000000000000  10.410000000000000   3.470000000000001 
443 3  12.145000000000000  10.410000000000000   5.205000000000000 
444 3  12.145000000000000  12.145000000000000   3.470000000000001 
445 3   8.675000000000001   6.940000000000002   8.675000000000001 
446 3  12.145000000000000  10.410000000000000   8.675000000000001 
447 3  12.145000000000000  12.145000000000000   6.940000000000001 
448 3  10.410000000000000  12.145000000000000  12.145000000000000 
449 3  10.410000000000002  12.145000000000001  15.615000000000002 
450 3  12.145000000000001  15.615000000000002   0.000000000000000 
451 3  10.410000000000002  15.615000000000002   8.675000000000001 
452 3  12.145000000000000  13.880000000000003  12.145000000000000 
453 3  12.145000000000001  15.615000000000002  10.410000000000000 
454 3  10.410000000000004  15.615000000000004  15.615000000000002 
455 3  12.145000000000001  15.615000000000002  13.880000000000003 
456 3  15.615000000000002   0.000000000000000   5.205000000000000 
457 3  15.615000000000002   1.735000000000001   3.470000000000001 
458 3  13.880000000000003   1.735000000000001   8.675000000000001 
459 3  15.615000000000002   0.000000000000001   8.675000000000001 
460 3   3.470000000000001   1.735000000000001   5.205000000000000 
461 3   0.000000000000001  10.410000000000000   3.470000000000001 
462 3   0.000000000000001  12.145000000000000   5.205000000000000 
463 3   1.735000000000001  10.410000000000000   5.205000000000000 
464 3   0.000000000000000   6.940000000000001   0.000000000000000 
465 3   1.735000000000001   1.735000000000001   3.470000000000001 
466 3   0.000000000000001  10.410000000000000   6.940000000000001 
467 3   1.735000000000001  12.145000000000000   6.940000000000001 
468 3   3.470000000000001   0.000000000000001  10.410000000000000 
469 3   5.205000000000000   1.735000000000001   6.940000000000001 
470 3   1.735000000000001   3.470000000000002  15.615000000000002 
471 3   5.205000000000001   0.000000000000001   8.675000000000001 
472 3   0.000000000000001   5.205000000000001  15.615000000000002 
473 3   0.000000000000001  10.410000000000000  10.410000000000000 
474 3   5.205000000000000   0.000000000000000   5.205000000000000 
475 3   3.470000000000002   5.205000000000000   5.205000000000000 
476 3   0.000000000000001   3.470000000000002  13.880000000000003 
477 3   3.470000000000001   1.735000000000000   1.735000000000000 
478 3   1.735000000000002  10.410000000000002  15.615000000000002 
479 3   1.735000000000001   3.470000000000001   8.675000000000001 
480 3   1.735000000000002  15.615000000000002  13.880000000000003 
481 3   1.735000000000001   5.205000000000000   3.470000000000001 
482 3   1.735000000000001   5.205000000000000   0.000000000000000 
483 3   0.000000000000000   5.205000000000000   1.735000000000000 
484 3   1.735000000000001   1.735000000000001  13.880000000000003 
485 3   1.735000000000001  15.615000000000002   3.470000000000001 
486 3   0.000000000000001  13.880000000000003   6.940000000000001 
487 3   0.000000000000001   1.735000000000001  15.615000000000002 
488 3   0.000000000000001  15.615000000000002   8.675000000000001 
489 3   1.735000000000001   0.000000000000001  15.615000000000002 
490 3   0.000000000000001   6.940000000000001   6.940000000000001 
491 3   3.470000000000001   5.205000000000000   1.735000000000000 
492 3   0.000000000000001   8.675000000000002  15.615000000000002 
493 3   0.000000000000001   6.940000000000001   3.470000000000001 
494 3   0.000000000000001   8.675000000000001   8.675000000000001 
495 3   1.735000000000000   1.735000000000000   0.000000000000000 
496 3   1.735000000000001   6.940000000000002   8.675000000000001 
497 3   0.000000000000001   6.940000000000002  13.880000000000003 
498 3   0.000000000000001  12.145000000000000   1.735000000000000 
499 3   1.735000000000000   0.000000000000000   1.735000000000000 
500 3   1.735000000000001  12.145000000000000   0.000000000000000 
