#Generated by cif2cell 2.1.0.  :  Failed to get author information, No journal information.

500 atoms
3 atom types

0.0 17.600000 xlo xhi
0.0 17.600000 ylo yhi
0.0 17.600000 zlo zhi
1.077689183249671e-15 1.077689183249671e-15 1.077689183249671e-15 xy xz yz

Atoms

1 1  14.080000000000002   7.040000000000001   0.000000000000000 
2 1   0.000000000000000   5.280000000000000   1.760000000000000 
3 1  15.840000000000002   8.800000000000001   0.000000000000000 
4 1   0.000000000000001  15.840000000000002   5.280000000000000 
5 1  14.080000000000002   7.040000000000001   3.520000000000000 
6 1   0.000000000000001   1.760000000000001  15.840000000000002 
7 1   3.520000000000001  14.080000000000002   3.520000000000000 
8 1   1.760000000000001   1.760000000000001  14.080000000000002 
9 1  15.840000000000002   8.800000000000001   3.520000000000000 
10 1   5.280000000000001  15.840000000000002   0.000000000000000 
11 1  10.560000000000000   1.760000000000000   1.760000000000000 
12 1  10.560000000000000   0.000000000000000   0.000000000000000 
13 1   5.280000000000002  12.320000000000000  14.080000000000002 
14 1  14.080000000000002   7.040000000000002  10.560000000000000 
15 1   1.760000000000001  12.320000000000000   7.040000000000001 
16 1  15.840000000000002   5.280000000000000   3.520000000000000 
17 1   3.520000000000001   0.000000000000001  14.080000000000002 
18 1   5.280000000000001   1.760000000000001  14.080000000000002 
19 1   0.000000000000001   5.280000000000001   8.800000000000001 
20 1   0.000000000000001   3.520000000000001   7.040000000000001 
21 1  15.840000000000002   3.520000000000000   1.760000000000000 
22 1   5.280000000000002  14.080000000000002  12.320000000000000 
23 1  14.080000000000002   3.520000000000000   3.520000000000000 
24 1  14.080000000000002   5.280000000000000   5.280000000000000 
25 1   3.520000000000000   3.520000000000000   0.000000000000000 
26 1   1.760000000000000   3.520000000000000   1.760000000000000 
27 1   3.520000000000001   5.280000000000000   1.760000000000000 
28 1   0.000000000000001   5.280000000000000   5.280000000000000 
29 1   5.280000000000002  14.080000000000002   8.800000000000001 
30 1   3.520000000000002  15.840000000000002   8.800000000000001 
31 1   3.520000000000002  14.080000000000002   7.040000000000001 
32 1  15.840000000000002   3.520000000000001  12.320000000000000 
33 1  15.840000000000002   5.280000000000001  10.560000000000000 
34 1  14.080000000000004   5.280000000000001  15.840000000000002 
35 1  15.840000000000003   3.520000000000001  15.840000000000002 
36 1   1.760000000000000   0.000000000000000   5.280000000000000 
37 1   1.760000000000002  12.320000000000000  10.560000000000000 
38 1   7.040000000000003  14.080000000000002  10.560000000000000 
39 1  15.840000000000002  12.320000000000000  14.080000000000002 
40 1  14.080000000000002  14.080000000000002   0.000000000000000 
41 1  14.080000000000004  15.840000000000002   1.760000000000000 
42 1   1.760000000000001  14.080000000000002   1.760000000000000 
43 1   0.000000000000002  10.560000000000000  14.080000000000002 
44 1   5.280000000000001   3.520000000000001  15.840000000000002 
45 1   5.280000000000001   5.280000000000001  14.080000000000002 
46 1   8.800000000000001  10.560000000000000  12.320000000000000 
47 1   0.000000000000000   0.000000000000000   3.520000000000000 
48 1   1.760000000000002  10.560000000000002  15.840000000000002 
49 1  14.080000000000002  14.080000000000002  10.560000000000000 
50 1   0.000000000000001  14.080000000000002   0.000000000000000 
51 1  15.840000000000002  14.080000000000002  12.320000000000000 
52 1  15.840000000000003  15.840000000000002  10.560000000000000 
53 1   1.760000000000000   0.000000000000000   1.760000000000000 
54 1  14.080000000000005  15.840000000000003  15.840000000000002 
55 1   5.280000000000000   7.040000000000001   5.280000000000000 
56 1  15.840000000000002  10.560000000000000   5.280000000000000 
57 1   0.000000000000001   0.000000000000001  14.080000000000002 
58 1   3.520000000000002  12.320000000000002  15.840000000000002 
59 1   3.520000000000002  10.560000000000000  14.080000000000002 
60 1   3.520000000000001   3.520000000000001   7.040000000000001 
61 1   7.040000000000003  14.080000000000002  14.080000000000002 
62 1   5.280000000000002  10.560000000000000   8.800000000000001 
63 1   3.520000000000002  12.320000000000000   8.800000000000001 
64 1   3.520000000000001  10.560000000000000   7.040000000000001 
65 1  14.080000000000002  12.320000000000000   5.280000000000000 
66 1   8.800000000000001  10.560000000000000   8.800000000000001 
67 1   0.000000000000001   0.000000000000001  10.560000000000000 
68 1   5.280000000000000   5.280000000000000   7.040000000000001 
69 1   1.760000000000001   0.000000000000001   8.800000000000001 
70 1   3.520000000000001   3.520000000000001  10.560000000000000 
71 1   7.040000000000003  12.320000000000000  12.320000000000000 
72 1   5.280000000000001  12.320000000000000   0.000000000000000 
73 1  14.080000000000002  12.320000000000000  12.320000000000000 
74 1   5.280000000000001   5.280000000000001  10.560000000000000 
75 1   3.520000000000001  12.320000000000000   1.760000000000000 
76 1  10.560000000000000  12.320000000000000   1.760000000000000 
77 1   0.000000000000002   8.800000000000002  15.840000000000002 
78 1   0.000000000000001   7.040000000000002  14.080000000000002 
79 1   7.040000000000003   8.800000000000001  12.320000000000000 
80 1   8.800000000000001   3.520000000000001  12.320000000000000 
81 1   7.040000000000002   7.040000000000002  14.080000000000002 
82 1   1.760000000000001   8.800000000000001  10.560000000000000 
83 1   3.520000000000000   1.760000000000000   1.760000000000000 
84 1  12.320000000000002   7.040000000000002  15.840000000000002 
85 1   1.760000000000001  12.320000000000000   3.520000000000000 
86 1  10.560000000000000  10.560000000000000   0.000000000000000 
87 1  10.560000000000000   5.280000000000000   1.760000000000000 
88 1  10.560000000000000   0.000000000000001  14.080000000000002 
89 1  12.320000000000000  12.320000000000000   0.000000000000000 
90 1   5.280000000000000   0.000000000000000   1.760000000000000 
91 1   5.280000000000000   1.760000000000000   0.000000000000000 
92 1   1.760000000000001   7.040000000000002   8.800000000000001 
93 1  12.320000000000000  12.320000000000000   3.520000000000000 
94 1  10.560000000000000  10.560000000000000   7.040000000000001 
95 1  10.560000000000000  12.320000000000000   8.800000000000001 
96 1   7.040000000000003   8.800000000000002  15.840000000000002 
97 1  10.560000000000000   3.520000000000000   3.520000000000000 
98 1   7.040000000000003   8.800000000000001   8.800000000000001 
99 1   0.000000000000001  12.320000000000000   1.760000000000000 
100 1   0.000000000000001  10.560000000000000   0.000000000000000 
101 1   0.000000000000001  10.560000000000000   3.520000000000000 
102 1  10.560000000000000   5.280000000000001  12.320000000000000 
103 1   0.000000000000001  12.320000000000000   5.280000000000000 
104 1   1.760000000000002   8.800000000000001  14.080000000000002 
105 1   8.800000000000001   7.040000000000001   5.280000000000000 
106 1  10.560000000000000   5.280000000000000   5.280000000000000 
107 1   0.000000000000001   7.040000000000001   7.040000000000001 
108 1  12.320000000000000   5.280000000000001  14.080000000000002 
109 1   8.800000000000001   7.040000000000001   1.760000000000000 
110 1  12.320000000000000   7.040000000000001   1.760000000000000 
111 1  12.320000000000000   8.800000000000001   0.000000000000000 
112 1  12.320000000000000   3.520000000000000   1.760000000000000 
113 1   8.800000000000002   3.520000000000001  15.840000000000002 
114 1  12.320000000000000   7.040000000000001   5.280000000000000 
115 1  12.320000000000000   8.800000000000001   3.520000000000000 
116 1   7.040000000000002   5.280000000000001  15.840000000000002 
117 1   8.800000000000001   0.000000000000000   1.760000000000000 
118 1   8.800000000000001   0.000000000000001   8.800000000000001 
119 1   0.000000000000001  12.320000000000000   8.800000000000001 
120 1   7.040000000000001   0.000000000000000   7.040000000000001 
121 1  12.320000000000002  14.080000000000004  15.840000000000002 
122 1  10.560000000000000   0.000000000000000   7.040000000000001 
123 1  14.080000000000002   0.000000000000000   0.000000000000000 
124 1  14.080000000000002   1.760000000000000   1.760000000000000 
125 1   7.040000000000001   1.760000000000000   5.280000000000000 
126 1  15.840000000000002   1.760000000000000   0.000000000000000 
127 1   5.280000000000001   0.000000000000001  12.320000000000000 
128 1   8.800000000000001   1.760000000000001   7.040000000000001 
129 1   7.040000000000001   1.760000000000000   1.760000000000000 
130 1  14.080000000000002   0.000000000000000   7.040000000000001 
131 1   1.760000000000001   3.520000000000001  12.320000000000000 
132 1  15.840000000000002   1.760000000000001   7.040000000000001 
133 1   0.000000000000001   3.520000000000001  10.560000000000000 
134 1   1.760000000000001   5.280000000000000   7.040000000000001 
135 1   1.760000000000001  12.320000000000000   0.000000000000000 
136 1   1.760000000000001   3.520000000000001   8.800000000000001 
137 1  14.080000000000002   0.000000000000001  14.080000000000002 
138 1  12.320000000000002  15.840000000000002   0.000000000000000 
139 1   1.760000000000001   8.800000000000001   3.520000000000000 
140 1   3.520000000000000   0.000000000000000   3.520000000000000 
141 1   8.800000000000001   5.280000000000000   0.000000000000000 
142 1   0.000000000000001   8.800000000000001   5.280000000000000 
143 1   8.800000000000001   3.520000000000000   1.760000000000000 
144 1  12.320000000000002  10.560000000000002  15.840000000000002 
145 1   0.000000000000001   7.040000000000001   3.520000000000000 
146 1  10.560000000000000   0.000000000000001  10.560000000000000 
147 1  12.320000000000000  14.080000000000002   1.760000000000000 
148 1   5.280000000000001   0.000000000000001  15.840000000000002 
149 1   8.800000000000001   1.760000000000001  14.080000000000002 
150 1   5.280000000000000   1.760000000000000   3.520000000000000 
151 1   7.040000000000002   1.760000000000001  15.840000000000002 
152 1  12.320000000000002  15.840000000000002   3.520000000000000 
153 1  12.320000000000000   1.760000000000001   7.040000000000001 
154 1   3.520000000000001   1.760000000000001   8.800000000000001 
155 1   8.800000000000002  15.840000000000002   0.000000000000000 
156 1   5.280000000000001   0.000000000000001   8.800000000000001 
157 1  10.560000000000002  15.840000000000002  12.320000000000000 
158 2  10.560000000000000   8.800000000000001   1.760000000000000 
159 2  10.560000000000000   7.040000000000002  10.560000000000000 
160 2   8.800000000000002  15.840000000000002   3.520000000000000 
161 2  10.560000000000000   7.040000000000001   3.520000000000000 
162 2  10.560000000000000   8.800000000000001   5.280000000000000 
163 2  10.560000000000000   7.040000000000001   0.000000000000000 
164 2  10.560000000000000   7.040000000000001   7.040000000000001 
165 2  10.560000000000000   8.800000000000001   8.800000000000001 
166 2  10.560000000000000   3.520000000000001  14.080000000000002 
167 2  10.560000000000000   8.800000000000001  12.320000000000000 
168 2  12.320000000000000   7.040000000000002  12.320000000000000 
169 2  12.320000000000000   8.800000000000001  10.560000000000000 
170 2   7.040000000000002  15.840000000000002   5.280000000000000 
171 2   1.760000000000001   7.040000000000002  12.320000000000000 
172 2  15.840000000000003  15.840000000000002  14.080000000000002 
173 2   0.000000000000001   8.800000000000001  12.320000000000000 
174 2   1.760000000000002  12.320000000000000  14.080000000000002 
175 2   0.000000000000001   7.040000000000002  10.560000000000000 
176 2  10.560000000000000  10.560000000000000   3.520000000000000 
177 2   1.760000000000001   8.800000000000001   7.040000000000001 
178 2   0.000000000000001   8.800000000000001   8.800000000000001 
179 2  10.560000000000000   3.520000000000000   0.000000000000000 
180 2   0.000000000000001  10.560000000000000  10.560000000000000 
181 2  12.320000000000000   1.760000000000000   0.000000000000000 
182 2  12.320000000000000   1.760000000000000   3.520000000000000 
183 2  12.320000000000000   0.000000000000001   8.800000000000001 
184 2  10.560000000000000   1.760000000000001  12.320000000000000 
185 2  12.320000000000000   0.000000000000001  12.320000000000000 
186 2   0.000000000000001  10.560000000000000   7.040000000000001 
187 2  12.320000000000002   0.000000000000001  15.840000000000002 
188 2   0.000000000000002  12.320000000000000  12.320000000000000 
189 2   8.800000000000002  15.840000000000002  14.080000000000002 
190 2   8.800000000000002  14.080000000000004  15.840000000000002 
191 2  12.320000000000002   3.520000000000001  15.840000000000002 
192 2   1.760000000000002  10.560000000000000  12.320000000000000 
193 2   8.800000000000002  15.840000000000002  10.560000000000000 
194 2   8.800000000000001  14.080000000000002  12.320000000000000 
195 2  12.320000000000000   5.280000000000000   0.000000000000000 
196 2   8.800000000000002  15.840000000000002   7.040000000000001 
197 2   1.760000000000001  10.560000000000000   1.760000000000000 
198 2  10.560000000000000   3.520000000000001  10.560000000000000 
199 2  12.320000000000000   3.520000000000001  12.320000000000000 
200 2   7.040000000000003  15.840000000000002   8.800000000000001 
201 2   1.760000000000002   7.040000000000002  15.840000000000002 
202 2  14.080000000000002  10.560000000000000  10.560000000000000 
203 2  14.080000000000002   7.040000000000001   7.040000000000001 
204 2  15.840000000000002   7.040000000000002   8.800000000000001 
205 2  15.840000000000002   8.800000000000001   7.040000000000001 
206 2  15.840000000000002   7.040000000000002  12.320000000000000 
207 2  14.080000000000004   8.800000000000002  15.840000000000002 
208 2  15.840000000000003   7.040000000000002  15.840000000000002 
209 2  15.840000000000002   8.800000000000001  14.080000000000002 
210 2   1.760000000000001   0.000000000000001  12.320000000000000 
211 2  14.080000000000002  12.320000000000000   1.760000000000000 
212 2   0.000000000000001   1.760000000000001  12.320000000000000 
213 2  15.840000000000002  12.320000000000000   0.000000000000000 
214 2  14.080000000000002  10.560000000000000   3.520000000000000 
215 2   1.760000000000001   1.760000000000001   7.040000000000001 
216 2  15.840000000000002  12.320000000000000   7.040000000000001 
217 2   0.000000000000000   3.520000000000000   0.000000000000000 
218 2  15.840000000000002  10.560000000000000  12.320000000000000 
219 2  15.840000000000002  12.320000000000000  10.560000000000000 
220 2  14.080000000000002  10.560000000000000  14.080000000000002 
221 2  14.080000000000004  12.320000000000002  15.840000000000002 
222 2   0.000000000000000   0.000000000000000   7.040000000000001 
223 2  15.840000000000002  14.080000000000002   1.760000000000000 
224 2  15.840000000000003  15.840000000000002   0.000000000000000 
225 2  14.080000000000002  14.080000000000002   3.520000000000000 
226 2  15.840000000000002  14.080000000000002   5.280000000000000 
227 2  14.080000000000004  15.840000000000002   8.800000000000001 
228 2  15.840000000000003  15.840000000000002   7.040000000000001 
229 2   0.000000000000000   0.000000000000000   0.000000000000000 
230 2   5.280000000000001   8.800000000000001   0.000000000000000 
231 2  12.320000000000002  15.840000000000002  14.080000000000002 
232 2   1.760000000000001   7.040000000000001   5.280000000000000 
233 2  12.320000000000000  12.320000000000000  10.560000000000000 
234 2  10.560000000000002  12.320000000000002  15.840000000000002 
235 2   1.760000000000001   7.040000000000001   1.760000000000000 
236 2  10.560000000000002  15.840000000000002   5.280000000000000 
237 2  10.560000000000000  14.080000000000002   7.040000000000001 
238 2  10.560000000000002  15.840000000000002   8.800000000000001 
239 2  12.320000000000000  14.080000000000002   8.800000000000001 
240 2  12.320000000000002  15.840000000000002   7.040000000000001 
241 2   1.760000000000001   5.280000000000001  14.080000000000002 
242 2  12.320000000000000  14.080000000000002  12.320000000000000 
243 2  10.560000000000000  14.080000000000002  14.080000000000002 
244 2  10.560000000000004  15.840000000000003  15.840000000000002 
245 2  12.320000000000000  12.320000000000000   7.040000000000001 
246 2   0.000000000000001   5.280000000000001  15.840000000000002 
247 2   1.760000000000001   5.280000000000001  10.560000000000000 
248 2  15.840000000000002   0.000000000000000   5.280000000000000 
249 2  15.840000000000002   1.760000000000000   3.520000000000000 
250 2  15.840000000000002   0.000000000000001  12.320000000000000 
251 2  14.080000000000004   1.760000000000001  15.840000000000002 
252 2  15.840000000000003   0.000000000000001  15.840000000000002 
253 2  15.840000000000002   1.760000000000001  14.080000000000002 
254 2  15.840000000000002   3.520000000000001   5.280000000000000 
255 2  15.840000000000002   5.280000000000000   7.040000000000001 
256 2  14.080000000000002   3.520000000000001  10.560000000000000 
257 2  14.080000000000002   5.280000000000001  12.320000000000000 
258 2  14.080000000000002   8.800000000000001   1.760000000000000 
259 2   8.800000000000001   3.520000000000001   8.800000000000001 
260 2   5.280000000000001   1.760000000000001  10.560000000000000 
261 2   3.520000000000001   1.760000000000001  12.320000000000000 
262 2   8.800000000000001   1.760000000000000   3.520000000000000 
263 2   5.280000000000000   1.760000000000001   7.040000000000001 
264 2   8.800000000000001   1.760000000000001  10.560000000000000 
265 2   3.520000000000001   0.000000000000000   7.040000000000001 
266 2   5.280000000000000   0.000000000000000   5.280000000000000 
267 2   3.520000000000001   1.760000000000000   5.280000000000000 
268 2   7.040000000000001   5.280000000000000   5.280000000000000 
269 2   8.800000000000001   3.520000000000001   5.280000000000000 
270 2   7.040000000000002   5.280000000000001   8.800000000000001 
271 2   3.520000000000002  14.080000000000002  14.080000000000002 
272 2   7.040000000000002   3.520000000000001  10.560000000000000 
273 2   7.040000000000002   5.280000000000001  12.320000000000000 
274 2   8.800000000000001   5.280000000000001  10.560000000000000 
275 2   7.040000000000002   3.520000000000001  14.080000000000002 
276 2   3.520000000000000   0.000000000000000   0.000000000000000 
277 2   7.040000000000002   8.800000000000001   1.760000000000000 
278 2   7.040000000000001   7.040000000000001   3.520000000000000 
279 2   0.000000000000002  15.840000000000003  15.840000000000002 
280 2   0.000000000000002  14.080000000000002  14.080000000000002 
281 2   1.760000000000002  15.840000000000002  10.560000000000000 
282 2   3.520000000000001  10.560000000000000   0.000000000000000 
283 2   3.520000000000001   8.800000000000001   5.280000000000000 
284 2   3.520000000000001   8.800000000000001   1.760000000000000 
285 2   3.520000000000001   7.040000000000001   0.000000000000000 
286 2   3.520000000000001   8.800000000000001   8.800000000000001 
287 2   5.280000000000001   7.040000000000002   8.800000000000001 
288 2   3.520000000000002   8.800000000000001  12.320000000000000 
289 2   5.280000000000002   8.800000000000001  10.560000000000000 
290 2   3.520000000000002   8.800000000000002  15.840000000000002 
291 2   5.280000000000001   7.040000000000002  15.840000000000002 
292 2   5.280000000000002   8.800000000000001  14.080000000000002 
293 2   7.040000000000002   1.760000000000001  12.320000000000000 
294 2   5.280000000000001   3.520000000000001  12.320000000000000 
295 2   5.280000000000001   3.520000000000001   8.800000000000001 
296 2   3.520000000000001   5.280000000000001   8.800000000000001 
297 2   3.520000000000002  12.320000000000000  12.320000000000000 
298 2   5.280000000000000   3.520000000000001   5.280000000000000 
299 2   3.520000000000001   5.280000000000000   5.280000000000000 
300 2   3.520000000000001  15.840000000000002   1.760000000000000 
301 2   3.520000000000002  15.840000000000002   5.280000000000000 
302 2   5.280000000000001  14.080000000000002   5.280000000000000 
303 2   5.280000000000000   3.520000000000000   1.760000000000000 
304 2   7.040000000000003  10.560000000000000  10.560000000000000 
305 2   0.000000000000002  15.840000000000002   8.800000000000001 
306 2   7.040000000000002  12.320000000000000   1.760000000000000 
307 2   7.040000000000003  12.320000000000002  15.840000000000002 
308 2   7.040000000000002  10.560000000000000   0.000000000000000 
309 2   8.800000000000001   8.800000000000001   7.040000000000001 
310 2   8.800000000000001  12.320000000000000  14.080000000000002 
311 2   7.040000000000002  14.080000000000002   0.000000000000000 
312 2   8.800000000000001  10.560000000000000   1.760000000000000 
313 2   1.760000000000002  15.840000000000002   7.040000000000001 
314 2   0.000000000000001  14.080000000000002   3.520000000000000 
315 2   8.800000000000001   7.040000000000002  12.320000000000000 
316 2   8.800000000000001  12.320000000000000   3.520000000000000 
317 2   8.800000000000001   8.800000000000001  14.080000000000002 
318 2   8.800000000000001  14.080000000000002   1.760000000000000 
319 3   8.800000000000001   8.800000000000001   0.000000000000000 
320 3   8.800000000000001  12.320000000000000   0.000000000000000 
321 3   8.800000000000002   7.040000000000002  15.840000000000002 
322 3   8.800000000000001   8.800000000000001  10.560000000000000 
323 3   7.040000000000002   7.040000000000002  10.560000000000000 
324 3   8.800000000000001   7.040000000000002   8.800000000000001 
325 3   7.040000000000001   7.040000000000001   7.040000000000001 
326 3   8.800000000000001   8.800000000000001   3.520000000000000 
327 3   7.040000000000002   8.800000000000001   5.280000000000000 
328 3   7.040000000000002  10.560000000000000   3.520000000000000 
329 3   7.040000000000001   7.040000000000001   0.000000000000000 
330 3   8.800000000000001   5.280000000000001  14.080000000000002 
331 3   8.800000000000001   5.280000000000000   7.040000000000001 
332 3   7.040000000000001   3.520000000000001   7.040000000000001 
333 3   8.800000000000001   5.280000000000000   3.520000000000000 
334 3   7.040000000000001   3.520000000000000   3.520000000000000 
335 3   7.040000000000001   5.280000000000000   1.760000000000000 
336 3   7.040000000000001   3.520000000000000   0.000000000000000 
337 3   7.040000000000002  15.840000000000002   1.760000000000000 
338 3  10.560000000000000   0.000000000000000   3.520000000000000 
339 3  12.320000000000000   0.000000000000000   1.760000000000000 
340 3   7.040000000000003  15.840000000000003  15.840000000000002 
341 3   7.040000000000003  15.840000000000002  12.320000000000000 
342 3   8.800000000000001  14.080000000000002   8.800000000000001 
343 3   7.040000000000002  14.080000000000002   7.040000000000001 
344 3   8.800000000000001  14.080000000000002   5.280000000000000 
345 3   7.040000000000002  14.080000000000002   3.520000000000000 
346 3   8.800000000000002   0.000000000000001  15.840000000000002 
347 3   8.800000000000002  10.560000000000002  15.840000000000002 
348 3   7.040000000000003  10.560000000000000  14.080000000000002 
349 3   8.800000000000001  12.320000000000000  10.560000000000000 
350 3   8.800000000000001  12.320000000000000   7.040000000000001 
351 3   7.040000000000003  12.320000000000000   8.800000000000001 
352 3   7.040000000000002  10.560000000000000   7.040000000000001 
353 3   8.800000000000001  10.560000000000000   5.280000000000000 
354 3   7.040000000000002  12.320000000000000   5.280000000000000 
355 3   3.520000000000001  10.560000000000000   3.520000000000000 
356 3   5.280000000000002  10.560000000000002  15.840000000000002 
357 3   5.280000000000002  12.320000000000000  10.560000000000000 
358 3   5.280000000000002  10.560000000000000  12.320000000000000 
359 3   3.520000000000001  10.560000000000000  10.560000000000000 
360 3   5.280000000000001  12.320000000000000   7.040000000000001 
361 3   5.280000000000001  12.320000000000000   3.520000000000000 
362 3   5.280000000000001  10.560000000000000   5.280000000000000 
363 3   3.520000000000002  12.320000000000000   5.280000000000000 
364 3   3.520000000000001  14.080000000000002   0.000000000000000 
365 3   5.280000000000001  10.560000000000000   1.760000000000000 
366 3   3.520000000000002   7.040000000000002  14.080000000000002 
367 3   5.280000000000001   7.040000000000002  12.320000000000000 
368 3   3.520000000000001   7.040000000000002  10.560000000000000 
369 3   5.280000000000001   8.800000000000001   7.040000000000001 
370 3   3.520000000000001   7.040000000000001   7.040000000000001 
371 3   5.280000000000001   8.800000000000001   3.520000000000000 
372 3   3.520000000000001   7.040000000000001   3.520000000000000 
373 3   5.280000000000002  15.840000000000002  14.080000000000002 
374 3   7.040000000000002   0.000000000000001  14.080000000000002 
375 3   8.800000000000001   0.000000000000001  12.320000000000000 
376 3   7.040000000000002   0.000000000000001  10.560000000000000 
377 3   7.040000000000002   1.760000000000001   8.800000000000001 
378 3   8.800000000000001   0.000000000000000   5.280000000000000 
379 3   7.040000000000001   0.000000000000000   3.520000000000000 
380 3   8.800000000000001   1.760000000000000   0.000000000000000 
381 3   7.040000000000001   0.000000000000000   0.000000000000000 
382 3  10.560000000000000   1.760000000000000   5.280000000000000 
383 3   5.280000000000002  14.080000000000004  15.840000000000002 
384 3   3.520000000000002  15.840000000000003  15.840000000000002 
385 3   5.280000000000002  15.840000000000002  10.560000000000000 
386 3   3.520000000000002  15.840000000000002  12.320000000000000 
387 3   3.520000000000002  14.080000000000002  10.560000000000000 
388 3   5.280000000000001  15.840000000000002   7.040000000000001 
389 3   5.280000000000001  15.840000000000002   3.520000000000000 
390 3   5.280000000000001  14.080000000000002   1.760000000000000 
391 3  15.840000000000002   5.280000000000000   0.000000000000000 
392 3  15.840000000000002   7.040000000000001   5.280000000000000 
393 3  14.080000000000002   8.800000000000001   5.280000000000000 
394 3  15.840000000000002   7.040000000000001   1.760000000000000 
395 3  15.840000000000002   5.280000000000001  14.080000000000002 
396 3  14.080000000000002   3.520000000000001  14.080000000000002 
397 3  15.840000000000002   3.520000000000001   8.800000000000001 
398 3  14.080000000000002   5.280000000000001   8.800000000000001 
399 3  14.080000000000002   3.520000000000001   7.040000000000001 
400 3  14.080000000000002   8.800000000000001   8.800000000000001 
401 3  14.080000000000002   5.280000000000000   1.760000000000000 
402 3  14.080000000000002   3.520000000000000   0.000000000000000 
403 3  15.840000000000002   1.760000000000001  10.560000000000000 
404 3  14.080000000000002   1.760000000000001  12.320000000000000 
405 3  14.080000000000002   0.000000000000001  10.560000000000000 
406 3  15.840000000000002   0.000000000000001   8.800000000000001 
407 3  14.080000000000002   1.760000000000001   8.800000000000001 
408 3  14.080000000000002   1.760000000000000   5.280000000000000 
409 3  15.840000000000002  10.560000000000000   8.800000000000001 
410 3  15.840000000000003  14.080000000000004  15.840000000000002 
411 3  14.080000000000002  14.080000000000002  14.080000000000002 
412 3  14.080000000000004  15.840000000000002  12.320000000000000 
413 3  15.840000000000002  14.080000000000002   8.800000000000001 
414 3  14.080000000000002  14.080000000000002   7.040000000000001 
415 3  15.840000000000003  15.840000000000002   3.520000000000000 
416 3  14.080000000000004  15.840000000000002   5.280000000000000 
417 3  15.840000000000003  10.560000000000002  15.840000000000002 
418 3  14.080000000000002   0.000000000000000   3.520000000000000 
419 3  14.080000000000002  12.320000000000000   8.800000000000001 
420 3  14.080000000000002  10.560000000000000   7.040000000000001 
421 3  15.840000000000002  12.320000000000000   3.520000000000000 
422 3  15.840000000000002  10.560000000000000   1.760000000000000 
423 3  14.080000000000002  10.560000000000000   0.000000000000000 
424 3  14.080000000000002   7.040000000000002  14.080000000000002 
425 3  15.840000000000002   8.800000000000001  10.560000000000000 
426 3  14.080000000000002   8.800000000000001  12.320000000000000 
427 3  10.560000000000000   5.280000000000001   8.800000000000001 
428 3  10.560000000000002   8.800000000000002  15.840000000000002 
429 3  10.560000000000000   7.040000000000002  14.080000000000002 
430 3  12.320000000000000   8.800000000000001   7.040000000000001 
431 3  12.320000000000000   7.040000000000002   8.800000000000001 
432 3  10.560000000000002   5.280000000000001  15.840000000000002 
433 3  12.320000000000000   5.280000000000001  10.560000000000000 
434 3  12.320000000000000   5.280000000000000   7.040000000000001 
435 3  12.320000000000000   3.520000000000001   8.800000000000001 
436 3  12.320000000000000   8.800000000000001  14.080000000000002 
437 3  10.560000000000000   3.520000000000001   7.040000000000001 
438 3  12.320000000000000   5.280000000000000   3.520000000000000 
439 3  12.320000000000000   3.520000000000001   5.280000000000000 
440 3  12.320000000000000   1.760000000000001  14.080000000000002 
441 3  10.560000000000002   1.760000000000001  15.840000000000002 
442 3  12.320000000000000   1.760000000000001  10.560000000000000 
443 3  10.560000000000000   1.760000000000001   8.800000000000001 
444 3  12.320000000000000   0.000000000000000   5.280000000000000 
445 3  10.560000000000000  10.560000000000000  14.080000000000002 
446 3  15.840000000000002   0.000000000000000   1.760000000000000 
447 3  12.320000000000002  15.840000000000002  10.560000000000000 
448 3  10.560000000000000  14.080000000000002  10.560000000000000 
449 3  12.320000000000000  14.080000000000002   5.280000000000000 
450 3  10.560000000000000  14.080000000000002   3.520000000000000 
451 3  10.560000000000002  15.840000000000002   1.760000000000000 
452 3  10.560000000000000  14.080000000000002   0.000000000000000 
453 3  12.320000000000000  12.320000000000000  14.080000000000002 
454 3   0.000000000000000   1.760000000000000   1.760000000000000 
455 3  12.320000000000000  10.560000000000000  12.320000000000000 
456 3  10.560000000000000  12.320000000000000  12.320000000000000 
457 3  10.560000000000000  10.560000000000000  10.560000000000000 
458 3  12.320000000000000  10.560000000000000   8.800000000000001 
459 3  12.320000000000000  10.560000000000000   5.280000000000000 
460 3  10.560000000000000  12.320000000000000   5.280000000000000 
461 3  12.320000000000000  10.560000000000000   1.760000000000000 
462 3   0.000000000000000   3.520000000000000   3.520000000000000 
463 3   1.760000000000002  14.080000000000002   8.800000000000001 
464 3   1.760000000000001  10.560000000000000   8.800000000000001 
465 3   5.280000000000000   5.280000000000000   3.520000000000000 
466 3   1.760000000000001   1.760000000000001  10.560000000000000 
467 3   1.760000000000001   0.000000000000001  15.840000000000002 
468 3   3.520000000000000   3.520000000000000   3.520000000000000 
469 3   0.000000000000002  14.080000000000002  10.560000000000000 
470 3   1.760000000000001  10.560000000000000   5.280000000000000 
471 3   1.760000000000000   5.280000000000000   0.000000000000000 
472 3   5.280000000000000   5.280000000000000   0.000000000000000 
473 3   0.000000000000002  15.840000000000002  12.320000000000000 
474 3   1.760000000000002  14.080000000000002  12.320000000000000 
475 3   5.280000000000000   7.040000000000001   1.760000000000000 
476 3   1.760000000000001   3.520000000000001   5.280000000000000 
477 3   1.760000000000001   5.280000000000000   3.520000000000000 
478 3   3.520000000000001   1.760000000000001  15.840000000000002 
479 3   0.000000000000001   5.280000000000001  12.320000000000000 
480 3   1.760000000000002  14.080000000000004  15.840000000000002 
481 3   0.000000000000001   3.520000000000001  14.080000000000002 
482 3   3.520000000000001   0.000000000000001  10.560000000000000 
483 3   1.760000000000002  15.840000000000002  14.080000000000002 
484 3   1.760000000000001   3.520000000000001  15.840000000000002 
485 3   0.000000000000000   7.040000000000001   0.000000000000000 
486 3   0.000000000000001   8.800000000000001   1.760000000000000 
487 3   1.760000000000001   8.800000000000001   0.000000000000000 
488 3   0.000000000000001  14.080000000000002   7.040000000000001 
489 3   1.760000000000000   1.760000000000000   0.000000000000000 
490 3   1.760000000000001  15.840000000000002   0.000000000000000 
491 3   3.520000000000001   3.520000000000001  14.080000000000002 
492 3   3.520000000000002   5.280000000000001  15.840000000000002 
493 3   1.760000000000001  14.080000000000002   5.280000000000000 
494 3   0.000000000000002  12.320000000000002  15.840000000000002 
495 3   3.520000000000002   5.280000000000001  12.320000000000000 
496 3   0.000000000000001   1.760000000000001   8.800000000000001 
497 3   0.000000000000000   1.760000000000000   5.280000000000000 
498 3   1.760000000000000   1.760000000000000   3.520000000000000 
499 3   1.760000000000001  15.840000000000002   3.520000000000000 
500 3   0.000000000000001  15.840000000000002   1.760000000000000 
