LAMMPS data file via write_data, version 29 Aug 2024, timestep = 27, units = metal

500 atoms
3 atom types

0 17.594454671134066 xlo xhi
0 17.594454671134066 ylo yhi
0 17.594454671134066 zlo zhi

Masses

1 55.5498
2 55.845
3 55.845

Atoms # atomic

1 2 0.0013587158732295556 0.0013587158732291387 8.677474666780937e-19 0 0 0
2 3 1.7580867512401759 1.7580867512401768 7.020055276148053e-19 0 0 0
3 1 1.7573939481814178 0.0020515189319881863 1.7552146254846102 0 0 0
4 1 0.0020515189319889487 1.7573939481814185 1.7552146254846095 0 0 0
5 1 3.515916791764332 0.002024536589442616 1.611991924473816e-19 0 0 0
8 1 3.517672156901592 1.7599286437866049 1.7580731405475305 0 0 0
21 1 0.002024536589443442 3.5159167917643304 8.677638770999235e-20 0 0 0
23 1 1.7599286437866049 3.5176721569015914 1.7580731405475303 0 0 0
52 1 1.7598466853927752 1.7598466853927763 3.518253252385537 0 0 0
53 1 1.7592487022455627 0.00019676486784217355 5.278087547597404 0 0 0
54 1 0.00019676486784299976 1.7592487022455636 5.278087547597403 0 0 0
58 1 3.5186696787409315 1.7592127998511706 5.278017361552216 0 0 0
73 1 1.7592127998511702 3.51866967874093 5.278017361552216 0 0 0
75 1 3.519586500834374 3.5195865008343734 3.5197266715928435 0 0 0
6 1 5.277129519617959 1.759300034508512 2.2272606178898035e-18 0 0 0
9 1 7.037721833325429 0.00019852950397549092 2.4918080776445718e-18 0 0 0
12 1 7.037590044936025 1.7594426891001602 1.7592500139839014 0 0 0
27 1 5.278747865242169 3.519323563268973 1.7596590598948756 0 0 0
29 1 7.037672704449563 3.5186186749602903 0 0 0 0
56 1 5.2762067637888155 1.759220456964632 3.5169156375888195 0 0 0
57 1 5.277683284697117 0.00022574465730258134 5.277528506713093 0 0 0
59 1 7.037612033766623 0.0002244497804803697 3.51876958788989 0 0 0
62 1 7.037094497105694 1.7593443846138597 5.277663267976452 0 0 0
77 1 5.278350749096411 3.518615944022923 5.2782003270185704 0 0 0
79 1 7.0374748518147685 3.5185930891198827 3.518805446375769 0 0 0
11 1 8.797144672516948 1.7080260900788335e-05 1.7594132668137232 0 0 0
31 1 8.797148246238908 3.518835172429945 1.7594350648945942 0 0 0
60 1 8.79722360552383 1.759448498876916 3.5187443144950112 0 0 0
61 1 8.79713876220775 9.633822577147736e-05 5.278182757883586 0 0 0
81 1 8.797142748447525 3.518714516065478 5.278196502057943 0 0 0
10 1 8.797279942410368 1.759433083691897 1.4643515426061206e-19 0 0 0
14 1 12.316178304922042 1.7592469376094306 4.5504380508300375e-18 0 0 0
15 1 12.316310093311447 2.7780132440101035e-06 1.7592500139839018 0 0 0
16 1 10.556755465730523 1.759428386852507 1.7594132668137226 0 0 0
33 1 10.556679703630412 3.5187683184898364 1.536062585227573e-18 0 0 0
35 1 12.316374395404464 3.5188530684057056 1.7591993468763603 0 0 0
64 1 12.316288104480847 1.7592210173329248 3.51876958788989 0 0 0
65 1 12.316805641141777 0.00010108249954653092 5.277663267976451 0 0 0
66 1 10.556761376039722 1.7593491288876342 5.278182757883587 0 0 0
83 1 10.556821439168113 3.5188121898629587 3.518764709266024 0 0 0
85 1 12.316198759555775 3.518733873406589 5.278273150526806 0 0 0
71 1 17.59404156517373 3.5172521472204172 3.5173739694161146 -1 0 0
17 1 14.076770618629514 0.0001454326048938062 0 0 0 0
18 1 15.83798334648314 1.7574209305239632 0 0 0 0
20 1 14.075104023919666 1.7598504071244976 1.7596815212955494 0 0 0
37 1 14.07768843467605 3.516681884088776 1.7341718731418782e-18 0 0 0
39 1 15.834092335455638 3.5198078027918336 1.7602263702455074 0 0 0
67 1 14.077693374458656 0.0002250101487731104 3.516915637588818 0 0 0
68 1 15.836647991027053 1.759858573073742 3.5173739694161146 0 0 0
69 1 15.83523045950654 0.00023266726223686388 5.278017361552216 0 0 0
70 1 14.076216853550356 1.7592197224561035 5.277528506713092 0 0 0
87 1 14.07551063931151 3.5188986764503016 3.5190973884793206 0 0 0
89 1 15.835273550277298 3.5186265879701732 5.2779635804065315 0 0 0
22 1 1.7593000345085108 5.27712951961796 1.9124413962526696e-18 0 0 0
28 1 3.519323563268973 5.278747865242169 1.759659059894876 0 0 0
41 1 0.00019852950397849484 7.0377218333254286 1.1606341856211477e-18 0 0 0
42 1 1.7594426891001587 7.037590044936024 1.7592500139838996 0 0 0
43 1 3.5186186749602903 7.037672704449564 0 0 0 0
72 1 1.7592204569646313 5.2762067637888155 3.5169156375888186 0 0 0
74 1 0.00022574465730255638 5.277683284697119 5.277528506713093 0 0 0
78 1 3.5186159440229234 5.278350749096412 5.2782003270185704 0 0 0
91 1 0.0002244497804804124 7.037612033766622 3.51876958788989 0 0 0
92 1 1.7593443846138592 7.037094497105693 5.277663267976452 0 0 0
93 1 3.518593089119884 7.037474851814768 3.51880544637577 0 0 0
252 1 1.708026089891795e-05 8.79714467251695 1.759413266813722 0 0 0
254 1 3.5188351724299465 8.79714824623891 1.7594350648945933 0 0 0
301 1 1.7594484988769148 8.797223605523833 3.5187443144950126 0 0 0
302 1 9.633822577401855e-05 8.797138762207753 5.278182757883587 0 0 0
304 1 3.51871451606548 8.797142748447525 5.278196502057942 0 0 0
26 1 5.275774194555614 5.275774194555612 8.422999129600352e-20 0 0 0
32 1 7.037536661645942 5.278256899885612 1.7591317277892502 0 0 0
44 1 5.278256899885612 7.037536661645942 1.7591317277892504 0 0 0
45 1 7.03699591932741 7.036995919327408 2.2424766164292295e-18 0 0 0
76 1 5.278628432941633 5.278628432941635 3.519107864283438 0 0 0
82 1 7.037811816315985 5.278252335074425 5.278337207710935 0 0 0
94 1 5.278252335074424 7.037811816315984 5.278337207710934 0 0 0
95 1 7.037808618633916 7.037808618633916 3.5187685992769495 0 0 0
46 1 8.797146024066118 7.037661492327104 1.759260804474487 0 0 0
80 1 8.79708735459357 5.278189353234341 3.51873854891252 0 0 0
256 1 7.037661492327105 8.797146024066118 1.759260804474488 0 0 0
303 1 5.278189353234341 8.79708735459357 3.51873854891252 0 0 0
255 1 8.7970368479808 8.797036847980802 0 0 0 0
305 1 8.797224031984523 8.797224031984525 3.518730066147528 0 0 0
30 1 8.797227966914669 5.278158936588049 1.797519883769063e-18 0 0 0
34 1 12.316742264380167 5.277614725682484 0 0 0 0
36 1 10.556766805763854 5.278212731969786 1.759349510907839 0 0 0
47 1 10.55687523234474 7.037504239421028 0 0 0 0
48 1 12.316296197213095 7.037603941034376 1.759249145919405 0 0 0
84 1 12.316255744079891 5.278267927367542 3.5187500199089636 0 0 0
86 1 10.556684353793463 5.278216494628531 5.278231293052594 0 0 0
96 1 8.797232827803452 7.037729287865289 5.278258024652396 0 0 0
97 1 10.556687475523216 7.037700883043015 3.5187338056639357 0 0 0
98 1 12.31616605190567 7.037734086341801 5.278262889978825 0 0 0
257 1 12.316395898826444 8.797024905902731 4.404388946037319e-19 0 0 0
258 1 10.556725080483067 8.797175057764406 1.7592652068915804 0 0 0
307 1 12.316199255204456 8.797212662724258 3.5187338056639357 0 0 0
308 1 10.556694423391232 8.797205714856242 5.278241195485486 0 0 0
310 1 14.075683643618943 8.79721578445401 5.278231293052593 0 0 0
100 1 15.835166264840883 7.037701378691696 5.278273150526805 0 0 0
99 1 14.075632210879931 7.03764439416758 3.5187500199089645 0 0 0
90 1 14.075609396220015 5.278290742027458 5.2783695953102345 0 0 0
309 1 15.835087948384514 8.79707869907936 3.5187647092660237 0 0 0
88 1 15.835001461797168 5.278389498935964 3.519097388479321 0 0 0
50 1 15.835047069841767 7.037525742843007 1.7591993468763607 0 0 0
24 1 17.594049731122976 5.2787961143278075 1.7596815212955488 -1 0 0
38 1 15.837218254158694 5.2762117035714216 2.230876300711053e-18 0 0 0
40 1 14.07577883343719 5.278121304810283 1.758981008907806 0 0 0
49 1 14.076285412564989 7.037157873867301 7.104816743755623e-19 0 0 0
259 1 15.835131819757635 8.797220434617062 5.25479236688287e-19 0 0 0
260 1 14.075687406277687 8.797133332483622 1.7593495109078394 0 0 0
101 1 1.6063305660555777e-05 1.6063305660236337e-05 7.037742994977547 0 0 0
102 1 1.7594294038077456 1.7594294038077474 7.037742994977548 0 0 0
103 1 1.7594247355850894 2.0731528314666465e-05 8.797227335567035 0 0 0
104 1 2.0731528317098164e-05 1.7594247355850905 8.797227335567031 0 0 0
105 1 3.5187605917979194 2.0295196037504743e-05 7.037682548834069 0 0 0
108 1 3.5188220615819246 1.7594462870639958 8.797227335567035 0 0 0
121 1 2.0295196037902774e-05 3.5187605917979172 7.03768254883407 0 0 0
123 1 1.759446287063994 3.5188220615819237 8.797227335567035 0 0 0
125 1 3.5187873360509423 3.518787336050942 7.037538249435513 0 0 0
151 1 1.6063305660977142e-05 1.606330565952849e-05 10.556711676156516 0 0 0
152 1 1.7594294038077463 1.759429403807747 10.556711676156517 0 0 0
153 1 3.5187605917979194 2.029519603713993e-05 10.556772122299995 0 0 0
161 1 2.0295196039367937e-05 3.518760591797921 10.556772122299995 0 0 0
163 1 3.5187873360509423 3.518787336050942 10.556916421698551 0 0 0
106 1 5.278142179294844 1.7593431960935468 7.037674066630222 0 0 0
107 1 5.278197020316326 1.6894392785449707e-06 8.797227335567035 0 0 0
109 1 7.037493475471767 9.761426687217676e-05 7.037489231593513 0 0 0
112 1 7.037641140590318 1.75934957135885 8.797227335567035 0 0 0
127 1 5.278210599769681 3.5188058904929624 8.797227335567035 0 0 0
129 1 7.037698621692282 3.518709484082611 7.037693233198449 0 0 0
154 1 5.278142179294843 1.7593431960935457 10.556780604503839 0 0 0
155 1 7.037493475471768 9.761426686901399e-05 10.556965439540551 0 0 0
165 1 7.037698621692283 3.5187094840826116 10.556761437935613 0 0 0
110 1 8.797032934328016 1.7593514082205786 7.037544761465926 0 0 0
111 1 8.797167490303318 9.285475570331671e-05 8.797227335567035 0 0 0
131 1 8.797183973332217 3.518708478955373 8.797227335567035 0 0 0
156 1 8.797032934328016 1.7593514082205781 10.556909909668136 0 0 0
113 1 10.556867203919456 9.405889282720063e-05 7.037544761465927 0 0 0
114 1 12.316406662775703 1.7593478528465347 7.037489231593513 0 0 0
115 1 12.316258997657153 9.589575455650088e-05 8.797227335567033 0 0 0
116 1 10.556732647944154 1.7593526123577041 8.797227335567035 0 0 0
133 1 10.556690379345826 3.5187142083759633 7.037726926075329 0 0 0
135 1 12.31625377660498 3.5187130066458687 8.797227335567035 0 0 0
157 1 10.556867203919454 9.405889282682002e-05 10.556909909668136 0 0 0
158 1 12.316406662775703 1.759347852846536 10.556965439540551 0 0 0
167 1 10.556690379345827 3.5187142083759637 10.556727745058733 0 0 0
117 1 14.075757958952629 0.0001022710198591596 7.037674066630224 0 0 0
118 1 15.835139546449554 1.759425171917369 7.03768254883407 0 0 0
120 1 14.075703117931148 1.7594437776741276 8.797227335567035 0 0 0
137 1 14.07573889052263 3.5187023591012796 7.0375339156485035 0 0 0
139 1 15.8350635969542 3.5188365412932723 8.797227335567033 0 0 0
159 1 14.075757958952632 0.00010227101986054083 10.55678060450384 0 0 0
160 1 15.835139546449552 1.7594251719173668 10.556772122299995 0 0 0
169 1 14.07573889052263 3.518702359101278 10.556920755485558 0 0 0
122 1 1.7593431960935473 5.2781421792948455 7.037674066630223 0 0 0
124 1 1.689439279546465e-06 5.278197020316327 8.797227335567037 0 0 0
128 1 3.518805890492964 5.2782105997696815 8.797227335567035 0 0 0
141 1 9.761426687296872e-05 7.037493475471767 7.037489231593513 0 0 0
142 1 1.7593495713588487 7.037641140590316 8.797227335567033 0 0 0
143 1 3.518709484082611 7.037698621692281 7.037693233198449 0 0 0
162 1 1.7593431960935444 5.278142179294844 10.55678060450384 0 0 0
171 1 9.761426687243438e-05 7.0374934754717655 10.55696543954055 0 0 0
172 1 3.5187094840826134 7.037698621692282 10.556761437935613 0 0 0
351 1 1.7593514082205768 8.797032934328017 7.037544761465927 0 0 0
352 1 9.28547557013113e-05 8.797167490303318 8.797227335567033 0 0 0
354 1 3.5187084789553746 8.797183973332219 8.797227335567033 0 0 0
401 1 1.759351408220578 8.797032934328017 10.556909909668137 0 0 0
126 1 5.278218943425749 5.278218943425749 7.037640901594555 0 0 0
132 1 7.037694930163511 5.278204717211108 8.797227335567035 0 0 0
144 1 5.278204717211107 7.037694930163509 8.797227335567035 0 0 0
145 1 7.037730894482608 7.037730894482607 7.037769448494693 0 0 0
164 1 5.278218943425748 5.278218943425749 10.556813769539506 0 0 0
173 1 7.037730894482608 7.037730894482608 10.55668522263937 0 0 0
146 1 8.797214902012346 7.037707396102856 8.797227335567035 0 0 0
356 1 7.037707396102857 8.797214902012348 8.797227335567035 0 0 0
355 1 8.797211086078363 8.797211086078363 7.03774511384084 0 0 0
403 1 8.797211086078361 8.797211086078363 10.556709557293223 0 0 0
130 1 8.797228265723634 5.278203110003074 7.037762548738765 0 0 0
134 1 12.316174875778602 5.278209409872948 7.037770522296695 0 0 0
136 1 10.556702379901578 5.278193304659397 8.797227335567035 0 0 0
147 1 10.556699399170233 7.037708269845351 7.037748129059441 0 0 0
148 1 12.316196915244014 7.037703223003457 8.797227335567033 0 0 0
166 1 8.797228265723634 5.278203110003073 10.556692122395297 0 0 0
168 1 12.316174875778598 5.278209409872947 10.556684148837368 0 0 0
174 1 10.556699399170233 7.037708269845349 10.556706542074624 0 0 0
357 1 12.316191868402118 8.79720073907724 7.037748129059442 0 0 0
358 1 10.556699778620812 8.797200359626661 8.797227335567033 0 0 0
404 1 12.31619186840212 8.797200739077242 10.556706542074624 0 0 0
175 1 14.075690728374527 7.0377252624688715 10.556684148837368 0 0 0
138 1 15.835197779146192 5.278161247724842 7.037533915648503 0 0 0
140 1 14.07572719790674 5.278172940340733 8.797227335567033 0 0 0
149 1 14.075690728374525 7.03772526246887 7.037770522296694 0 0 0
150 1 15.835187131601602 7.037646361642492 8.797227335567035 0 0 0
170 1 15.835197779146192 5.278161247724844 10.556920755485558 0 0 0
359 1 15.835185929871509 8.797209758901648 7.0377269260753295 0 0 0
360 1 14.075706833588075 8.797197758345895 8.797227335567035 0 0 0
405 1 15.835185929871505 8.797209758901646 10.556727745058733 0 0 0
176 1 1.7592487022455614 0.00019676486784276642 12.316367123536665 0 0 0
177 1 0.00019676486784378673 1.7592487022455636 12.316367123536665 0 0 0
179 1 3.5186696787409315 1.7592127998511695 12.31643730958185 0 0 0
186 1 1.7592127998511684 3.518669678740931 12.31643730958185 0 0 0
202 1 1.7598466853927737 1.7598466853927757 14.076201418748527 0 0 0
203 1 1.7573939481814167 0.0020515189319882826 15.839240045649456 0 0 0
204 1 0.0020515189319883446 1.757393948181418 15.839240045649456 0 0 0
208 1 3.517672156901593 1.7599286437866066 15.83638153058654 0 0 0
223 1 1.7599286437866057 3.5176721569015923 15.83638153058654 0 0 0
225 1 3.5195865008343756 3.519586500834375 14.07472799954122 0 0 0
25 1 3.515081637459151 3.51508163745915 17.594454671134063 0 0 -1
178 1 5.277683284697116 0.0002257446573040988 12.316926164420975 0 0 0
181 1 7.037094497105694 1.7593443846138594 12.316791403157618 0 0 0
188 1 5.278350749096411 3.5186159440229234 12.3162543441155 0 0 0
206 1 5.276206763788816 1.759220456964632 14.077539033545243 0 0 0
209 1 7.037612033766623 0.00022444978048295958 14.075685083244174 0 0 0
212 1 7.037590044936025 1.759442689100159 15.835204657150165 0 0 0
227 1 5.278747865242167 3.5193235632689723 15.834795611239192 0 0 0
229 1 7.0374748518147685 3.518593089119882 14.075649224758294 0 0 0
180 1 8.797138762207751 9.633822577085615e-05 12.31627191325048 0 0 0
190 1 8.797142748447524 3.5187145160654785 12.316258169076127 0 0 0
210 1 8.797223605523827 1.7594484988769166 14.075710356639052 0 0 0
211 1 8.797144672516948 1.70802608987349e-05 15.835041404320346 0 0 0
231 1 8.797148246238908 3.5188351724299465 15.835019606239472 0 0 0
182 1 12.316805641141777 0.00010108249954563521 12.316791403157618 0 0 0
183 1 10.556761376039722 1.7593491288876337 12.31627191325048 0 0 0
192 1 12.316198759555775 3.5187338734065903 12.316181520607262 0 0 0
214 1 12.316288104480847 1.7592210173329237 14.075685083244174 0 0 0
215 1 12.316310093311445 2.7780132469807696e-06 15.835204657150166 0 0 0
216 1 10.556755465730525 1.7594283868525051 15.835041404320348 0 0 0
233 1 10.556821439168113 3.51881218986296 14.075689961868038 0 0 0
235 1 12.316374395404464 3.5188530684057038 15.835255324257707 0 0 0
13 1 10.556620195837102 1.2383421508289144e-05 17.594454671134063 0 0 -1
221 1 17.59404156517373 3.5172521472204172 14.07708070171795 -1 0 0
184 1 15.83523045950654 0.00023266726223686757 12.31643730958185 0 0 0
185 1 14.076216853550358 1.759219722456102 12.316926164420973 0 0 0
194 1 15.835273550277298 3.518626587970173 12.316491090727538 0 0 0
217 1 14.077693374458656 0.00022501014877420592 14.077539033545245 0 0 0
218 1 15.836647991027053 1.7598585730737426 14.07708070171795 0 0 0
220 1 14.075104023919664 1.7598504071244996 15.834773149838517 0 0 0
237 1 14.075510639311512 3.518898676450302 14.075357282654744 0 0 0
239 1 15.834092335455637 3.519807802791835 15.834228300888558 0 0 0
187 1 0.00022574465730543653 5.277683284697117 12.316926164420973 0 0 0
189 1 3.518615944022924 5.278350749096412 12.316254344115498 0 0 0
196 1 1.7593443846138586 7.037094497105694 12.316791403157616 0 0 0
222 1 1.759220456964632 5.276206763788816 14.077539033545245 0 0 0
228 1 3.5193235632689728 5.278747865242167 15.834795611239192 0 0 0
241 1 0.00022444978048285127 7.0376120337666235 14.075685083244174 0 0 0
242 1 1.7594426891001587 7.0375900449360245 15.835204657150166 0 0 0
243 1 3.5185930891198836 7.037474851814768 14.075649224758296 0 0 0
426 1 9.633822577440994e-05 8.797138762207751 12.316271913250482 0 0 0
427 1 3.51871451606548 8.797142748447525 12.316258169076125 0 0 0
451 1 1.7594484988769146 8.79722360552383 14.075710356639052 0 0 0
452 1 1.70802608991596e-05 8.797144672516948 15.835041404320345 0 0 0
454 1 3.518835172429947 8.797148246238908 15.835019606239474 0 0 0
191 1 7.037811816315986 5.2782523350744235 12.316117463423133 0 0 0
197 1 5.278252335074423 7.037811816315985 12.316117463423133 0 0 0
226 1 5.278628432941633 5.278628432941634 14.075346806850625 0 0 0
232 1 7.037536661645943 5.278256899885614 15.835322943344817 0 0 0
244 1 5.278256899885613 7.037536661645943 15.835322943344815 0 0 0
245 1 7.037808618633916 7.037808618633916 14.075686071857117 0 0 0
230 1 8.797087354593568 5.278189353234341 14.075716122221545 0 0 0
246 1 8.797146024066116 7.037661492327104 15.835193866659578 0 0 0
453 1 5.27818935323434 8.797087354593568 14.075716122221545 0 0 0
456 1 7.037661492327106 8.797146024066116 15.835193866659578 0 0 0
455 1 8.797224031984523 8.797224031984525 14.075724604986537 0 0 0
193 1 10.556684353793463 5.278216494628531 12.316223378081474 0 0 0
198 1 8.797232827803452 7.037729287865288 12.316196646481673 0 0 0
199 1 12.31616605190567 7.0377340863418 12.316191781155243 0 0 0
234 1 12.316255744079891 5.278267927367543 14.075704651225099 0 0 0
236 1 10.556766805763852 5.278212731969785 15.83510516022623 0 0 0
247 1 10.556687475523216 7.037700883043016 14.075720865470128 0 0 0
248 1 12.316296197213095 7.0376039410343765 15.835205525214661 0 0 0
429 1 10.556694423391233 8.797205714856242 12.316213475648583 0 0 0
457 1 12.316199255204454 8.797212662724258 14.075720865470128 0 0 0
458 1 10.55672508048307 8.797175057764406 15.835189464242486 0 0 0
250 1 15.835047069841767 7.037525742843007 15.835255324257707 0 0 0
249 1 14.075632210879931 7.037644394167578 14.0757046512251 0 0 0
240 1 14.075778833437191 5.278121304810283 15.835473662226262 0 0 0
238 1 15.835001461797166 5.2783894989359625 14.075357282654744 0 0 0
200 1 15.83516626484088 7.037701378691697 12.316181520607262 0 0 0
224 1 17.594049731122976 5.2787961143278075 15.834773149838519 -1 0 0
195 1 14.075609396220015 5.278290742027458 12.316085075823835 0 0 0
430 1 14.075683643618943 8.79721578445401 12.316223378081473 0 0 0
459 1 15.835087948384514 8.79707869907936 14.07568996186804 0 0 0
460 1 14.075687406277687 8.797133332483622 15.83510516022623 0 0 0
251 1 1.7594330836918972 8.79727994241037 0 0 0 0
261 1 1.2383421508066747e-05 10.556620195837102 0 0 0 0
262 1 1.7592469376094286 12.316178304922044 1.3025497363551977e-18 0 0 0
263 1 1.7594283868525062 10.556755465730522 1.7594132668137228 0 0 0
264 1 2.7780132475133064e-06 12.316310093311447 1.7592500139839007 0 0 0
265 1 3.5187683184898386 10.556679703630412 0 0 0 0
268 1 3.5188530684057064 12.316374395404464 1.7591993468763598 0 0 0
312 1 1.7592210173329235 12.316288104480849 3.51876958788989 0 0 0
313 1 1.759349128887632 10.55676137603972 5.2781827578835845 0 0 0
314 1 0.00010108249954705049 12.316805641141778 5.27766326797645 0 0 0
315 1 3.5188121898629587 10.556821439168113 3.518764709266024 0 0 0
318 1 3.5187338734065916 12.316198759555776 5.278273150526805 0 0 0
253 1 5.2781589365880475 8.79722796691467 0 0 0 0
266 1 5.277614725682483 12.316742264380169 3.791947358785603e-19 0 0 0
267 1 5.278212731969784 10.556766805763852 1.7593495109078385 0 0 0
269 1 7.037504239421029 10.556875232344742 0 0 0 0
272 1 7.037603941034377 12.316296197213097 1.7592491459194055 0 0 0
306 1 7.03772928786529 8.797232827803452 5.278258024652395 0 0 0
316 1 5.2782679273675415 12.316255744079893 3.518750019908964 0 0 0
317 1 5.27821649462853 10.556684353793461 5.2782312930525945 0 0 0
319 1 7.037700883043017 10.556687475523214 3.518733805663936 0 0 0
322 1 7.037734086341802 12.316166051905672 5.278262889978825 0 0 0
270 1 8.797024905902731 12.316395898826444 0 0 0 0
271 1 8.797175057764404 10.556725080483067 1.7592652068915806 0 0 0
320 1 8.797212662724258 12.316199255204456 3.5187338056639366 0 0 0
321 1 8.79720571485624 10.55669442339123 5.278241195485484 0 0 0
273 1 10.556863290266671 10.556863290266671 0 0 0 0
274 1 12.316904218920062 12.316904218920067 0 0 0 0
275 1 12.316238645920366 10.556754114181354 1.7592608044744877 0 0 0
276 1 10.556754114181356 12.316238645920368 1.7592608044744873 0 0 0
323 1 10.556676106262948 10.556676106262948 3.5187300661475276 0 0 0
324 1 12.316091519613554 12.316091519613556 3.51876859927695 0 0 0
325 1 12.316170850382184 10.55666731044402 5.278258024652395 0 0 0
326 1 10.556667310444022 12.316170850382186 5.278258024652395 0 0 0
311 1 17.594451639370558 10.55667653272364 3.518744314495013 -1 0 0
277 1 14.075741201659426 10.556672171332801 0 0 0 0
278 1 15.835281463287181 12.316227433797907 0 0 0 0
279 1 15.835064965817525 10.556751892008561 1.7594350648945924 0 0 0
280 1 14.075643238361863 12.316363476601529 1.7591317277892489 0 0 0
327 1 14.07571078501313 10.556812783653902 3.5187385489125202 0 0 0
328 1 15.835307049127588 12.316425286432704 3.51880544637577 0 0 0
329 1 15.835185622181992 10.556757389799946 5.278196502057943 0 0 0
330 1 14.075647803173048 12.316088321931488 5.278337207710936 0 0 0
281 1 0.00014543260489569703 14.076770618629512 0 0 0 0
282 1 1.7574209305239625 15.83798334648314 3.2300099869830486e-19 0 0 0
283 1 1.7598504071244963 14.075104023919664 1.7596815212955486 0 0 0
285 1 3.516681884088777 14.07768843467605 8.278283543243986e-19 0 0 0
288 1 3.5198078027918354 15.834092335455638 1.760226370245507 0 0 0
331 1 0.00022501014877515874 14.077693374458654 3.5169156375888186 0 0 0
332 1 1.75985857307374 15.836647991027053 3.517373969416115 0 0 0
333 1 1.759219722456102 14.076216853550356 5.277528506713092 0 0 0
334 1 0.00023266726223707308 15.83523045950654 5.278017361552216 0 0 0
335 1 3.5188986764503043 14.075510639311508 3.5190973884793215 0 0 0
338 1 3.518626587970174 15.8352735502773 5.2779635804065315 0 0 0
55 1 3.517252147220419 17.59404156517373 3.517373969416114 0 -1 0
341 1 8.797215784454009 14.075683643618941 5.278231293052594 0 0 0
340 1 8.797078699079359 15.835087948384514 3.5187647092660255 0 0 0
286 1 5.2762117035714216 15.837218254158696 1.268502644945139e-18 0 0 0
287 1 5.278121304810282 14.07577883343719 1.7589810089078062 0 0 0
289 1 7.0371578738673035 14.076285412564989 9.60831811854509e-19 0 0 0
292 1 7.037525742843008 15.835047069841767 1.7591993468763611 0 0 0
336 1 5.2783894989359625 15.83500146179717 3.51909738847932 0 0 0
337 1 5.278290742027456 14.075609396220013 5.278369595310234 0 0 0
339 1 7.037644394167581 14.07563221087993 3.5187500199089645 0 0 0
342 1 7.037701378691698 15.835166264840884 5.278273150526805 0 0 0
291 1 8.79713333248362 14.075687406277687 1.7593495109078394 0 0 0
7 1 5.278796114327806 17.594049731122976 1.7596815212955499 0 -1 0
346 1 10.556757389799946 15.835185622181994 5.278196502057942 0 0 0
345 1 12.316088321931487 14.075647803173046 5.278337207710934 0 0 0
344 1 12.316425286432702 15.83530704912759 3.5188054463757696 0 0 0
343 1 10.556812783653903 14.07571078501313 3.5187385489125207 0 0 0
296 1 10.556751892008565 15.835064965817526 1.7594350648945931 0 0 0
295 1 12.316363476601527 14.07564323836186 1.7591317277892482 0 0 0
294 1 12.316227433797907 15.835281463287181 0 0 0 0
293 1 10.556672171332805 14.075741201659424 0 0 0 0
63 1 10.556676532723642 17.594451639370558 3.518744314495012 0 -1 0
350 1 14.07554938915106 15.835284194224549 5.278200327018569 0 0 0
349 1 15.835284194224547 14.07554938915106 5.27820032701857 0 0 0
348 1 15.834313637413096 15.834313637413098 3.5197266715928426 0 0 0
347 1 14.075271705305838 14.075271705305838 3.5191078642834386 0 0 0
300 1 14.075152273005305 15.8345765749785 1.7596590598948765 0 0 0
299 1 15.834576574978499 14.075152273005305 1.7596590598948756 0 0 0
298 1 15.83881850078832 15.838818500788323 1.0666264322686559e-18 0 0 0
297 1 14.07812594369186 14.078125943691859 9.458023646585624e-19 0 0 0
284 1 17.593971494460867 15.83622798134588 1.7580731405475292 -1 0 0
19 1 15.836227981345878 17.593971494460867 1.758073140547529 0 -1 0
51 1 17.594053452854695 17.594053452854695 3.5182532523855383 -1 -1 0
361 1 9.405889282732187e-05 10.556867203919454 7.037544761465927 0 0 0
362 1 1.7593478528465345 12.316406662775705 7.037489231593514 0 0 0
363 1 1.7593526123577043 10.556732647944154 8.797227335567033 0 0 0
364 1 9.589575455752538e-05 12.316258997657155 8.797227335567035 0 0 0
365 1 3.5187142083759664 10.556690379345826 7.03772692607533 0 0 0
368 1 3.5187130066458696 12.31625377660498 8.797227335567033 0 0 0
406 1 9.40588928297309e-05 10.556867203919456 10.556909909668137 0 0 0
407 1 1.7593478528465332 12.316406662775705 10.55696543954055 0 0 0
408 1 3.518714208375965 10.556690379345826 10.556727745058733 0 0 0
353 1 5.278203110003073 8.797228265723636 7.037762548738765 0 0 0
366 1 5.278209409872947 12.316174875778602 7.037770522296695 0 0 0
367 1 5.278193304659395 10.556702379901576 8.797227335567033 0 0 0
369 1 7.037708269845351 10.556699399170231 7.037748129059441 0 0 0
372 1 7.037703223003459 12.316196915244015 8.797227335567033 0 0 0
402 1 5.278203110003073 8.797228265723634 10.556692122395297 0 0 0
409 1 5.278209409872946 12.316174875778602 10.55668414883737 0 0 0
410 1 7.0377082698453535 10.556699399170231 10.556706542074624 0 0 0
370 1 8.79720073907724 12.316191868402122 7.037748129059441 0 0 0
371 1 8.79720035962666 10.55669977862081 8.797227335567035 0 0 0
411 1 8.79720073907724 12.316191868402122 10.556706542074624 0 0 0
373 1 10.55668905216911 10.556689052169109 7.037745113840841 0 0 0
374 1 12.316169243764866 12.316169243764866 7.037769448494694 0 0 0
375 1 12.316192742144613 10.556685236235124 8.797227335567033 0 0 0
376 1 10.556685236235126 12.316192742144617 8.797227335567033 0 0 0
412 1 10.55668905216911 10.556689052169109 10.556709557293223 0 0 0
413 1 12.316169243764865 12.316169243764868 10.556685222639372 0 0 0
377 1 14.0756970282444 10.556671872523838 7.037762548738767 0 0 0
378 1 15.83519065416486 12.31620151655519 7.037693233198449 0 0 0
379 1 15.835191659292096 10.556716164915253 8.797227335567033 0 0 0
380 1 14.075695421036365 12.316205208083963 8.797227335567031 0 0 0
414 1 14.075697028244399 10.556671872523836 10.556692122395297 0 0 0
415 1 15.835190654164863 12.31620151655519 10.556761437935615 0 0 0
381 1 0.00010227101986092059 14.075757958952629 7.037674066630224 0 0 0
382 1 1.759425171917368 15.835139546449554 7.037682548834069 0 0 0
383 1 1.7594437776741263 14.075703117931146 8.797227335567033 0 0 0
385 1 3.51870235910128 14.07573889052263 7.0375339156485035 0 0 0
388 1 3.5188365412932723 15.835063596954202 8.797227335567033 0 0 0
416 1 0.0001022710198595413 14.075757958952627 10.55678060450384 0 0 0
417 1 1.7594251719173681 15.835139546449554 10.556772122299995 0 0 0
418 1 3.5187023591012796 14.07573889052263 10.55692075548556 0 0 0
421 1 8.797209758901644 15.83518592987151 10.556727745058735 0 0 0
386 1 5.278161247724841 15.835197779146194 7.037533915648503 0 0 0
387 1 5.278172940340733 14.07572719790674 8.797227335567033 0 0 0
389 1 7.037725262468872 14.075690728374523 7.037770522296695 0 0 0
392 1 7.037646361642492 15.835187131601602 8.797227335567035 0 0 0
419 1 5.278161247724843 15.835197779146194 10.556920755485558 0 0 0
420 1 7.0377252624688715 14.075690728374525 10.556684148837368 0 0 0
390 1 8.797209758901646 15.835185929871507 7.037726926075329 0 0 0
391 1 8.797197758345893 14.075706833588074 8.797227335567031 0 0 0
423 1 12.31620151655519 15.83519065416486 10.556761437935615 0 0 0
422 1 10.55667187252384 14.075697028244397 10.556692122395297 0 0 0
396 1 10.556716164915255 15.835191659292098 8.797227335567033 0 0 0
395 1 12.31620520808396 14.075695421036363 8.797227335567033 0 0 0
394 1 12.31620151655519 15.835190654164863 7.03769323319845 0 0 0
393 1 10.556671872523838 14.075697028244397 7.037762548738767 0 0 0
425 1 15.835112802196527 15.835112802196528 10.55691642169855 0 0 0
424 1 14.075681194821724 14.075681194821724 10.556813769539508 0 0 0
400 1 14.075689538477794 15.83509424775451 8.797227335567033 0 0 0
399 1 15.83509424775451 14.075689538477794 8.797227335567033 0 0 0
398 1 15.835112802196528 15.835112802196528 7.037538249435515 0 0 0
397 1 14.075681194821724 14.07568119482172 7.037640901594556 0 0 0
384 1 17.594453851183477 15.835078076665548 8.797227335567033 -1 0 0
119 1 15.835078076665546 17.594453851183474 8.797227335567035 0 -1 0
431 1 1.7593491288876324 10.55676137603972 12.31627191325048 0 0 0
432 1 0.00010108249954607298 12.316805641141777 12.316791403157614 0 0 0
434 1 3.518733873406592 12.316198759555775 12.316181520607262 0 0 0
462 1 1.759221017332925 12.316288104480847 14.075685083244176 0 0 0
463 1 1.7594283868525056 10.556755465730523 15.835041404320345 0 0 0
464 1 2.778013247604165e-06 12.316310093311447 15.835204657150166 0 0 0
465 1 3.5188121898629605 10.556821439168113 14.07568996186804 0 0 0
468 1 3.5188530684057056 12.316374395404464 15.835255324257707 0 0 0
428 1 7.0377292878652895 8.797232827803454 12.316196646481671 0 0 0
433 1 5.27821649462853 10.556684353793463 12.316223378081474 0 0 0
436 1 7.037734086341802 12.31616605190567 12.316191781155243 0 0 0
466 1 5.278267927367541 12.316255744079891 14.0757046512251 0 0 0
467 1 5.278212731969783 10.556766805763854 15.835105160226227 0 0 0
469 1 7.0377008830430166 10.556687475523216 14.075720865470128 0 0 0
472 1 7.037603941034377 12.316296197213097 15.835205525214661 0 0 0
435 1 8.797205714856238 10.556694423391232 12.316213475648581 0 0 0
470 1 8.797212662724256 12.316199255204456 14.075720865470128 0 0 0
471 1 8.797175057764406 10.556725080483067 15.835189464242486 0 0 0
437 1 12.316170850382184 10.55666731044402 12.316196646481671 0 0 0
438 1 10.556667310444022 12.316170850382186 12.316196646481671 0 0 0
473 1 10.55667610626295 10.556676106262948 14.075724604986538 0 0 0
474 1 12.316091519613554 12.316091519613556 14.075686071857117 0 0 0
475 1 12.316238645920366 10.556754114181354 15.835193866659576 0 0 0
476 1 10.556754114181356 12.316238645920368 15.835193866659578 0 0 0
461 1 17.594451639370558 10.55667653272364 14.075710356639052 -1 0 0
439 1 15.835185622181992 10.556757389799948 12.316258169076125 0 0 0
440 1 14.075647803173048 12.31608832193149 12.316117463423133 0 0 0
477 1 14.075710785013133 10.556812783653903 14.075716122221545 0 0 0
478 1 15.835307049127588 12.316425286432704 14.075649224758296 0 0 0
479 1 15.835064965817525 10.556751892008561 15.835019606239474 0 0 0
480 1 14.075643238361861 12.31636347660153 15.835322943344815 0 0 0
441 1 1.7592197224561021 14.076216853550356 12.316926164420973 0 0 0
442 1 0.0002326672622383721 15.83523045950654 12.316437309581852 0 0 0
444 1 3.5186265879701737 15.8352735502773 12.316491090727537 0 0 0
481 1 0.00022501014877483215 14.077693374458656 14.077539033545245 0 0 0
482 1 1.7598585730737404 15.836647991027055 14.077080701717948 0 0 0
483 1 1.7598504071244971 14.075104023919664 15.834773149838519 0 0 0
485 1 3.518898676450304 14.07551063931151 14.075357282654744 0 0 0
488 1 3.519807802791836 15.834092335455638 15.834228300888558 0 0 0
205 1 3.517252147220419 17.594041565173725 14.07708070171795 0 -1 0
491 1 8.79713333248362 14.075687406277687 15.835105160226227 0 0 0
490 1 8.797078699079359 15.835087948384512 14.07568996186804 0 0 0
443 1 5.2782907420274565 14.075609396220013 12.316085075823834 0 0 0
446 1 7.037701378691699 15.835166264840883 12.316181520607262 0 0 0
486 1 5.278389498935961 15.83500146179717 14.075357282654743 0 0 0
487 1 5.2781213048102815 14.07577883343719 15.835473662226262 0 0 0
489 1 7.0376443941675815 14.075632210879931 14.0757046512251 0 0 0
492 1 7.037525742843009 15.835047069841767 15.835255324257709 0 0 0
445 1 8.797215784454009 14.075683643618941 12.316223378081474 0 0 0
207 1 5.278796114327806 17.594049731122976 15.834773149838517 0 -1 0
290 1 8.79722043461706 15.835131819757635 17.594454671134063 0 0 -1
496 1 10.556751892008563 15.835064965817526 15.835019606239474 0 0 0
495 1 12.316363476601529 14.07564323836186 15.835322943344817 0 0 0
494 1 12.3164252864327 15.835307049127591 14.075649224758294 0 0 0
493 1 10.556812783653903 14.07571078501313 14.075716122221545 0 0 0
448 1 10.556757389799948 15.835185622181994 12.316258169076127 0 0 0
447 1 12.316088321931488 14.075647803173048 12.316117463423131 0 0 0
213 1 10.556676532723644 17.594451639370554 14.075710356639052 0 -1 0
500 1 14.075152273005306 15.8345765749785 15.834795611239192 0 0 0
499 1 15.834576574978499 14.075152273005305 15.83479561123919 0 0 0
498 1 15.834313637413098 15.834313637413098 14.07472799954122 0 0 0
497 1 14.07527170530584 14.075271705305836 14.075346806850627 0 0 0
450 1 14.075549389151062 15.835284194224549 12.316254344115496 0 0 0
449 1 15.835284194224547 14.07554938915106 12.316254344115498 0 0 0
484 1 17.593971494460867 15.83622798134588 15.836381530586538 -1 0 0
201 1 17.594053452854695 17.594053452854695 14.076201418748527 -1 -1 0
219 1 15.83622798134588 17.593971494460867 15.836381530586538 0 -1 0

Velocities

1 -2.9266228268727456e-09 -2.926620908702022e-09 8.677474666780936e-16
2 2.926625723310538e-09 2.9266216325117563e-09 7.020055276148053e-16
3 -2.142023500478315e-09 2.1420228598998416e-09 -2.478515969471602e-09
4 2.1420211267825427e-09 -2.1420288450601385e-09 -2.4785137181064318e-09
5 1.5255056046921782e-08 5.566959716536654e-09 1.611991924473816e-16
8 -5.61602599044511e-10 5.585548859400215e-09 -1.8291190745977771e-09
21 5.566953329131644e-09 1.525506146185877e-08 8.677638770999234e-17
23 5.5855495765106405e-09 -5.616003639499136e-10 -1.8291187880549135e-09
52 4.276015471448284e-09 4.276012345087872e-09 5.8312791779614665e-09
53 4.160850282506721e-09 -4.16084651270542e-09 -4.870171503480803e-09
54 -4.160849836572506e-09 4.1608461895537674e-09 -4.870170192193167e-09
58 -8.957691917801066e-10 -4.626583521283257e-11 9.533064217850645e-10
73 -4.626400914235439e-11 -8.957627218170049e-10 9.533067288167973e-10
75 7.404044300082302e-09 7.4040459855931105e-09 3.23391941570126e-09
6 7.320895755940115e-09 2.2762065597648196e-09 2.2272606178898035e-15
9 -5.257427524732101e-10 -7.0926605336768665e-09 2.491808077644572e-15
12 -2.7762082875887365e-10 2.9315181739013892e-09 4.801696569599333e-09
27 -1.3940037591270864e-09 7.527245877437589e-09 7.539196918555668e-09
29 -6.21618712266255e-10 -6.703947900252042e-09 -1.3060147657255617e-15
56 2.998264480898294e-09 -1.4558282825221346e-09 3.825483031557934e-09
57 1.2517503698219664e-10 -3.719030958337628e-09 -6.221439767648099e-09
59 -8.177685845251584e-10 -3.737261047982631e-10 -4.6492615702474745e-09
62 -2.351479783195548e-09 1.6886782334336954e-09 9.392218484388953e-10
77 -2.4799585493754783e-10 -1.3623157746161737e-09 2.8880286840439507e-09
79 3.6623790349550633e-09 -6.079050361459806e-09 6.514645368196857e-09
11 -2.6074342010635533e-09 -1.4227518390272902e-09 -4.19331884909147e-09
31 -9.1472041623223e-09 -5.236942391956238e-09 5.1778142668957915e-09
60 -3.311438213343437e-09 7.207568336621116e-09 9.747019871486639e-11
61 4.774256865523392e-09 -4.2087445210777e-10 5.6739834800022814e-09
81 -7.655478346543106e-10 3.152453550092118e-09 4.493158568089368e-09
10 -7.875058491594852e-09 2.850593730270306e-09 1.4643515426061207e-16
14 5.257426479032375e-10 7.092658830434986e-09 4.550438050830037e-15
15 2.776161187293852e-10 -2.9315121959724582e-09 4.8016932018920925e-09
16 2.6074369431564462e-09 1.422742799820237e-09 -4.193319480630736e-09
33 -1.793026364585193e-09 -1.7849115733429305e-08 1.5360625852275728e-15
35 5.435327821280908e-10 -2.9373101548937772e-09 -4.973345569901624e-09
64 8.177724002757624e-10 3.7372879004537163e-10 -4.6492614446024966e-09
65 2.3514836991683602e-09 -1.688677866678462e-09 9.392253647579767e-10
66 -4.774257529877157e-09 4.2087524755799066e-10 5.673981968646862e-09
83 -5.920057011810925e-09 3.002073576800424e-09 2.8672509523029096e-09
85 2.5678152641991446e-09 4.860724398593725e-09 -3.690786669073222e-09
71 -7.753986941644e-09 8.123260946207439e-09 -3.4667450332557505e-09
17 -7.3208948273122434e-09 -2.2762047621678437e-09 -7.020450811259798e-16
18 -1.5255059165900176e-08 -5.566957811975728e-09 -6.628751838957748e-16
20 4.212479385843945e-10 6.981563493714635e-09 5.607893884692953e-09
37 -8.110702066873393e-09 3.2193710561679162e-09 1.7341718731418782e-15
39 -6.757273781468057e-09 6.757276827228873e-09 1.0538296753501928e-08
67 -2.998262952632025e-09 1.4558317681627801e-09 3.8254855973370596e-09
68 -8.123255115316276e-09 7.753983318127199e-09 -3.4667462724345253e-09
69 8.957664149357e-10 4.6262088009548696e-11 9.533075159810783e-10
70 -1.2517769924288416e-10 3.7190284355497975e-09 -6.221436384842557e-09
87 -4.4372130854994606e-09 -1.0647085915421739e-09 1.3932225699303805e-09
89 1.1288887935653186e-09 -1.128882597640844e-09 -4.667923522417313e-09
22 2.2762115418744407e-09 7.320889313998555e-09 1.9124413962526694e-15
28 7.527245857521054e-09 -1.3940039934108573e-09 7.539194085689952e-09
41 -7.092670377975961e-09 -5.257363744087134e-10 1.1606341856211476e-15
42 2.9315226935049156e-09 -2.7761245965837005e-10 4.801702528244623e-09
43 -6.703946633557827e-09 -6.216223689268149e-10 -1.2805543325259287e-16
72 -1.4558272172233358e-09 2.99826223250853e-09 3.8254843933904035e-09
74 -3.719032250396481e-09 1.251677826301331e-10 -6.221438381302088e-09
78 -1.3623193466342665e-09 -2.480004819675777e-10 2.8880294785266935e-09
91 -3.7372753178774986e-10 -8.177623245729672e-10 -4.649261348485595e-09
92 1.68868020036515e-09 -2.3514754897228513e-09 9.392217465971625e-10
93 -6.079057169263272e-09 3.6623838212151978e-09 6.514641050920915e-09
252 -1.4227441062869631e-09 -2.607441109428197e-09 -4.193314912215492e-09
254 -5.236947846477417e-09 -9.147210392445108e-09 5.1778184952656005e-09
301 7.207572492245905e-09 -3.311447417516019e-09 9.746318071217372e-11
302 -4.2088528469350246e-10 4.774244354658217e-09 5.673981457630357e-09
304 3.1524475706566523e-09 -7.655484341043917e-10 4.493162354311895e-09
26 -1.8024772613095834e-09 -1.80247213438034e-09 8.422999129600351e-17
32 -2.7612457880139867e-09 2.507125317414495e-09 4.104407583547791e-09
44 2.5071263688979013e-09 -2.761244750015241e-09 4.1044043710162785e-09
45 -6.4537481516388576e-09 -6.453740513358244e-09 2.2424766164292293e-15
76 1.1381587312958966e-09 1.1381525969133568e-09 1.2300617185550476e-08
82 -3.8594296000685125e-09 3.9893248940764855e-09 3.824218755078326e-09
94 3.989329180656787e-09 -3.859426090395648e-09 3.824222954118379e-09
95 -5.427214896576913e-09 -5.42721553305687e-09 6.9530073828096005e-09
46 -6.545479847806959e-10 -2.763656923451435e-09 -2.5725975445215617e-09
80 2.1052924958247317e-09 4.4864080235564376e-11 6.391113125186054e-09
256 -2.7636609845080075e-09 -6.545494518127785e-10 -2.572601256321285e-09
303 4.486530649721145e-11 2.1052922811435645e-09 6.391112949401484e-09
255 -2.0930235717596843e-09 -2.0930283184267973e-09 -6.749274599666071e-16
305 1.2804457855718467e-09 1.280436452333854e-09 -8.36069687661165e-09
30 -5.3465239610271814e-09 -2.9932621993453907e-09 1.7975198837690627e-15
34 2.879981031330232e-09 -7.3241923556392435e-09 -1.6445889764191027e-15
36 -4.293173531757162e-09 6.174254365601689e-09 5.022482637376128e-09
47 -8.828047892732669e-09 -5.310747437058391e-09 -7.949982603222736e-16
48 -1.421614804351748e-09 1.4216237706942262e-09 2.6812778400018036e-09
84 -6.658976237316737e-09 -4.0847891741725816e-10 -1.3484731360949115e-09
86 1.546841150905089e-09 5.612873940845995e-09 -2.2776800144709883e-09
96 -1.60075913854547e-09 3.3525489217330874e-09 3.1155705085199437e-09
97 -9.242040913584723e-11 -1.6350581000703945e-09 -6.285042997560543e-10
98 8.741444202613489e-10 -8.741385625665367e-10 -4.762734793128504e-09
257 5.310752537588686e-09 8.82804563555842e-09 4.4043889460373186e-16
258 -4.841704965216719e-09 4.841700199899924e-09 -1.2443537455120876e-09
307 1.6350607461635384e-09 9.241425186871949e-11 -6.2850439232083e-10
308 -1.264391821451426e-09 1.264387272008567e-09 -3.995137813977715e-10
310 -5.612877980227523e-09 -1.5468453757762226e-09 -2.27767601755549e-09
100 -4.860717517346702e-09 -2.5678041135839772e-09 -3.690783084425012e-09
99 4.0847270277186654e-10 6.6589822701411965e-09 -1.3484781903490587e-09
90 -1.7242244077692838e-09 1.7242154035138312e-09 -6.220274193576429e-09
309 -3.0020703908518633e-09 5.920053437528469e-09 2.8672534298389266e-09
88 1.0647161260225597e-09 4.4372048036273055e-09 1.393221075598801e-09
50 2.9373110094001503e-09 -5.43529438224095e-10 -4.973348186149452e-09
24 -6.981567252004483e-09 -4.212543610257483e-10 5.607894944690634e-09
38 -3.2193637414909153e-09 8.110700615779355e-09 2.230876300711053e-15
40 -5.625372896475272e-09 5.6253703755910786e-09 -6.6640803356286866e-09
49 7.324188738466955e-09 -2.8799719673242083e-09 7.104816743755623e-16
259 1.7849119021290218e-08 1.7930156069336631e-09 5.254792366882869e-16
260 -6.174260426371186e-09 4.293161655376705e-09 5.022482049523421e-09
101 -2.6802356926461556e-09 -2.6802338872152002e-09 -1.2335327264694915e-08
102 2.680236485685921e-09 2.6802289463846248e-09 -1.2335329278027633e-08
103 3.767863459424213e-09 -3.767856314834959e-09 -8.447594482437478e-15
104 -3.767865655348913e-09 3.767857371216956e-09 3.2589354495530457e-15
105 -1.4258013145361094e-08 -3.4607815174997447e-09 -6.850867543054505e-09
108 -8.03786742249239e-09 5.107279221496268e-09 -8.575677105656728e-15
121 -3.46078497694611e-09 -1.4258002385691633e-08 -6.850871237378427e-09
123 5.107285847235038e-09 -8.037861397258275e-09 -7.492146765981995e-15
125 -8.905622138355965e-09 -8.905618831563328e-09 -1.9842653756686273e-10
151 -2.6802369822396954e-09 -2.6802326313680338e-09 1.2335337998451984e-08
152 2.6802327784058016e-09 2.6802303348068284e-09 1.2335334572592512e-08
153 -1.425801327522437e-08 -3.460784479337762e-09 6.850881368973653e-09
161 -3.4607950225182153e-09 -1.4258016633892403e-08 6.850880428142852e-09
163 -8.905621982599128e-09 -8.905619220782992e-09 1.9844194427678174e-10
106 -3.944636609187116e-09 3.994860009014282e-10 1.7830830020174639e-09
107 8.544968552624471e-09 -7.831233414499147e-09 -8.460694190755527e-15
109 -3.980379758390134e-09 -4.8486268041570246e-09 3.719426118778476e-09
112 -6.433017753979051e-09 -5.976736155937359e-09 -7.596248300543808e-15
127 5.116777650079031e-09 4.194264674025899e-09 -8.949185142829706e-15
129 -2.75133297928781e-09 -3.314656156271479e-10 2.131614950337361e-09
154 -3.9446317582124964e-09 3.994888789849539e-10 -1.78306373886462e-09
155 -3.98038346764758e-09 -4.848616634446475e-09 -3.7194138155137555e-09
165 -2.751336823824382e-09 -3.314685946579016e-10 -2.131597819106217e-09
110 2.487295766648953e-09 -1.5532003336492241e-09 7.091576053002826e-10
111 7.251643139213903e-10 -4.004785178881373e-09 -9.455914498273228e-15
131 6.997298488506717e-09 -8.801145785051398e-10 -8.697939800322605e-15
156 2.4872940477742903e-09 -1.5531982461950085e-09 -7.091404280951196e-10
113 -2.4872974691836017e-09 1.5532002083055529e-09 7.091547115487981e-10
114 3.9803838075029325e-09 4.848625080681546e-09 3.719425047029826e-09
115 6.433019906748158e-09 5.976735497053314e-09 2.66811380948347e-16
116 -7.251651067610692e-10 4.004783269800843e-09 -8.046702118691165e-15
133 -6.727865946523764e-10 1.6112559627812923e-09 5.254022479238434e-09
135 2.0256354458850152e-10 3.2997862228301446e-09 -9.292799182247398e-15
157 -2.487288588162672e-09 1.5531982413740982e-09 -7.091434155530507e-10
158 3.9803840088088985e-09 4.848618445846701e-09 -3.719414821391538e-09
167 -6.727939058473652e-10 1.6112535720805118e-09 -5.254005433456044e-09
117 3.944637101974554e-09 -3.9948302941276293e-10 1.7830767037992962e-09
118 1.4258009937647818e-08 3.460781260890427e-09 -6.85087036871063e-09
120 -8.54497246956476e-09 7.83123279590155e-09 -8.766223000119852e-15
137 -1.5024359571168002e-09 9.498097170699832e-10 8.340386445370842e-10
139 -2.8763010326511535e-09 2.8763062223612293e-09 -1.8873864326923333e-15
159 3.944624241894679e-09 -3.9949088779806803e-10 -1.7830688140780734e-09
160 1.4258021071540453e-08 3.4607904646863756e-09 6.850878222877638e-09
169 -1.5024332270243469e-09 9.498166644585787e-10 -8.340251774844604e-10
122 3.9948535972034124e-10 -3.9446440385113925e-09 1.7830810790768169e-09
124 -7.831237693041264e-09 8.544964583759351e-09 -1.463458450117591e-14
128 4.194259028278411e-09 5.11677261493486e-09 -8.416729356687331e-15
141 -4.848630096838847e-09 -3.980379171293635e-09 3.7194244507434676e-09
142 -5.976729628424639e-09 -6.4330104514786445e-09 -2.1742306031781416e-15
143 -3.3146587157794514e-10 -2.7513281569208114e-09 2.1316137132553764e-09
162 3.9949664065074355e-10 -3.944635814888276e-09 -1.7830690412634772e-09
171 -4.848627978048713e-09 -3.980372150842824e-09 -3.7194103565105233e-09
172 -3.3147527615728003e-10 -2.7513317811620423e-09 -2.1316004436847102e-09
351 -1.553193343329103e-09 2.4872918674363376e-09 7.091547474043194e-10
352 -4.004783026344867e-09 7.251644296020549e-10 -2.6093177693351865e-16
354 -8.801212963119999e-10 6.9972905187167155e-09 -3.8994280031715726e-15
401 -1.5531968047427906e-09 2.4872888118830468e-09 -7.091501603080468e-10
126 1.2075160149237622e-10 1.2075028719167069e-10 5.268831287111203e-09
132 1.8705489105352498e-09 5.523687181746358e-09 -8.435388021975505e-15
144 5.523692210257241e-09 1.8705550916956864e-09 -1.0220330108065765e-14
145 3.652695958314588e-09 3.652701495069113e-09 1.0729651391539104e-09
164 1.2075554273134176e-10 1.2074970114974675e-10 -5.2688119459198716e-09
173 3.65269592043947e-09 3.652697290632606e-09 -1.072949165481503e-09
146 3.034582202137763e-09 1.5700475483371158e-08 -7.131331751111453e-15
356 1.5700468282136208e-08 3.034574959322458e-09 -8.009942676675126e-15
355 -1.312962535737937e-09 -1.3129646170153608e-09 7.036026184265796e-09
403 -1.3129550258140636e-09 -1.3129661864476853e-09 -7.036012517436692e-09
130 1.255575514304224e-09 2.533357692265359e-09 4.690826944123145e-09
134 2.561590951922991e-09 1.5864925883178014e-09 -5.333114892523367e-09
136 -9.783280381682834e-10 -3.6279502096240687e-09 -9.941483517257818e-15
147 2.4521113349681676e-09 4.889729256134952e-09 -3.3878752125361976e-10
148 -4.496517575883425e-09 4.49652603875398e-09 -1.743631850575405e-15
166 1.2555758693753967e-09 2.5333590365931804e-09 -4.690814612789804e-09
168 2.5616030440210063e-09 1.5864992543775552e-09 5.333125075576196e-09
174 2.4521124052809254e-09 4.889736628813531e-09 3.3879812273695857e-10
357 -4.8897209349422455e-09 -2.452117239462233e-09 -3.387902610372776e-10
358 -5.908957956602871e-09 5.908948987299019e-09 -1.576437710064861e-15
404 -4.889728400724658e-09 -2.4521239989812676e-09 3.387967581180005e-10
175 -1.5865072240163142e-09 -2.5615955785116536e-09 5.333123615978239e-09
138 -9.498070371004533e-10 1.5024342787360875e-09 8.340422496841682e-10
140 -4.830716025761259e-09 4.8307141531388645e-09 -2.2537756252456344e-15
149 -1.5864969066653838e-09 -2.5615865332784622e-09 -5.3331126923978214e-09
150 -3.2997841685785374e-09 -2.0256359281172958e-10 -1.0863921650248209e-14
170 -9.49811872473613e-10 1.5024274017073615e-09 -8.340259587732568e-10
359 -1.6112533019400427e-09 6.72779955285616e-10 5.25401450775005e-09
360 3.6279417676414277e-09 9.78320214808006e-10 -9.603253573239152e-15
405 -1.6112406001969452e-09 6.727875009143571e-10 -5.254005064000819e-09
176 4.160852492894153e-09 -4.160847179045633e-09 4.8701608480635296e-09
177 -4.160852620648279e-09 4.160846890996235e-09 4.870159897138947e-09
179 -8.957695746328967e-10 -4.626209456927479e-11 -9.533122413213122e-10
186 -4.6256245066109555e-11 -8.957660690353767e-10 -9.53312683545097e-10
202 4.276022522029785e-09 4.276014541012572e-09 -5.831269656362063e-09
203 -2.1420197769276228e-09 2.1420231587962885e-09 2.478512551446108e-09
204 2.142021565485392e-09 -2.1420232142367583e-09 2.4785134915236415e-09
208 -5.616073386020759e-10 5.58554070724068e-09 1.829104320804025e-09
223 5.585544406084206e-09 -5.616033639120811e-10 1.8291068587120585e-09
225 7.40403661555108e-09 7.404039199860376e-09 -3.233914587505325e-09
25 9.46827326975068e-10 9.468317697679915e-10 1.3939059889721061e-14
178 1.2517864828429802e-10 -3.7190336484605053e-09 6.221426194040526e-09
181 -2.35148120770043e-09 1.688677982746353e-09 -9.3924445745423e-10
188 -2.4799624997992315e-10 -1.3623186394669682e-09 -2.8880474407104856e-09
206 2.998258417285213e-09 -1.4558287776876607e-09 -3.825471434864345e-09
209 -8.177675624921476e-10 -3.7373583098505225e-10 4.649267446937286e-09
212 -2.776213325440134e-10 2.9315221848988655e-09 -4.8016960778664696e-09
227 -1.393990568252251e-09 7.527248302354168e-09 -7.539204314087082e-09
229 3.662376879405488e-09 -6.079046560171934e-09 -6.514628813642406e-09
180 4.7742542186740815e-09 -4.208738494939664e-10 -5.673986678676351e-09
190 -7.655418096480404e-10 3.152451066391079e-09 -4.493173861499065e-09
210 -3.311424384561873e-09 7.207565029476562e-09 -9.745750254594648e-11
211 -2.6074350495437887e-09 -1.422742303266463e-09 4.193305468654576e-09
231 -9.147204513043533e-09 -5.236947463215038e-09 -5.177818131156807e-09
182 2.351485658178739e-09 -1.6886764953018727e-09 -9.392448026670229e-10
183 -4.774258578549935e-09 4.2087640457649346e-10 -5.673988789331198e-09
192 2.567818210904177e-09 4.860719792566904e-09 3.6907795620155083e-09
214 8.177709922497788e-10 3.7373286875759243e-10 4.6492652157985195e-09
215 2.776236104241908e-10 -2.9315219245697023e-09 -4.801699905368042e-09
216 2.6074282946950114e-09 1.4227496358712245e-09 4.193302012061799e-09
233 -5.9200577511942276e-09 3.0020684377099073e-09 -2.867238389308293e-09
235 5.435314834953442e-10 -2.937303262272419e-09 4.9733405552508584e-09
13 7.875061892445853e-09 -2.8505917199506574e-09 1.1411094983863993e-14
221 -7.753985674347172e-09 8.123261258662696e-09 3.4667560493373863e-09
184 8.957705223513849e-10 4.626068994552448e-11 -9.533131026629974e-10
185 -1.2518332886103687e-10 3.7190329141755855e-09 6.221432308461483e-09
194 1.1288895516534835e-09 -1.128881843469669e-09 4.667905116482605e-09
217 -2.9982618555735956e-09 1.4558285797331455e-09 -3.825475563742301e-09
218 -8.123254804066247e-09 7.753981704327434e-09 3.4667555214476943e-09
220 4.212540572236488e-10 6.981557672498984e-09 -5.607896363243527e-09
237 -4.43722067165398e-09 -1.064711425632538e-09 -1.3932174541911487e-09
239 -6.7572681671035656e-09 6.757272048962787e-09 -1.0538298253445348e-08
187 -3.7190395082771305e-09 1.2517495230318745e-10 6.221434109975449e-09
189 -1.3623221482235026e-09 -2.4799923510745234e-10 -2.888042217441176e-09
196 1.6886848187973404e-09 -2.351479235871561e-09 -9.392370320469428e-10
222 -1.4558274630897677e-09 2.99825941709684e-09 -3.825475342131074e-09
228 7.52724739539148e-09 -1.393992773344449e-09 -7.539201059890154e-09
241 -3.737341870545962e-10 -8.17770898562164e-10 4.649266629792969e-09
242 2.931524643563184e-09 -2.7761673098500955e-10 -4.801701588167089e-09
243 -6.079055520926203e-09 3.662381897069323e-09 -6.514634651463628e-09
426 -4.208877011748547e-10 4.774250244002919e-09 -5.673996298803111e-09
427 3.152447559263485e-09 -7.655475712620568e-10 -4.4931668209931015e-09
451 7.207576734647082e-09 -3.3114385551761173e-09 -9.745756551908895e-11
452 -1.4227452030440854e-09 -2.607435989621322e-09 4.193314816399896e-09
454 -5.236950171964085e-09 -9.147205161757293e-09 -5.1778222366510715e-09
191 -3.8594343992347714e-09 3.989330999043939e-09 -3.82423143877008e-09
197 3.989335151952227e-09 -3.859430102181113e-09 -3.824230367494576e-09
226 1.1381606086426892e-09 1.1381566108379825e-09 -1.2300606396764879e-08
232 -2.761250426078205e-09 2.5071192769726203e-09 -4.104413214369209e-09
244 2.507122697249677e-09 -2.7612493114986616e-09 -4.104406264318088e-09
245 -5.4272172336624485e-09 -5.427215275167587e-09 -6.953007778491473e-09
230 2.1052956396680067e-09 4.4863864838792976e-11 -6.391106068963566e-09
246 -6.545415445027652e-10 -2.763656427198968e-09 2.572597014259078e-09
453 4.486814345329316e-11 2.105296433888872e-09 -6.3911076458115225e-09
456 -2.7636634953869145e-09 -6.545415513198338e-10 2.572598538533031e-09
455 1.2804449436578546e-09 1.2804396406563834e-09 8.360701715915925e-09
193 1.546838082002388e-09 5.612873077662924e-09 2.2776708920237843e-09
198 -1.6007608995336573e-09 3.352551993255644e-09 -3.1155829107639808e-09
199 8.741463623714706e-10 -8.74136972141877e-10 4.762721851447423e-09
234 -6.658976761757288e-09 -4.0848143453262714e-10 1.348488046274951e-09
236 -4.293168682184709e-09 6.1742572989303054e-09 -5.022489910600479e-09
247 -9.242161386149673e-11 -1.6350613500119506e-09 6.28514295169976e-10
248 -1.4216149397788652e-09 1.4216196448988202e-09 -2.6812795071328912e-09
429 -1.264397476145409e-09 1.2643883140767213e-09 3.994990910279452e-10
457 1.6350700128184187e-09 9.241404873557679e-11 6.285116326685961e-10
458 -4.841709690163409e-09 4.841699344790937e-09 1.2443533526832144e-09
250 2.937311280576362e-09 -5.435291956720391e-10 4.973343513180713e-09
249 4.08472683231515e-10 6.658988226615895e-09 1.3484832112236955e-09
240 -5.625380363312259e-09 5.62537007398287e-09 6.664077813689919e-09
238 1.0647233778770715e-09 4.437211746792897e-09 -1.3932168928563906e-09
200 -4.860712379762719e-09 -2.5678088826696183e-09 3.690779106420641e-09
224 -6.981567317086774e-09 -4.212537565193608e-10 -5.607901378195601e-09
195 -1.7242238012384904e-09 1.7242147972843448e-09 6.2202578914436015e-09
430 -5.612879388121788e-09 -1.5468451425646807e-09 2.2776776632937876e-09
459 -3.002073670808177e-09 5.920053879143959e-09 -2.8672458249963177e-09
460 -6.174261151315592e-09 4.293161778151074e-09 -5.022489982934144e-09
251 2.8505930119546523e-09 -7.875060040011021e-09 -2.9663664479335925e-16
261 -2.8505904568721255e-09 7.8750629771507e-09 -1.0967571224457365e-16
262 7.09266822784991e-09 5.257331248137778e-10 1.3025497363551976e-15
263 1.4227467023472287e-09 2.6074420287155543e-09 -4.193318473060457e-09
264 -2.9315249496909965e-09 2.7761297067487545e-10 4.801698451863549e-09
265 -1.7849124138686636e-08 -1.7930219175707361e-09 -6.966215568941052e-16
268 -2.937314561808522e-09 5.435311089708653e-10 -4.973345507832403e-09
312 3.737344088164759e-10 8.177656630534388e-10 -4.649261588325888e-09
313 4.208858390982017e-10 -4.774247286675678e-09 5.673990282306896e-09
314 -1.6886816562800995e-09 2.3514778833048793e-09 9.392300367552577e-10
315 3.0020723137218916e-09 -5.920054570768647e-09 2.867251368230017e-09
318 4.860713658810518e-09 2.5678073089436704e-09 -3.6907829440159956e-09
253 -2.9932529064379263e-09 -5.346529129138976e-09 -5.086060501891218e-16
266 -7.324186577493855e-09 2.879977398079806e-09 3.791947358785603e-16
267 6.174263180012607e-09 -4.293166168720377e-09 5.022485845176501e-09
269 -5.310753666277278e-09 -8.828048442907008e-09 -2.2272606178898035e-15
272 1.4216163321800888e-09 -1.4216204050961334e-09 2.681277795709689e-09
306 3.3525434361396334e-09 -1.6007631997105455e-09 3.1155740402887928e-09
316 -4.0847192958291905e-10 -6.6589861941274776e-09 -1.3484769801212856e-09
317 5.612878489963474e-09 1.5468462822227857e-09 -2.2776834538786795e-09
319 -1.6350682312589734e-09 -9.24124899872042e-11 -6.285054454849641e-10
322 -8.741439739116603e-10 8.741376634905631e-10 -4.762733380353405e-09
270 8.828048949102603e-09 5.3107528394911395e-09 -4.357368591639882e-16
271 4.84170617059749e-09 -4.8417018483499845e-09 -1.2443545897740264e-09
320 9.241840734327824e-11 1.6350607184726847e-09 -6.285060760826462e-10
321 1.2643943033064268e-09 -1.2643846446123836e-09 -3.9950631923104225e-10
273 2.0930264108528022e-09 2.0930273614760773e-09 -6.990320121082717e-17
274 6.453750501995114e-09 6.453730848935182e-09 -4.158647274081355e-16
275 2.763662531963981e-09 6.545530320908618e-10 -2.572602496759291e-09
276 6.545438283507466e-10 2.7636565169884246e-09 -2.5725989838646317e-09
323 -1.280442535344744e-09 -1.2804409326603783e-09 -8.36069525107504e-09
324 5.42722146745534e-09 5.42721373729716e-09 6.95300445846605e-09
325 -3.3525459617058542e-09 1.6007634759312937e-09 3.1155757016785562e-09
326 1.6007567833800722e-09 -3.3525540734784935e-09 3.115575701996356e-09
311 -7.207576973282148e-09 3.3114423978936886e-09 9.746153312837147e-11
277 2.9932482030371897e-09 5.34653328235331e-09 -8.990997948840873e-16
278 6.703951306827873e-09 6.216225099384449e-10 -1.5667958892081952e-15
279 5.2369503051417355e-09 9.147211816120219e-09 5.177822074510883e-09
280 -2.5071325635418216e-09 2.7612451470065044e-09 4.104409949731919e-09
327 -4.4861905797812704e-11 -2.105288047011261e-09 6.391111645208683e-09
328 6.079053469741805e-09 -3.6623867908960217e-09 6.5146402077135504e-09
329 -3.1524490069866527e-09 7.655496904035186e-10 4.493158826158729e-09
330 -3.989330965297566e-09 3.8594265110200834e-09 3.82421761059113e-09
281 -2.2762168861549574e-09 -7.320886704680786e-09 -6.661942677355939e-17
282 -5.5669561534318876e-09 -1.5255059579293246e-08 3.2300099869830485e-16
283 6.9815703205139704e-09 4.2125531367342917e-10 5.6078972047937035e-09
285 3.219366978732268e-09 -8.110699907708136e-09 8.278283543243986e-16
288 6.757268368188259e-09 -6.757276515978843e-09 1.0538299103130812e-08
331 1.4558239619035691e-09 -2.998256445005561e-09 3.825483713642034e-09
332 7.753990155383414e-09 -8.123256216593003e-09 -3.4667488589494824e-09
333 3.7190358564374813e-09 -1.2517609448232535e-10 -6.221436936836801e-09
334 4.6258872462293e-11 8.957655507875056e-10 9.533069433473114e-10
335 -1.0647191680170399e-09 -4.43720604802481e-09 1.3932192201509e-09
338 -1.1288873143744111e-09 1.1288837465240604e-09 -4.667924330221117e-09
55 8.123253374666304e-09 -7.75398625888256e-09 -3.4667439450858746e-09
341 -1.5468392523407745e-09 -5.61287312722791e-09 -2.2776802426762454e-09
340 5.920060055634138e-09 -3.0020726371748506e-09 2.8672467689908408e-09
286 8.11070343482556e-09 -3.219369471768014e-09 1.268502644945139e-15
287 5.6253750803665286e-09 -5.6253716876113856e-09 -6.664081744149882e-09
289 -2.8799797757578903e-09 7.3241891905685444e-09 9.60831811854509e-16
292 -5.435315781057113e-10 2.9373110705654516e-09 -4.9733482116098855e-09
336 4.43721256171743e-09 1.0647103777689338e-09 1.3932246657894106e-09
337 1.7242260943476132e-09 -1.7242152523566328e-09 -6.220270206565807e-09
339 6.658976832427293e-09 4.08479477405551e-10 -1.3484758156140132e-09
342 -2.5678152158393867e-09 -4.860726194985472e-09 -3.6907830723727355e-09
291 4.29317153849685e-09 -6.174257283001058e-09 5.022482597913926e-09
7 -4.212469788607094e-10 -6.981564493898776e-09 5.607892058204058e-09
346 7.655474025378421e-10 -3.1524544871565825e-09 4.493162263467865e-09
345 3.85943315832819e-09 -3.9893224496718694e-09 3.824224742180052e-09
344 -3.662379898952604e-09 6.079048330801942e-09 6.5146424733907976e-09
343 -2.1052960885809927e-09 -4.4858959110471794e-11 6.3911101115489025e-09
296 9.147197409620924e-09 5.236946289323349e-09 5.1778169479246035e-09
295 2.7612539393514006e-09 -2.5071211792366697e-09 4.104412983518057e-09
294 6.2162540851084e-10 6.703947879160559e-09 -4.579864906916262e-16
293 5.346517815533375e-09 2.993259463219787e-09 -5.248748574146177e-16
63 3.3114341546673067e-09 -7.207573294698568e-09 9.746562849178034e-11
350 2.479981051834098e-10 1.3623164488151389e-09 2.8880355979192153e-09
349 1.3623232646785637e-09 2.4800168297688815e-10 2.888033108672246e-09
348 -7.404038361925882e-09 -7.404044230819378e-09 3.233922131239128e-09
347 -1.1381614254856997e-09 -1.138157995709237e-09 1.2300613628747848e-08
300 1.3939961369840469e-09 -7.527251694739662e-09 7.53919399801792e-09
299 -7.527242704645633e-09 1.3939994591939458e-09 7.539194770259234e-09
298 -9.468268659755083e-10 -9.468354508117535e-10 1.0666264322686559e-15
297 1.802474685154405e-09 1.802480006836904e-09 9.458023646585623e-16
284 -5.585545615906744e-09 5.616001442971823e-10 -1.8291147071542359e-09
19 5.616074051909011e-10 -5.585543284017304e-09 -1.8291142712008124e-09
51 -4.27601646136857e-09 -4.276013582687139e-09 5.8312740779984755e-09
361 1.5531986824874023e-09 -2.4872861962378325e-09 7.091559047241291e-10
362 4.848627365793089e-09 3.9803760289639564e-09 3.7194185366915994e-09
363 4.004782710575234e-09 -7.251645453039052e-10 -3.682422299991915e-15
364 5.976729047504932e-09 6.433011975488954e-09 -9.171179476099816e-15
365 1.6112444091681439e-09 -6.727849767063716e-10 5.2540115912122315e-09
368 3.2997841589273005e-09 2.0256441771116895e-10 -2.0769496682091473e-15
406 1.5531945292730683e-09 -2.487296660023917e-09 -7.091501886308955e-10
407 4.848632312047189e-09 3.980378295997086e-09 -3.719411916075047e-09
408 1.6112491477747087e-09 -6.727856058128199e-10 -5.254007640031825e-09
353 2.5333630962046424e-09 1.2555662810555261e-09 4.69082526704893e-09
366 1.5865005265665016e-09 2.5615911297152488e-09 -5.333115145036002e-09
367 -3.6279405832039967e-09 -9.78319920129856e-10 -1.1284320104943926e-15
369 4.88972988164808e-09 2.4521189587194147e-09 -3.3878829079144694e-10
372 4.496518772035339e-09 -4.4965258813716866e-09 -1.785172185696885e-15
402 2.5333626719645247e-09 1.2555752093816394e-09 -4.690816311605195e-09
409 1.5865039787903288e-09 2.5615902752088752e-09 5.333117782525967e-09
410 4.889720266342231e-09 2.452120487550634e-09 3.387958102064875e-10
370 -2.4521147699508664e-09 -4.889737539664296e-09 -3.3878959695686607e-10
371 5.908958588142137e-09 -5.908948582342543e-09 -8.39591681784353e-15
411 -2.4521144138061083e-09 -4.889732140244616e-09 3.3879598556710434e-10
373 1.312958064192861e-09 1.312968521651501e-09 7.036022436309245e-09
374 -3.6526995082514027e-09 -3.6527027756234457e-09 1.0729604843012482e-09
375 -1.5700467479901874e-08 -3.034571798757827e-09 -2.35144672911282e-15
376 -3.0345805658033524e-09 -1.5700479770365757e-08 -2.6820710278219432e-15
412 1.3129584730663269e-09 1.3129666246232474e-09 -7.0360143552581395e-09
413 -3.652691662756402e-09 -3.6527060731261785e-09 -1.0729583775257276e-09
377 -2.5333665856398717e-09 -1.2555755980675427e-09 4.690821229687099e-09
378 3.314758976969233e-10 2.7513328869349266e-09 2.131614045903492e-09
379 8.801217603246286e-10 -6.9972907670683415e-09 -1.152197592371565e-15
380 -5.523690877860513e-09 -1.8705527445149215e-09 5.2207446869827684e-15
414 -2.5333615920805887e-09 -1.2555635450005413e-09 -4.690817184792596e-09
415 3.314614250978373e-10 2.7513335031075407e-09 -2.1316069083949494e-09
381 -3.994927429446622e-10 3.9446364826382175e-09 1.783075646513378e-09
382 3.460787605547521e-09 1.4258010544178612e-08 -6.850869595858427e-09
383 7.831239076642556e-09 -8.544964736824433e-09 -2.676204959078093e-15
385 9.498077487732316e-10 -1.5024321945327779e-09 8.340380766082953e-10
388 2.8763043205120656e-09 -2.876308684766579e-09 -3.728631203169064e-15
416 -3.994909664391694e-10 3.9446445261766135e-09 -1.7830689743733451e-09
417 3.4607858169897524e-09 1.4258008912300433e-08 6.850880500757815e-09
418 9.498091396200138e-10 -1.502431959727518e-09 -8.340326932838183e-10
421 6.727953808432527e-10 -1.611262194749605e-09 -5.254010828303156e-09
386 1.5024393782047465e-09 -9.498142600295026e-10 8.340397872535135e-10
387 4.830714758812816e-09 -4.830714043497873e-09 -2.9516059548205702e-15
389 -2.5615993581201414e-09 -1.5864915969268787e-09 -5.333117555421798e-09
392 -2.0256455172094446e-10 -3.299785313544764e-09 -1.0208277831994932e-14
419 1.502431826641672e-09 -9.498149874010328e-10 -8.340260512856569e-10
420 -2.5615949332988214e-09 -1.586498462828435e-09 5.333124271622645e-09
390 6.727869416887474e-10 -1.6112493481908776e-09 5.2540176161450395e-09
391 9.783280559418382e-10 3.627951896932126e-09 3.56205078122452e-15
423 2.751335184285297e-09 3.3147372998208194e-10 -2.131606238891014e-09
422 -1.2555820898300598e-09 -2.5333511160256633e-09 -4.690817368535077e-09
396 -6.997298586691573e-09 8.80113829926974e-10 -1.5619749787798622e-15
395 -1.8705447697780732e-09 -5.523684101601245e-09 -4.129838332539777e-15
394 2.751333907160096e-09 3.314597609044921e-10 2.131610345101471e-09
393 -1.2555731403821055e-09 -2.533353584910877e-09 4.690819889280975e-09
425 8.90563242384369e-09 8.905620347990354e-09 1.984456253590899e-10
424 -1.2075320986861787e-10 -1.2075563757365217e-10 -5.268822592297939e-09
400 -5.1167866938237305e-09 -4.194265491499771e-09 -3.638130185431606e-15
399 -4.194260977922382e-09 -5.116783568668546e-09 -2.952807637353906e-15
398 8.905624010375746e-09 8.905621193156214e-09 -1.9843700255817504e-10
397 -1.2075611506976474e-10 -1.207430079182308e-10 5.26882700644405e-09
384 -5.107284557641498e-09 8.037865101826632e-09 -2.3959924828814553e-15
119 8.037872544107106e-09 -5.107276130690069e-09 -8.831907904705887e-15
431 4.208846579751468e-10 -4.774248906200275e-09 -5.673988808464186e-09
432 -1.6886782545251785e-09 2.3514824800429726e-09 -9.392282819438619e-10
434 4.86071111755986e-09 2.5678133921852487e-09 3.6907796397120832e-09
462 3.7373056414040926e-10 8.177709515921787e-10 4.649260164048164e-09
463 1.4227487729282576e-09 2.6074350932332895e-09 4.19331547927508e-09
464 -2.9315257433333755e-09 2.776152702491498e-10 -4.801701361282992e-09
465 3.0020663454347813e-09 -5.920058758809821e-09 -2.8672448855278714e-09
468 -2.937312096214145e-09 5.435318724825543e-10 4.973344114137329e-09
428 3.3525439977756986e-09 -1.6007672034766562e-09 -3.1155781859704543e-09
433 5.612879021242869e-09 1.5468398871697e-09 2.2776703291824917e-09
436 -8.741453611286361e-10 8.741446184071232e-10 4.762723607765354e-09
466 -4.084710581374482e-10 -6.658976267876436e-09 1.3484822621819271e-09
467 6.174265888309694e-09 -4.293172378049401e-09 -5.022485131681169e-09
469 -1.6350665309841266e-09 -9.24192103363413e-11 6.285153114781557e-10
472 1.4216166749431715e-09 -1.4216198073032403e-09 -2.6812793679291024e-09
435 1.2644015804707184e-09 -1.2643895245789647e-09 3.9950436615970497e-10
470 9.242241337936057e-11 1.6350598362460762e-09 6.285122321216196e-10
471 4.841701662142319e-09 -4.841702528098354e-09 1.2443526240477993e-09
437 -3.3525449436839913e-09 1.6007661537799055e-09 -3.115578411939485e-09
438 1.6007566583377082e-09 -3.352553437118317e-09 -3.115578010873481e-09
473 -1.2804481118999267e-09 -1.280438972960289e-09 8.360695661907001e-09
474 5.427220354474577e-09 5.42721515942088e-09 -6.953006605740278e-09
475 2.763664252322816e-09 6.545524510034355e-10 2.5726044883952038e-09
476 6.545437974438381e-10 2.763657987366105e-09 2.5725985358965953e-09
461 -7.207576561094307e-09 3.311441334882939e-09 -9.745763602490396e-11
439 -3.152449408327446e-09 7.655449972472166e-10 -4.493166925288249e-09
440 -3.989331626967522e-09 3.859424180712505e-09 -3.824230700874884e-09
477 -4.486611053562692e-11 -2.10529315084887e-09 -6.391108799816956e-09
478 6.079057904376785e-09 -3.6623856426154188e-09 -6.514635588528092e-09
479 5.236950553418623e-09 9.147212100553934e-09 -5.177823610422815e-09
480 -2.507127449761085e-09 2.76124060872195e-09 -4.104405982423943e-09
441 3.7190350561663503e-09 -1.2517938897198932e-10 6.221432309365404e-09
442 4.625367612346506e-11 8.957653519249505e-10 -9.533215097281705e-10
444 -1.1288869230520724e-09 1.1288838030655952e-09 4.667910216101917e-09
481 1.4558280331624257e-09 -2.9982634088106744e-09 -3.82547714274112e-09
482 7.753988664818171e-09 -8.123260945906133e-09 3.4667610389796795e-09
483 6.981567748558257e-09 4.212570757161907e-10 -5.607902669898288e-09
485 -1.0647186672449692e-09 -4.437211623709027e-09 -1.3932172800357594e-09
488 6.757267066542443e-09 -6.757275496657595e-09 -1.0538299907770893e-08
205 8.123251947676818e-09 -7.753974865112724e-09 3.4667547641127966e-09
491 4.2931716657638374e-09 -6.174260757997095e-09 -5.022484653055744e-09
490 5.920059652484326e-09 -3.00206847145628e-09 -2.8672435471161403e-09
443 1.7242243907071918e-09 -1.7242164437358923e-09 6.220266010642207e-09
446 -2.5678176372561656e-09 -4.860720742982442e-09 3.6907806818873425e-09
486 4.437220241255903e-09 1.0647090928144612e-09 -1.3932127783087949e-09
487 5.625377427740318e-09 -5.62537178345052e-09 6.664076563280229e-09
489 6.658970942548315e-09 4.0847558434618703e-10 1.3484819843467169e-09
492 -5.435386984915476e-10 2.937310885826657e-09 4.9733362218549974e-09
445 -1.5468376745889662e-09 -5.612872304956667e-09 2.2776697398891604e-09
207 -4.2124714435823313e-10 -6.9815653006480055e-09 -5.607897054337986e-09
290 1.7930270396171424e-09 1.7849116982046284e-08 1.1462343050726901e-14
496 9.14720668897046e-09 5.236942123039828e-09 -5.1778241139066484e-09
495 2.761249367544099e-09 -2.50711768669539e-09 -4.104414508539806e-09
494 -3.6623708073346277e-09 6.079041829352064e-09 -6.5146299560498785e-09
493 -2.1052941847095055e-09 -4.4859890271204194e-11 -6.391107668949185e-09
448 7.655412311853304e-10 -3.1524557635049767e-09 -4.493173211788403e-09
447 3.8594317733215835e-09 -3.989326834219285e-09 -3.824221983518238e-09
213 3.311425427192036e-09 -7.207562647946811e-09 -9.745629520919109e-11
500 1.3939914263519447e-09 -7.527249319838662e-09 -7.539202612373966e-09
499 -7.527240998043342e-09 1.393998965050627e-09 -7.539194616592713e-09
498 -7.40404320814609e-09 -7.404043058697867e-09 -3.2339174529975176e-09
497 -1.1381654202126035e-09 -1.1381488658088065e-09 -1.2300612633531152e-08
450 2.4799489543631195e-10 1.362318457326946e-09 -2.888034475112875e-09
449 1.362325113497713e-09 2.48002131321558e-10 -2.8880408317707522e-09
484 -5.585544146960271e-09 5.615997152361541e-10 1.829112872797818e-09
201 -4.276015707672895e-09 -4.2760137889505445e-09 -5.831271583521007e-09
219 5.616005652229241e-10 -5.585541678352825e-09 1.829112087290725e-09
