LAMMPS data file via write_data, version 29 Aug 2024, timestep = 28, units = metal

500 atoms
3 atom types

0 17.5980648394257 xlo xhi
0 17.5980648394257 ylo yhi
0 17.5980648394257 zlo zhi

Masses

1 55.4639
2 58.71
3 58.71

Atoms # atomic

1 2 0.003664798274730322 0.003664798274730188 1.905587384167931e-16 0 0 0
2 3 1.7561416856678387 1.7561416856678382 1.7586192013655464e-16 0 0 0
3 1 1.7550696805502062 0.004736803392364544 1.750084487681844 0 0 0
4 1 0.004736803392363766 1.7550696805502066 1.7500844876818442 0 0 0
5 1 3.5141199597281085 0.004681839805243056 0 0 0 0
8 1 3.514015651357196 1.7591454717887358 1.754484881189414 0 0 0
21 1 0.004681839805242408 3.5141199597281103 0 0 0 0
23 1 1.7591454717887354 3.5140156513571963 1.754484881189414 0 0 0
25 1 3.5142129926131163 3.5142129926131154 1.5609174878963956e-16 0 0 0
51 1 0.0007173776041351091 0.0007173776041358083 3.517503488850348 0 0 0
52 1 1.7590891063384362 1.7590891063384357 3.517503488850345 0 0 0
53 1 1.759534699427815 0.00027178451475368034 5.279061277189245 0 0 0
54 1 0.0002717845147532932 1.7595346994278152 5.2790612771892444 0 0 0
55 1 3.517895714137954 0.0006917200117822785 3.517538123651896 0 0 0
58 1 3.518932738328869 1.7595918140127218 5.2787927090423965 0 0 0
71 1 0.0006917200117816304 3.5178957141379534 3.517538123651896 0 0 0
73 1 1.759591814012722 3.518932738328869 5.2787927090423965 0 0 0
75 1 3.5184906084873413 3.518490608487341 3.518169107701136 0 0 0
6 1 5.278262578680566 1.7595978794549942 0 0 0 0
7 1 5.278323110634772 0.0006827503662133381 1.7588686612645885 0 0 0
9 1 7.039149385971426 0.00027438580618176705 4.510213493853814e-16 0 0 0
11 1 8.79898921120433 6.185384576789495e-05 1.7597350507273852 0 0 0
12 1 7.039036435585646 1.7597585269178104 1.7594810675296557 0 0 0
27 1 5.278077786405698 3.5185888152688425 1.7589648222853445 0 0 0
29 1 7.038964544156651 3.5192351519380116 0 0 0 0
31 1 8.798992739615102 3.519490762899441 1.7597070405011928 0 0 0
56 1 5.278020195410201 1.7596033143824312 3.5182242358590714 0 0 0
57 1 5.278565781882476 0.00020956196709549414 5.278530783456427 0 0 0
59 1 7.03870131003359 0.0002066135485264452 3.519082658248564 0 0 0
60 1 8.798919354228152 1.759765513084792 3.519405759976081 0 0 0
61 1 8.798846690208622 8.961715057565842e-05 5.279113383506217 0 0 0
62 1 7.0386046620800915 1.7597146489595432 5.27879204593821 0 0 0
77 1 5.2787703128450305 3.5192004172411857 5.278741566301387 0 0 0
79 1 7.038649364601255 3.51926291907538 3.519089830825807 0 0 0
81 1 8.798852418994752 3.5194107616553825 5.279113749145297 0 0 0
10 1 8.799112148118517 1.7598046516614425 0 0 0 0
13 1 10.558759175249753 1.8322811282686146e-06 5.552633363838071e-19 0 0 0
14 1 12.318721937396843 1.7595320981363878 1.976532314955294e-16 0 0 0
15 1 12.318834887782623 4.795702476178097e-05 1.759481067529655 0 0 0
16 1 10.558882112163943 1.759744630096804 1.7597350507273848 0 0 0
33 1 10.558955766221658 3.5194682180432575 1.981196417523393e-19 0 0 0
35 1 12.319094581039842 3.5191663490259657 1.759540509187241 0 0 0
63 1 10.558951969140118 4.0970857777494354e-05 3.5194057599760806 0 0 0
64 1 12.319170013334679 1.7595998703940432 3.519082658248564 0 0 0
65 1 12.319266661288179 9.183498302593973e-05 5.278792045938209 0 0 0
66 1 10.559024633159648 1.7597168667919953 5.279113383506217 0 0 0
83 1 10.559015845170137 3.519420166131891 3.519397323850049 0 0 0
85 1 12.319099469514656 3.519313787428332 5.278963212249576 0 0 0
17 1 14.079608744687706 0.00020860448757856822 0 0 0 0
18 1 15.843751363640159 1.7551246441373276 9.374931042269564e-16 0 0 0
19 1 15.843855672011074 0.000661012153836691 1.7544848811894134 0 0 0
20 1 14.079548212733497 1.7591237335763548 1.7588686612645885 0 0 0
37 1 14.079564189973619 3.518378804214658 1.2231070686533123e-18 0 0 0
39 1 15.839952810117152 3.5179185132511197 1.7583829311946604 0 0 0
67 1 14.07985112795807 0.00020316956014080722 3.518224235859071 0 0 0
68 1 15.839975609230317 1.7591147639307882 3.5175381236518977 0 0 0
69 1 15.838938585039402 0.0002146699298509353 5.2787927090423965 0 0 0
70 1 14.079305541485796 1.759596921975478 5.278530783456424 0 0 0
87 1 14.079339661878526 3.518944260477436 3.5187423432495715 0 0 0
89 1 15.838877147930365 3.5189941754379013 5.278540693930973 0 0 0
22 1 1.7595978794549927 5.278262578680566 0 0 0 0
24 1 0.0006827503662132904 5.278323110634772 1.7588686612645885 0 0 0
28 1 3.5185888152688425 5.278077786405698 1.7589648222853453 0 0 0
41 1 0.0002743858061815233 7.039149385971424 7.129884077105314e-17 0 0 0
42 1 1.7597585269178122 7.039036435585647 1.7594810675296553 0 0 0
43 1 3.5192351519380103 7.038964544156653 5.002356538862101e-16 0 0 0
72 1 1.759603314382431 5.2780201954102 3.518224235859072 0 0 0
74 1 0.0002095619670960214 5.278565781882476 5.278530783456425 0 0 0
78 1 3.519200417241187 5.278770312845031 5.278741566301388 0 0 0
91 1 0.0002066135485262285 7.0387013100335905 3.5190826582485646 0 0 0
92 1 1.7597146489595428 7.0386046620800915 5.278792045938209 0 0 0
93 1 3.51926291907538 7.038649364601255 3.519089830825807 0 0 0
252 1 6.185384576748282e-05 8.798989211204328 1.7597350507273857 0 0 0
254 1 3.5194907628994407 8.7989927396151 1.7597070405011919 0 0 0
301 1 1.7597655130847927 8.798919354228152 3.519405759976082 0 0 0
302 1 8.961715057496417e-05 8.798846690208622 5.279113383506217 0 0 0
304 1 3.519410761655382 8.798852418994752 5.279113749145297 0 0 0
26 1 5.278072742469606 5.278072742469604 9.225944630599072e-17 0 0 0
30 1 8.798922786340626 5.2791753533531205 0 0 0 0
32 1 7.038651020892062 5.2788613495955214 1.7595314378508018 0 0 0
44 1 5.27886134959552 7.038651020892062 1.7595314378508018 0 0 0
45 1 7.03866191593272 7.038661915932718 8.829462292007294e-17 0 0 0
46 1 8.7988585245044 7.038941236962761 1.7596625574800142 0 0 0
76 1 5.278733382015544 5.278733382015544 3.5189846160956426 0 0 0
80 1 8.798862821273458 5.2791486805066095 3.5193686038990695 0 0 0
82 1 7.038863585588688 5.279082526362948 5.279047614545039 0 0 0
94 1 5.279082526362946 7.038863585588686 5.27904761454504 0 0 0
95 1 7.038877752088041 7.038877752088039 3.519318673831981 0 0 0
96 1 8.798924930332465 7.039017432864454 5.279201824850917 0 0 0
253 1 5.279175353353118 8.798922786340626 4.0388609114829843e-16 0 0 0
255 1 8.798879499313884 8.798879499313882 9.989160097220649e-17 0 0 0
256 1 7.038941236962762 8.798858524504398 1.7596625574800147 0 0 0
303 1 5.279148680506609 8.798862821273458 3.51936860389907 0 0 0
305 1 8.798930455828643 8.798930455828643 3.5194176895124705 0 0 0
306 1 7.039017432864455 8.798924930332465 5.27920182485092 0 0 0
34 1 12.319186574199094 5.278857903056016 0 0 0 0
36 1 10.559021969727098 5.27916305209805 1.7596824991166136 0 0 0
47 1 10.559000517814743 7.038954701037824 1.5264096469133786e-16 0 0 0
48 1 12.319023653181672 7.038847670186598 1.7596381729156119 0 0 0
84 1 12.319084352849181 5.279007866494803 3.519261271880312 0 0 0
86 1 10.558960557257008 5.2791675375099825 5.279170261344503 0 0 0
97 1 10.558949944966193 7.038994517809773 3.5194038796040723 0 0 0
98 1 12.318902989249514 7.038968334118755 5.279158422317704 0 0 0
257 1 12.318916622330445 8.798870805553525 4.3884810190864617e-16 0 0 0
258 1 10.558942067111827 8.798929256256443 1.7596811236121965 0 0 0
307 1 12.318876805558498 8.798921378402078 3.519403879604073 0 0 0
308 1 10.558915331401375 8.798955991966897 5.279233792180425 0 0 0
38 1 15.839492519153612 5.278307133394652 1.5209387040078196e-19 0 0 0
40 1 14.079264938318785 5.278606385049485 1.7593935205358335 0 0 0
49 1 14.079013420312254 7.038684749169175 1.9637913921291442e-19 0 0 0
50 1 15.838704974342305 7.038776742328427 1.7595405091872418 0 0 0
88 1 15.838927062890832 5.278531661489744 3.51874234324957 0 0 0
90 1 14.078925222642825 5.278946100725445 5.27889794513923 0 0 0
99 1 14.078863456873469 7.038786970519087 3.5192612718803122 0 0 0
100 1 15.83855753593994 7.038771853853614 5.278963212249577 0 0 0
259 1 15.838403105325012 8.798915557146614 6.252748005365482e-19 0 0 0
260 1 14.07870827127022 8.798849353641172 1.7596824991166133 0 0 0
309 1 15.838451157236378 8.798855478198135 3.5193973238500496 0 0 0
310 1 14.078703785858288 8.798910766111263 5.279170261344502 0 0 0
101 1 6.652744679241488e-05 6.652744678854135e-05 7.039237426224378 0 0 0
102 1 1.759739956495779 1.7597399564957787 7.039237426224379 0 0 0
103 1 1.7597916067106334 1.487723193893862e-05 8.79903241971285 0 0 0
104 1 1.4877231939862351e-05 1.7597916067106332 8.79903241971285 0 0 0
105 1 3.5193943735057136 6.849884837617329e-05 7.039044547083462 0 0 0
108 1 3.5195199239644395 1.7597606529165641 8.79903241971285 0 0 0
121 1 6.849884837601933e-05 3.5193943735057123 7.039044547083463 0 0 0
123 1 1.7597606529165644 3.5195199239644395 8.79903241971285 0 0 0
125 1 3.5193848589961307 3.5193848589961303 7.038981495742931 0 0 0
151 1 6.652744679388288e-05 6.652744679413683e-05 10.55882741320132 0 0 0
152 1 1.7597399564957776 1.7597399564957779 10.55882741320132 0 0 0
153 1 3.5193943735057123 6.849884837604645e-05 10.559020292342236 0 0 0
161 1 6.849884837522412e-05 3.5193943735057114 10.559020292342238 0 0 0
163 1 3.519384858996131 3.5193848589961307 10.559083343682769 0 0 0
106 1 5.279062788012488 1.7597126209040113 7.038905844110828 0 0 0
107 1 5.279210224510266 4.7901921534289254e-05 8.79903241971285 0 0 0
109 1 7.038848821271119 9.144949605311894e-05 7.0388702280186175 0 0 0
110 1 8.798866401556415 1.759733126975342 7.038966509975434 0 0 0
111 1 8.798917319321482 7.300650697432833e-05 8.79903241971285 0 0 0
112 1 7.038985297240583 1.759731889263211 8.79903241971285 0 0 0
127 1 5.279205651094133 3.519447312495735 8.79903241971285 0 0 0
129 1 7.038916930597836 3.519400806966141 7.038938335121713 0 0 0
131 1 8.798928760167186 3.5194324122574723 8.79903241971285 0 0 0
154 1 5.279062788012487 1.7597126209040113 10.55915899531487 0 0 0
155 1 7.03884882127112 9.144949605174186e-05 10.559194611407083 0 0 0
156 1 8.798866401556417 1.75973312697534 10.559098329450265 0 0 0
165 1 7.038916930597834 3.519400806966141 10.559126504303984 0 0 0
113 1 10.559004921811855 7.335696722681698e-05 7.038966509975433 0 0 0
114 1 12.319022502097148 1.759715034446517 7.038870228018619 0 0 0
115 1 12.31888602612769 7.459467936052917e-05 8.79903241971285 0 0 0
116 1 10.55895400404679 1.7597334774355957 8.799032419712852 0 0 0
133 1 10.558956771656478 3.5194195017731755 7.039020694684332 0 0 0
135 1 12.318895550927477 3.51942079573787 8.79903241971285 0 0 0
157 1 10.559004921811853 7.335696723143989e-05 10.559098329450265 0 0 0
158 1 12.319022502097148 1.759715034446517 10.559194611407081 0 0 0
167 1 10.558956771656478 3.519419501773175 10.559044144741366 0 0 0
117 1 14.078808535355781 9.386303856125296e-05 7.03890584411083 0 0 0
118 1 15.838476949862558 1.7597379850941952 7.03904454708346 0 0 0
119 1 15.838351399403829 4.5831026002330946e-05 8.79903241971285 0 0 0
120 1 14.078661098858001 1.7597585820210355 8.799032419712848 0 0 0
137 1 14.078820404565747 3.5193581303781927 7.0388475218235955 0 0 0
139 1 15.838386119131204 3.519485204237067 8.799032419712848 0 0 0
159 1 14.078808535355783 9.386303855452583e-05 10.559158995314867 0 0 0
160 1 15.838476949862558 1.7597379850941957 10.559020292342241 0 0 0
169 1 14.078820404565747 3.5193581303781922 10.559217317602103 0 0 0
122 1 1.7597126209040113 5.279062788012487 7.038905844110829 0 0 0
124 1 4.7901921534107176e-05 5.279210224510268 8.79903241971285 0 0 0
128 1 3.519447312495735 5.279205651094134 8.79903241971285 0 0 0
141 1 9.144949605274346e-05 7.03884882127112 7.038870228018618 0 0 0
142 1 1.7597318892632117 7.038985297240582 8.79903241971285 0 0 0
143 1 3.5194008069661415 7.038916930597836 7.0389383351217125 0 0 0
162 1 1.7597126209040126 5.279062788012488 10.559158995314869 0 0 0
171 1 9.144949605149262e-05 7.03884882127112 10.559194611407083 0 0 0
172 1 3.519400806966142 7.038916930597835 10.559126504303984 0 0 0
351 1 1.759733126975342 8.798866401556417 7.038966509975435 0 0 0
352 1 7.300650697313372e-05 8.798917319321484 8.79903241971285 0 0 0
354 1 3.519432412257472 8.798928760167186 8.79903241971285 0 0 0
401 1 1.7597331269753407 8.798866401556417 10.559098329450263 0 0 0
126 1 5.279122397722636 5.279122397722638 7.0389361278520335 0 0 0
130 1 8.798930052748853 5.2791938283043 7.039057105830575 0 0 0
132 1 7.039019931093326 5.2791960022830136 8.79903241971285 0 0 0
144 1 5.2791960022830136 7.039019931093325 8.799032419712848 0 0 0
145 1 7.039019177785266 7.039019177785267 7.0390563290281 0 0 0
146 1 8.79896113883334 7.039058018139473 8.799032419712852 0 0 0
164 1 5.279122397722636 5.279122397722636 10.559128711573667 0 0 0
166 1 8.798930052748853 5.279193828304301 10.559007733595124 0 0 0
173 1 7.039019177785267 7.039019177785267 10.5590085103976 0 0 0
353 1 5.279193828304301 8.798930052748853 7.039057105830577 0 0 0
355 1 8.798963537121583 8.798963537121587 7.0391109150123885 0 0 0
356 1 7.039058018139475 8.79896113883334 8.799032419712848 0 0 0
402 1 5.279193828304301 8.798930052748853 10.559007733595125 0 0 0
403 1 8.798963537121585 8.798963537121585 10.558953924413311 0 0 0
134 1 12.318903613824908 5.279154631494279 7.03900721725085 0 0 0
136 1 10.558923973231897 5.2792032740765995 8.79903241971285 0 0 0
147 1 10.558916128414245 7.03904624321322 7.03909376584461 0 0 0
148 1 12.318835207343518 7.039036116024751 8.799032419712848 0 0 0
168 1 12.318903613824908 5.279154631494278 10.55905762217485 0 0 0
174 1 10.558916128414243 7.039046243213221 10.558971073581088 0 0 0
357 1 12.318825080155047 8.79895519495403 7.039093765844611 0 0 0
358 1 10.558902843685187 8.798968479683085 8.79903241971285 0 0 0
404 1 12.318825080155047 8.79895519495403 10.558971073581091 0 0 0
138 1 15.838513192990076 5.2790509188025245 7.038847521823597 0 0 0
140 1 14.078707348037431 5.279163975330836 8.79903241971285 0 0 0
149 1 14.078716691873991 7.03896770954336 7.039007217250848 0 0 0
150 1 15.838450527630402 7.038975772440791 8.799032419712848 0 0 0
170 1 15.838513192990078 5.279050918802524 10.559217317602103 0 0 0
175 1 14.078716691873991 7.038967709543361 10.559057622174851 0 0 0
359 1 15.838451821595095 8.798914551711794 7.039020694684333 0 0 0
360 1 14.07866804929167 8.798947350136375 8.799032419712848 0 0 0
405 1 15.838451821595095 8.798914551711793 10.559044144741367 0 0 0
176 1 1.7595346994278165 0.0002717845147533 12.319003562236455 0 0 0
177 1 0.0002717845147534865 1.7595346994278191 12.319003562236452 0 0 0
179 1 3.518932738328869 1.7595918140127211 12.319272130383302 0 0 0
186 1 1.759591814012721 3.5189327383288687 12.319272130383302 0 0 0
201 1 0.0007173776041364024 0.0007173776041317619 14.080561350575355 0 0 0
202 1 1.759089106338438 1.7590891063384384 14.080561350575353 0 0 0
203 1 1.7550696805502053 0.004736803392364272 15.847980351743855 0 0 0
204 1 0.004736803392365524 1.7550696805502077 15.847980351743853 0 0 0
205 1 3.517895714137955 0.0006917200117820166 14.080526715773802 0 0 0
208 1 3.514015651357196 1.7591454717887358 15.843579958236287 0 0 0
221 1 0.0006917200117828203 3.5178957141379543 14.080526715773802 0 0 0
223 1 1.7591454717887356 3.514015651357196 15.843579958236285 0 0 0
225 1 3.518490608487339 3.5184906084873413 14.079895731724564 0 0 0
178 1 5.278565781882475 0.00020956196709695873 12.319534055969275 0 0 0
180 1 8.798846690208622 8.961715057495866e-05 12.31895145591948 0 0 0
181 1 7.03860466208009 1.7597146489595419 12.319272793487489 0 0 0
188 1 5.2787703128450305 3.5192004172411866 12.31932327312431 0 0 0
190 1 8.798852418994752 3.5194107616553834 12.318951090280406 0 0 0
206 1 5.2780201954102015 1.7596033143824288 14.079840603566629 0 0 0
207 1 5.278323110634772 0.0006827503662134024 15.839196178161108 0 0 0
209 1 7.038701310033589 0.00020661354852899604 14.078982181177137 0 0 0
210 1 8.798919354228152 1.759765513084794 14.07865907944962 0 0 0
211 1 8.79898921120433 6.185384576473378e-05 15.838329788698314 0 0 0
212 1 7.039036435585647 1.7597585269178102 15.838583771896044 0 0 0
227 1 5.278077786405698 3.518588815268843 15.839100017140355 0 0 0
229 1 7.038649364601256 3.5192629190753797 14.07897500859989 0 0 0
231 1 8.798992739615104 3.519490762899441 15.838357798924507 0 0 0
182 1 12.319266661288177 9.1834983026914e-05 12.319272793487489 0 0 0
183 1 10.55902463315965 1.7597168667919947 12.318951455919482 0 0 0
192 1 12.319099469514656 3.519313787428332 12.319101627176122 0 0 0
213 1 10.55895196914012 4.0970857776458006e-05 14.07865907944962 0 0 0
214 1 12.319170013334679 1.759599870394043 14.078982181177134 0 0 0
215 1 12.318834887782621 4.795702475818585e-05 15.838583771896044 0 0 0
216 1 10.558882112163943 1.7597446300968036 15.838329788698314 0 0 0
233 1 10.559015845170135 3.5194201661318916 14.07866751557565 0 0 0
235 1 12.319094581039842 3.5191663490259666 15.83852433023846 0 0 0
184 1 15.8389385850394 0.00021466992985012806 12.3192721303833 0 0 0
185 1 14.079305541485798 1.7595969219754783 12.319534055969275 0 0 0
194 1 15.838877147930368 3.5189941754379 12.319524145494727 0 0 0
217 1 14.07985112795807 0.0002031695601406907 14.079840603566629 0 0 0
218 1 15.839975609230313 1.7591147639307898 14.080526715773802 0 0 0
219 1 15.843855672011072 0.0006610121538327994 15.843579958236287 0 0 0
220 1 14.0795482127335 1.759123733576356 15.83919617816111 0 0 0
237 1 14.079339661878526 3.5189442604774346 14.079322496176129 0 0 0
239 1 15.83995281011715 3.5179185132511197 15.83968190823104 0 0 0
187 1 0.00020956196709462143 5.278565781882475 12.319534055969275 0 0 0
189 1 3.5192004172411875 5.27877031284503 12.319323273124311 0 0 0
196 1 1.7597146489595414 7.038604662080091 12.319272793487489 0 0 0
222 1 1.759603314382431 5.2780201954102 14.079840603566629 0 0 0
224 1 0.0006827503662128017 5.278323110634773 15.83919617816111 0 0 0
228 1 3.5185888152688416 5.2780777864056985 15.839100017140353 0 0 0
241 1 0.00020661354852681267 7.03870131003359 14.078982181177135 0 0 0
242 1 1.7597585269178129 7.039036435585647 15.838583771896042 0 0 0
243 1 3.51926291907538 7.038649364601256 14.078975008599894 0 0 0
426 1 8.961715057445676e-05 8.798846690208624 12.31895145591948 0 0 0
427 1 3.5194107616553834 8.798852418994755 12.318951090280404 0 0 0
451 1 1.759765513084794 8.798919354228152 14.078659079449618 0 0 0
452 1 6.185384576698632e-05 8.79898921120433 15.838329788698314 0 0 0
454 1 3.5194907628994407 8.798992739615098 15.838357798924507 0 0 0
191 1 7.038863585588685 5.279082526362948 12.319017224880659 0 0 0
197 1 5.279082526362949 7.038863585588685 12.319017224880659 0 0 0
198 1 8.798924930332463 7.039017432864456 12.318863014574783 0 0 0
226 1 5.2787333820155435 5.2787333820155435 14.079080223330056 0 0 0
230 1 8.798862821273458 5.279148680506609 14.07869623552663 0 0 0
232 1 7.038651020892062 5.2788613495955214 15.838533401574898 0 0 0
244 1 5.278861349595521 7.038651020892062 15.838533401574896 0 0 0
245 1 7.03887775208804 7.03887775208804 14.078746165593719 0 0 0
246 1 8.7988585245044 7.038941236962762 15.838402281945685 0 0 0
428 1 7.039017432864456 8.798924930332463 12.31886301457478 0 0 0
453 1 5.279148680506608 8.798862821273458 14.07869623552663 0 0 0
455 1 8.798930455828643 8.798930455828641 14.07864714991323 0 0 0
456 1 7.038941236962762 8.798858524504398 15.838402281945683 0 0 0
193 1 10.558960557257008 5.279167537509982 12.318894578081197 0 0 0
199 1 12.318902989249514 7.038968334118755 12.318906417107994 0 0 0
234 1 12.319084352849181 5.279007866494804 14.078803567545386 0 0 0
236 1 10.559021969727098 5.279163052098048 15.838382340309085 0 0 0
247 1 10.558949944966193 7.038994517809773 14.078660959821626 0 0 0
248 1 12.319023653181672 7.038847670186598 15.838426666510088 0 0 0
429 1 10.558915331401375 8.798955991966897 12.318831047245276 0 0 0
457 1 12.318876805558496 8.798921378402078 14.078660959821628 0 0 0
458 1 10.558942067111829 8.798929256256441 15.838383715813501 0 0 0
195 1 14.078925222642825 5.278946100725447 12.31916689428647 0 0 0
200 1 15.838557535939938 7.038771853853615 12.31910162717612 0 0 0
238 1 15.838927062890834 5.278531661489745 14.07932249617613 0 0 0
240 1 14.079264938318786 5.278606385049485 15.838671318889865 0 0 0
249 1 14.078863456873467 7.038786970519087 14.078803567545387 0 0 0
250 1 15.838704974342303 7.038776742328426 15.838524330238458 0 0 0
430 1 14.078703785858288 8.798910766111263 12.318894578081196 0 0 0
459 1 15.838451157236378 8.798855478198135 14.07866751557565 0 0 0
460 1 14.078708271270221 8.798849353641172 15.838382340309085 0 0 0
251 1 1.7598046516614425 8.799112148118517 6.455936032889869e-16 0 0 0
261 1 1.8322811294061358e-06 10.558759175249753 0 0 0 0
262 1 1.7595320981363864 12.318721937396843 2.6737136741089846e-19 0 0 0
263 1 1.7597446300968043 10.558882112163944 1.7597350507273855 0 0 0
264 1 4.795702476209861e-05 12.318834887782621 1.7594810675296542 0 0 0
265 1 3.5194682180432593 10.558955766221658 0 0 0 0
268 1 3.519166349025967 12.31909458103984 1.7595405091872418 0 0 0
311 1 4.097085777754811e-05 10.558951969140116 3.519405759976081 0 0 0
312 1 1.759599870394044 12.319170013334677 3.5190826582485637 0 0 0
313 1 1.7597168667919953 10.559024633159648 5.279113383506216 0 0 0
314 1 9.183498302714321e-05 12.319266661288179 5.27879204593821 0 0 0
315 1 3.519420166131892 10.559015845170137 3.5193973238500487 0 0 0
318 1 3.5193137874283327 12.319099469514656 5.278963212249577 0 0 0
266 1 5.278857903056014 12.319186574199092 0 0 0 0
267 1 5.279163052098049 10.5590219697271 1.7596824991166125 0 0 0
269 1 7.038954701037824 10.559000517814745 6.799579953733942e-16 0 0 0
270 1 8.798870805553527 12.318916622330445 3.4438366791468364e-16 0 0 0
271 1 8.798929256256441 10.558942067111829 1.7596811236121974 0 0 0
272 1 7.038847670186598 12.31902365318167 1.7596381729156123 0 0 0
316 1 5.279007866494802 12.319084352849181 3.5192612718803122 0 0 0
317 1 5.279167537509982 10.558960557257008 5.279170261344502 0 0 0
319 1 7.038994517809773 10.558949944966194 3.5194038796040714 0 0 0
320 1 8.798921378402076 12.318876805558496 3.5194038796040723 0 0 0
321 1 8.798955991966896 10.558915331401375 5.279233792180425 0 0 0
322 1 7.038968334118758 12.318902989249514 5.279158422317704 0 0 0
273 1 10.558991824054388 10.558991824054388 0 0 0 0
274 1 12.319209407435551 12.319209407435551 0 0 0 0
275 1 12.31893008640551 10.55901279886387 1.7596625574800149 0 0 0
276 1 10.559012798863872 12.31893008640551 1.759662557480015 0 0 0
323 1 10.558940867539627 10.558940867539627 3.5194176895124722 0 0 0
324 1 12.31899357128023 12.31899357128023 3.519318673831981 0 0 0
325 1 12.318853890503812 10.558946393035804 5.279201824850919 0 0 0
326 1 10.558946393035804 12.318853890503812 5.279201824850918 0 0 0
277 1 14.078695970015152 10.558948537027645 8.540369765360002e-16 0 0 0
278 1 15.83863617143026 12.318906779211618 0 0 0 0
279 1 15.838380560468828 10.558878583753168 1.7597070405011925 0 0 0
280 1 14.079009973772749 12.319220302476207 1.7595314378508018 0 0 0
327 1 14.078722642861662 10.55900850209481 3.5193686038990686 0 0 0
328 1 15.83860840429289 12.319221958767015 3.5190898308258087 0 0 0
329 1 15.838460561712889 10.559018904373517 5.279113749145297 0 0 0
330 1 14.078788797005323 12.319007737779586 5.27904761454504 0 0 0
281 1 0.00020860448757793905 14.079608744687704 2.3358996925793247e-16 0 0 0
282 1 1.755124644137328 15.843751363640159 9.519821620818193e-16 0 0 0
283 1 1.7591237335763543 14.079548212733501 1.758868661264588 0 0 0
284 1 0.0006610121538360909 15.843855672011072 1.7544848811894131 0 0 0
285 1 3.5183788042146587 14.07956418997362 2.6134974729778155e-18 0 0 0
288 1 3.517918513251119 15.839952810117152 1.7583829311946604 0 0 0
331 1 0.00020316956013970334 14.079851127958072 3.5182242358590714 0 0 0
332 1 1.7591147639307878 15.839975609230315 3.5175381236518968 0 0 0
333 1 1.7595969219754781 14.079305541485796 5.278530783456426 0 0 0
334 1 0.00021466992985036875 15.838938585039402 5.278792709042397 0 0 0
335 1 3.5189442604774355 14.079339661878526 3.5187423432495715 0 0 0
338 1 3.5189941754379017 15.838877147930365 5.278540693930973 0 0 0
342 1 7.038771853853615 15.83855753593994 5.278963212249577 0 0 0
341 1 8.79891076611126 14.078703785858286 5.279170261344504 0 0 0
340 1 8.798855478198133 15.838451157236378 3.519397323850048 0 0 0
286 1 5.2783071333946525 15.83949251915361 2.689101382994558e-16 0 0 0
287 1 5.278606385049484 14.079264938318786 1.759393520535834 0 0 0
289 1 7.0386847491691755 14.079013420312256 5.275666440577693e-16 0 0 0
290 1 8.798915557146614 15.83840310532501 1.8854811552858842e-18 0 0 0
291 1 8.798849353641172 14.078708271270221 1.7596824991166131 0 0 0
292 1 7.0387767423284275 15.838704974342303 1.7595405091872411 0 0 0
336 1 5.278531661489744 15.838927062890832 3.518742343249569 0 0 0
337 1 5.2789461007254435 14.078925222642825 5.27889794513923 0 0 0
339 1 7.038786970519088 14.078863456873469 3.5192612718803113 0 0 0
346 1 10.55901890437352 15.838460561712887 5.279113749145297 0 0 0
345 1 12.319007737779586 14.078788797005323 5.27904761454504 0 0 0
344 1 12.319221958767013 15.838608404292891 3.5190898308258083 0 0 0
343 1 10.559008502094812 14.07872264286166 3.519368603899068 0 0 0
296 1 10.558878583753167 15.83838056046883 1.759707040501192 0 0 0
295 1 12.319220302476207 14.079009973772747 1.7595314378508016 0 0 0
294 1 12.318906779211618 15.83863617143026 8.158318320337703e-20 0 0 0
293 1 10.558948537027646 14.078695970015152 4.1925516557864724e-16 0 0 0
350 1 14.079101010523237 15.838670906127081 5.278741566301387 0 0 0
349 1 15.838670906127081 14.079101010523237 5.278741566301386 0 0 0
348 1 15.839380714880928 15.839380714880926 3.518169107701134 0 0 0
347 1 14.079137941352728 14.079137941352727 3.5189846160956426 0 0 0
300 1 14.079793536962573 15.839282508099426 1.7589648222853458 0 0 0
299 1 15.839282508099428 14.079793536962574 1.7589648222853456 0 0 0
298 1 15.843658330755154 15.843658330755154 2.252437794983009e-18 0 0 0
297 1 14.079798580898665 14.079798580898665 3.5443303727325083e-19 0 0 0
361 1 7.335696722811177e-05 10.559004921811853 7.038966509975434 0 0 0
362 1 1.759715034446518 12.31902250209715 7.038870228018618 0 0 0
363 1 1.7597334774355964 10.558954004046786 8.79903241971285 0 0 0
364 1 7.459467935907908e-05 12.31888602612769 8.79903241971285 0 0 0
365 1 3.5194195017731755 10.558956771656478 7.039020694684333 0 0 0
368 1 3.519420795737871 12.318895550927477 8.79903241971285 0 0 0
406 1 7.33569672277615e-05 10.559004921811853 10.559098329450265 0 0 0
407 1 1.7597150344465167 12.31902250209715 10.559194611407083 0 0 0
408 1 3.5194195017731755 10.558956771656478 10.559044144741366 0 0 0
366 1 5.279154631494277 12.318903613824906 7.039007217250849 0 0 0
367 1 5.279203274076599 10.558923973231899 8.79903241971285 0 0 0
369 1 7.039046243213223 10.558916128414241 7.03909376584461 0 0 0
370 1 8.798955194954026 12.31882508015505 7.0390937658446076 0 0 0
371 1 8.798968479683083 10.558902843685184 8.799032419712852 0 0 0
372 1 7.039036116024751 12.318835207343518 8.79903241971285 0 0 0
409 1 5.279154631494277 12.318903613824908 10.559057622174848 0 0 0
410 1 7.039046243213222 10.558916128414243 10.55897107358109 0 0 0
411 1 8.79895519495403 12.318825080155047 10.55897107358109 0 0 0
373 1 10.558907786246687 10.558907786246683 7.039110915012385 0 0 0
374 1 12.318852145583003 12.318852145583003 7.039056329028101 0 0 0
375 1 12.318813305228797 10.55891018453493 8.79903241971285 0 0 0
376 1 10.558910184534932 12.318813305228797 8.799032419712852 0 0 0
412 1 10.558907786246683 10.558907786246685 10.558953924413313 0 0 0
413 1 12.318852145583003 12.318852145583005 10.559008510397598 0 0 0
377 1 14.07867749506397 10.558941270619417 7.039057105830577 0 0 0
378 1 15.83847051640213 12.318954392770435 7.038938335121713 0 0 0
379 1 15.8384389111108 10.558942563201082 8.79903241971285 0 0 0
380 1 14.078675321085255 12.318851392274945 8.79903241971285 0 0 0
414 1 14.078677495063967 10.558941270619416 10.559007733595122 0 0 0
415 1 15.83847051640213 12.318954392770436 10.559126504303988 0 0 0
381 1 9.386303856004179e-05 14.078808535355783 7.038905844110832 0 0 0
382 1 1.7597379850941934 15.838476949862557 7.039044547083461 0 0 0
383 1 1.7597585820210357 14.078661098858003 8.799032419712848 0 0 0
384 1 4.583102600346718e-05 15.838351399403829 8.799032419712846 0 0 0
385 1 3.519358130378192 14.078820404565747 7.0388475218235955 0 0 0
388 1 3.5194852042370672 15.838386119131204 8.79903241971285 0 0 0
416 1 9.3863038556707e-05 14.078808535355781 10.559158995314869 0 0 0
417 1 1.759737985094196 15.838476949862558 10.559020292342238 0 0 0
418 1 3.5193581303781927 14.078820404565745 10.559217317602103 0 0 0
421 1 8.79891455171179 15.838451821595095 10.559044144741367 0 0 0
420 1 7.0389677095433605 14.078716691873995 10.55905762217485 0 0 0
419 1 5.279050918802525 15.838513192990076 10.559217317602101 0 0 0
386 1 5.279050918802524 15.838513192990076 7.0388475218235955 0 0 0
387 1 5.279163975330836 14.078707348037435 8.799032419712852 0 0 0
389 1 7.038967709543362 14.078716691873991 7.03900721725085 0 0 0
390 1 8.798914551711793 15.838451821595095 7.039020694684333 0 0 0
391 1 8.798947350136373 14.078668049291672 8.79903241971285 0 0 0
392 1 7.038975772440792 15.838450527630398 8.799032419712852 0 0 0
423 1 12.318954392770436 15.83847051640213 10.559126504303986 0 0 0
422 1 10.55894127061942 14.078677495063967 10.559007733595122 0 0 0
396 1 10.558942563201082 15.838438911110797 8.799032419712848 0 0 0
395 1 12.318851392274944 14.078675321085253 8.79903241971285 0 0 0
394 1 12.318954392770433 15.83847051640213 7.038938335121711 0 0 0
393 1 10.558941270619417 14.07867749506397 7.039057105830578 0 0 0
425 1 15.838486464372137 15.838486464372139 10.559083343682767 0 0 0
424 1 14.078748925645634 14.078748925645634 10.559128711573665 0 0 0
400 1 14.078665672274138 15.838424010872538 8.799032419712853 0 0 0
399 1 15.838424010872538 14.078665672274138 8.79903241971285 0 0 0
398 1 15.838486464372142 15.83848646437214 7.0389814957429335 0 0 0
397 1 14.078748925645634 14.078748925645634 7.038936127852031 0 0 0
431 1 1.7597168667919958 10.559024633159648 12.318951455919484 0 0 0
432 1 9.183498302681098e-05 12.31926666128818 12.319272793487489 0 0 0
434 1 3.5193137874283322 12.319099469514656 12.319101627176122 0 0 0
461 1 4.097085777717668e-05 10.558951969140118 14.078659079449617 0 0 0
462 1 1.759599870394042 12.319170013334679 14.078982181177135 0 0 0
463 1 1.759744630096803 10.558882112163943 15.838329788698314 0 0 0
464 1 4.795702476106845e-05 12.318834887782625 15.838583771896046 0 0 0
465 1 3.519420166131891 10.559015845170135 14.078667515575649 0 0 0
468 1 3.519166349025967 12.31909458103984 15.838524330238458 0 0 0
433 1 5.279167537509981 10.558960557257008 12.318894578081196 0 0 0
435 1 8.798955991966897 10.558915331401375 12.318831047245274 0 0 0
436 1 7.038968334118755 12.318902989249512 12.318906417107994 0 0 0
466 1 5.279007866494803 12.319084352849181 14.078803567545387 0 0 0
467 1 5.279163052098049 10.559021969727098 15.838382340309087 0 0 0
469 1 7.038994517809774 10.558949944966194 14.078660959821628 0 0 0
470 1 8.798921378402076 12.3188768055585 14.078660959821628 0 0 0
471 1 8.798929256256441 10.558942067111829 15.838383715813501 0 0 0
472 1 7.038847670186599 12.31902365318167 15.838426666510086 0 0 0
437 1 12.318853890503812 10.558946393035804 12.318863014574783 0 0 0
438 1 10.558946393035804 12.318853890503812 12.31886301457478 0 0 0
473 1 10.55894086753963 10.558940867539627 14.07864714991323 0 0 0
474 1 12.31899357128023 12.31899357128023 14.07874616559372 0 0 0
475 1 12.318930086405507 10.559012798863872 15.838402281945683 0 0 0
476 1 10.559012798863872 12.318930086405508 15.838402281945683 0 0 0
439 1 15.838460561712889 10.559018904373517 12.318951090280406 0 0 0
440 1 14.078788797005322 12.319007737779586 12.319017224880657 0 0 0
477 1 14.078722642861663 10.559008502094809 14.078696235526632 0 0 0
478 1 15.838608404292891 12.319221958767013 14.07897500859989 0 0 0
479 1 15.838380560468828 10.558878583753167 15.838357798924505 0 0 0
480 1 14.079009973772749 12.319220302476207 15.838533401574898 0 0 0
441 1 1.7595969219754766 14.079305541485795 12.319534055969273 0 0 0
442 1 0.0002146699298506209 15.8389385850394 12.319272130383304 0 0 0
444 1 3.518994175437902 15.838877147930367 12.319524145494729 0 0 0
481 1 0.00020316956013975753 14.07985112795807 14.079840603566627 0 0 0
482 1 1.7591147639307867 15.839975609230317 14.0805267157738 0 0 0
483 1 1.7591237335763557 14.079548212733497 15.839196178161112 0 0 0
484 1 0.0006610121538353142 15.843855672011074 15.843579958236285 0 0 0
485 1 3.518944260477437 14.079339661878526 14.079322496176129 0 0 0
488 1 3.5179185132511206 15.83995281011715 15.83968190823104 0 0 0
492 1 7.038776742328429 15.838704974342305 15.838524330238458 0 0 0
491 1 8.798849353641172 14.078708271270223 15.838382340309085 0 0 0
490 1 8.798855478198135 15.838451157236378 14.07866751557565 0 0 0
443 1 5.278946100725445 14.078925222642825 12.319166894286472 0 0 0
445 1 8.798910766111263 14.078703785858288 12.3188945780812 0 0 0
446 1 7.038771853853615 15.838557535939936 12.31910162717612 0 0 0
486 1 5.278531661489743 15.838927062890834 14.079322496176129 0 0 0
487 1 5.278606385049483 14.079264938318785 15.838671318889867 0 0 0
489 1 7.03878697051909 14.078863456873469 14.078803567545386 0 0 0
496 1 10.558878583753167 15.838380560468831 15.838357798924507 0 0 0
495 1 12.319220302476205 14.079009973772749 15.838533401574898 0 0 0
494 1 12.319221958767013 15.838608404292893 14.078975008599892 0 0 0
493 1 10.55900850209481 14.078722642861662 14.078696235526632 0 0 0
448 1 10.559018904373518 15.838460561712887 12.318951090280406 0 0 0
447 1 12.319007737779584 14.07878879700532 12.319017224880659 0 0 0
500 1 14.079793536962574 15.839282508099428 15.839100017140353 0 0 0
499 1 15.839282508099426 14.079793536962573 15.839100017140355 0 0 0
498 1 15.839380714880928 15.83938071488093 14.079895731724564 0 0 0
497 1 14.079137941352728 14.079137941352727 14.079080223330056 0 0 0
450 1 14.079101010523239 15.838670906127083 12.319323273124308 0 0 0
449 1 15.838670906127083 14.079101010523237 12.31932327312431 0 0 0

Velocities

1 2.984665596952404e-09 2.9846665434457884e-09 -1.3501785146158232e-15
2 -2.9846660348481387e-09 -2.984662224927178e-09 8.655696771872062e-17
3 -1.081110588391923e-09 1.0811089456592993e-09 -2.240848566163265e-09
4 1.0811106125338073e-09 -1.0811098390881925e-09 -2.240849931386816e-09
5 1.151209679793803e-08 2.069245783361042e-09 -1.0457431996493126e-15
8 1.0532393825547772e-08 9.103540086539549e-10 2.3098272333703225e-09
21 2.0692473936594923e-09 1.151209161774038e-08 -1.5402522113602998e-15
23 9.103543027701507e-10 1.0532392420612708e-08 2.3098269776655675e-09
25 8.484940019434031e-10 8.484987379999314e-10 -6.284104163542725e-16
51 2.1112515175621505e-10 2.1112243096586678e-10 7.838740611051429e-09
52 -2.1112712173396502e-10 -2.1112576918490323e-10 7.838748934682716e-09
53 4.32226203723754e-09 -4.322253255627166e-09 -7.810120233620925e-09
54 -4.32225124098693e-09 4.322260630067465e-09 -7.81011687040655e-09
55 -1.6594867788441807e-09 8.511300260871025e-10 1.1076425319097621e-09
58 1.6109706364911512e-09 -1.1328829685030154e-09 -1.0718669106005e-09
71 8.511316843080179e-10 -1.659485435763264e-09 1.107641558270402e-09
73 -1.1328831294277682e-09 1.6109706336243024e-09 -1.0718667949227995e-09
75 2.4108771186110958e-09 2.410878051134399e-09 7.2279502701430185e-09
6 7.182322595930875e-10 2.6336819783575246e-09 -7.513029803502913e-16
7 4.4785372508220145e-09 -2.7065888849055347e-10 3.2755374376306663e-09
9 3.9640433711502255e-09 -6.8681165023972875e-09 -9.29462541338112e-16
11 1.7651477140961003e-10 -1.6121959629533955e-09 -2.631537569760597e-09
12 2.340177983298373e-10 9.073784920424111e-10 5.421811152637752e-09
27 5.531885151068678e-09 -6.481723588189458e-10 3.4578727531233793e-10
29 -3.5840126131084635e-10 3.0008857652658612e-09 -5.597769728372158e-16
31 -3.6461632968755535e-09 -3.105135004429137e-09 1.4715878447783364e-09
56 8.964618646507501e-11 -8.082828654513386e-10 8.906236706600877e-11
57 -5.372153192900917e-10 -2.3415154908252197e-09 1.3440116417342628e-09
59 2.2072280800113e-09 -1.2936092250518866e-09 3.4068823115705057e-09
60 -4.1781204796761435e-10 1.8602862552190353e-09 4.720946153039568e-09
61 1.1416925002529564e-09 -3.4105074424154354e-09 3.2274052323001876e-09
62 9.237722500452985e-10 5.380156577869195e-09 3.4080917909981935e-09
77 -2.4337819507745075e-09 -2.8447212202805202e-09 2.010732895561756e-09
79 -5.842502952896634e-09 -1.7187586246168584e-09 3.2587730994851777e-09
81 1.6390240844298806e-10 4.395848030699776e-09 9.136730652043648e-10
10 1.2600329137137196e-09 -6.814286107153035e-10 -1.1209378603248107e-15
13 -1.2600339157728398e-09 6.814291080381179e-10 5.552633363838071e-16
14 -3.964039990530826e-09 6.868117396455492e-09 -2.9090339790101014e-15
15 -2.3401822699209564e-10 -9.073828931332433e-10 5.421812770571891e-09
16 -1.7652014539185205e-10 1.6121928969341031e-09 -2.631535688202498e-09
33 -3.1719263764797454e-09 -4.118156665262947e-09 1.981196417523393e-16
35 -2.5854860530658133e-09 -1.7749027391367253e-09 1.2629775981339665e-10
63 4.178117336053307e-10 -1.8602832736963378e-09 4.720947474147598e-09
64 -2.2072272748057867e-09 1.2936102921231678e-09 3.4068835781329656e-09
65 -9.23769818900978e-10 -5.380149824329748e-09 3.4080939665526926e-09
66 -1.1416915990701922e-09 3.4105056897146434e-09 3.227406510424347e-09
83 6.946937123000909e-09 -8.535341601787979e-10 2.160130864769333e-09
85 2.5966102487476215e-09 4.358019790158695e-09 -4.861637867493726e-09
17 -7.182366955935793e-10 -2.633689830203584e-09 -3.9562512717346264e-16
18 -1.1512089341160702e-08 -2.0692438490273458e-09 -3.2132847857689015e-15
19 -1.0532389880584718e-08 -9.10361274946305e-10 2.3098308301067376e-09
20 -4.478535999442537e-09 2.706693944350061e-10 3.2755396040629986e-09
37 2.1524141362572367e-09 -1.40198519799001e-09 1.2231070686533123e-15
39 -7.693678799107733e-09 7.693671994555e-09 -1.6531700214620108e-09
67 -8.964511095827997e-11 8.082786243258334e-10 8.906545379451101e-11
68 1.659484085477504e-09 -8.511294172342056e-10 1.1076338378467246e-09
69 -1.610977995239226e-09 1.1328739265415148e-09 -1.0718664919421529e-09
70 5.372051934294283e-10 2.3415045334275324e-09 1.3440201516729965e-09
87 -3.820794606262144e-09 3.4951035773669876e-09 -2.825596648506664e-10
89 6.040432084141825e-10 -6.040272959513479e-10 1.2104203383108681e-09
22 2.6336875551327726e-09 7.182322121191566e-10 -1.3825389873493329e-15
24 -2.7065729512619687e-10 4.478538543318139e-09 3.275540652726093e-09
28 -6.481728574195825e-10 5.531884687424264e-09 3.4578356728572686e-10
41 -6.868114305485826e-09 3.9640475871224334e-09 -2.0541725710677042e-15
42 9.073730842603524e-10 2.340136514849912e-10 5.421814026125518e-09
43 3.0008888695208057e-09 -3.5841130227139614e-10 -1.3622164246810735e-15
72 -8.082813493410114e-10 8.964779352712174e-11 8.906099069569721e-11
74 -2.3415161812831076e-09 -5.372161028451204e-10 1.3440177491028591e-09
78 -2.844725678612255e-09 -2.433785437572371e-09 2.010730537319914e-09
91 -1.2936080662414455e-09 2.2072268441731593e-09 3.406880879956773e-09
92 5.3801566309813404e-09 9.237721631345154e-10 3.4080953760679957e-09
93 -1.7187596922681107e-09 -5.842503529146199e-09 3.2587741984943563e-09
252 -1.6121949876212741e-09 1.76519342062404e-10 -2.631538283153275e-09
254 -3.1051345424845565e-09 -3.6461563609564305e-09 1.4715917189537934e-09
301 1.860286023456947e-09 -4.1781193489035304e-10 4.7209432200458294e-09
302 -3.410504673341319e-09 1.1416900018697163e-09 3.2274070420361814e-09
304 4.39584885344293e-09 1.6390308048303087e-10 9.136747630619396e-10
26 -2.894565952557338e-09 -2.8945579971924234e-09 1.0020414382919821e-17
30 1.3870375410877442e-09 5.979869677617104e-09 -2.184887671366888e-16
32 -2.398676292792203e-10 -6.505958133075075e-10 5.076096803538972e-09
44 -6.505917123385773e-10 -2.3986832728144695e-10 5.076096545824359e-09
45 5.063174023443359e-09 5.063180590102166e-09 -3.45115778843441e-16
46 -8.986878764660001e-10 -4.0669889263514885e-09 4.418741313987302e-09
76 -7.19092488123661e-10 -7.190932636370527e-10 2.07237760375099e-09
80 -9.441127314706572e-09 -4.085470496870201e-10 -1.20487182671638e-09
82 1.8619077931867916e-10 -4.49825279780737e-09 -2.3899650050860005e-09
94 -4.498247655201748e-09 1.8619641234128473e-10 -2.3899678190489334e-09
95 -2.4710496788900467e-09 -2.4710438036192578e-09 -6.315933149721221e-09
96 2.641184383438033e-09 1.665559106514269e-09 -5.905644090359589e-09
253 5.979878595015852e-09 1.3870357674865393e-09 -7.797828593563901e-16
255 3.3476982815715064e-09 3.3477049597447772e-09 -1.2119225863681356e-15
256 -4.066991700161078e-09 -8.986849329854468e-10 4.418739560079416e-09
303 -4.085423912638795e-10 -9.441128672225927e-09 -1.204872258497751e-09
305 3.272341865444616e-09 3.2723436834741947e-09 -7.4441179968209306e-09
306 1.6655544483170854e-09 2.6411820240521627e-09 -5.905653359730328e-09
34 -4.46709067746159e-09 4.11639608535658e-09 -5.210320778383559e-16
36 -1.1684427415105585e-09 5.098509509461958e-10 6.927869399156308e-09
47 -7.925964417454275e-09 2.9892830349936487e-09 -6.793111272600402e-16
48 1.6517537140862596e-09 -1.6517538416360714e-09 6.7612186198928636e-09
84 9.708183945003219e-09 -2.0473575270548125e-09 -5.245039597968511e-09
86 -2.9380555469852715e-09 -9.917204658133173e-10 -2.4903290368325934e-09
97 -2.062373379205925e-09 3.938255260390019e-09 -6.421956049269226e-09
98 -2.9110004631040622e-09 2.9110018161984092e-09 -2.9848757469621648e-09
257 -2.9892802766820026e-09 7.925969386501623e-09 -1.8277280628957437e-15
258 -2.799906717377651e-09 2.7999071375795303e-09 -3.5369976773719853e-09
307 -3.938253985158188e-09 2.062371675664421e-09 -6.4219577729856114e-09
308 4.010157735778221e-10 -4.0102676270844213e-10 -6.8194037061779475e-09
38 1.4019808298649914e-09 -2.1524137415374303e-09 1.5209387040078196e-16
40 -2.765928219720975e-09 2.7659271306013636e-09 -1.8763033452075364e-09
49 -4.116393498945052e-09 4.467093852034488e-09 1.963791392129144e-16
50 1.7749005031125825e-09 2.58549396061208e-09 1.2629495336774681e-10
88 -3.495100322159254e-09 3.820792202470565e-09 -2.8255106476179903e-10
90 4.904736916493195e-09 -4.904737720719713e-09 -6.459232734508753e-09
99 2.0473555288506263e-09 -9.708179546759785e-09 -5.245040513500671e-09
100 -4.3580203201279e-09 -2.5966104283441435e-09 -4.861640458034602e-09
259 4.118157367131647e-09 3.1719196347718694e-09 6.252748005365481e-16
260 -5.098492298832956e-10 1.168439147190579e-09 6.927869309831337e-09
309 8.535346615071845e-10 -6.9469446916685945e-09 2.160127758579973e-09
310 9.917178183280086e-10 2.93805573177323e-09 -2.4903246514687605e-09
101 -3.3206218384187868e-09 -3.3206114960355994e-09 1.0830980822859505e-09
102 3.3206209982812167e-09 3.3206209397371478e-09 1.0830924131679955e-09
103 -3.6937430116764445e-09 3.6937352361790935e-09 -3.1471963777971333e-15
104 3.6937329831377515e-09 -3.6937445579641267e-09 -1.8154696911331434e-15
105 9.253307564822599e-10 -2.7756973754873684e-09 -2.9080146266417533e-09
108 -1.0568104177683508e-08 -5.050023647028274e-10 -1.6884171315654143e-16
121 -2.7756951877375635e-09 9.253351120365239e-10 -2.908017317303326e-09
123 -5.050032940492567e-10 -1.0568104350934535e-08 6.771798515463388e-16
125 -3.1975044563797388e-09 -3.197504359542256e-09 -6.671938032499671e-09
151 -3.3206302832498764e-09 -3.320633004040225e-09 -1.0830964626672948e-09
152 3.3206280139127624e-09 3.3206258876163124e-09 -1.0830938121901843e-09
153 9.25335865536793e-10 -2.7756962612209435e-09 2.9080185673528294e-09
161 -2.775689808925766e-09 9.253405198185826e-10 2.9080099799811735e-09
163 -3.1975079854233954e-09 -3.197506713169085e-09 6.671937318117388e-09
106 2.3124668155986674e-09 3.69416502146885e-09 3.08312547540095e-10
107 1.4714359491249368e-09 -2.1512324815581726e-09 -6.011329163459478e-16
109 1.4807528565921052e-09 -6.6104085445801005e-09 4.139506131888932e-09
110 6.003230573462026e-09 -2.2886137276414896e-09 7.67867759264632e-09
111 -1.0916203665757769e-09 -1.6496012115204826e-10 -1.2650347315874563e-15
112 -2.9874437274917217e-09 -5.9592380249957044e-09 1.0734085258245664e-15
127 1.0903469608338654e-09 -9.268496025752904e-10 -8.756890876700156e-16
129 6.628822592863115e-10 1.6137318303007354e-09 4.616094789892574e-09
131 2.754201877952894e-09 -7.842624602136802e-10 5.199310758933353e-16
154 2.3124673894308023e-09 3.6941626652209525e-09 -3.083132840184496e-10
155 1.4807492105074628e-09 -6.610405809304622e-09 -4.1395041453136365e-09
156 6.003222762549899e-09 -2.288605741506199e-09 -7.678675613464477e-09
165 6.628895098080833e-10 1.6137295488219511e-09 -4.616092777894625e-09
113 -6.003229074552791e-09 2.2886170737066384e-09 7.67867912218557e-09
114 -1.4807514153216189e-09 6.610410714935489e-09 4.139495771399331e-09
115 2.987436079235539e-09 5.959231299622575e-09 2.510818859416037e-16
116 1.091615103908191e-09 1.6495987233975432e-10 -6.592243251795798e-15
133 -2.0488040647967535e-09 -1.8748271975872512e-09 3.5431103049237313e-09
135 2.0497741514719143e-09 -1.294303547329254e-11 -6.483911261702234e-16
157 -6.003224315159501e-09 2.2886016470426406e-09 -7.678678645383358e-09
158 -1.4807439131049749e-09 6.610409236397897e-09 -4.139496683076683e-09
167 -2.048805577830801e-09 -1.8748247828990196e-09 -3.543107037265481e-09
117 -2.312464020421138e-09 -3.6941696644247008e-09 3.083037546132125e-10
118 -9.253334322140446e-10 2.7756906074185856e-09 -2.908006239497992e-09
119 1.056811092944709e-08 5.050200171324355e-10 2.2802009618021994e-15
120 -1.4714228183541255e-09 2.151234754818343e-09 5.98023597135038e-15
137 -8.1537956212473e-10 4.596675415600819e-09 -7.4098857042460445e-09
139 -9.828223899608777e-10 9.828185851586712e-10 3.670273678734644e-15
159 -2.312469149666208e-09 -3.694146820449698e-09 -3.083019293358809e-10
160 -9.253389530102986e-10 2.7756875507542733e-09 2.9079976187329206e-09
169 -8.153769128547136e-10 4.5966761488740086e-09 7.409884222896259e-09
122 3.694164442063629e-09 2.312468461320735e-09 3.083098890659853e-10
124 -2.151231404830138e-09 1.4714293831171231e-09 9.874030633955528e-16
128 -9.268492178941697e-10 1.090344896150498e-09 -9.865843847544212e-16
141 -6.610404611867166e-09 1.4807528571956522e-09 4.139500440439734e-09
142 -5.959239277355947e-09 -2.9874395776161734e-09 -7.858183304040402e-16
143 1.6137276091111455e-09 6.628846969993364e-10 4.616096577014412e-09
162 3.6941600434123295e-09 2.3124654488603546e-09 -3.083072923045671e-10
171 -6.610405027107574e-09 1.4807511413112335e-09 -4.1395045819799666e-09
172 1.613729546304028e-09 6.62887594185441e-10 -4.6160912833563915e-09
351 -2.288613621417199e-09 6.003224254474726e-09 7.678674111235734e-09
352 -1.6495508802185486e-10 -1.0916263561772446e-09 7.435700330704896e-16
354 -7.842584470498026e-10 2.7541999846067655e-09 5.954216161065211e-16
401 -2.288609715260337e-09 6.0032236592263934e-09 -7.678671908137914e-09
126 -2.0099768065182886e-09 -2.0099833066640246e-09 -1.8890970784161843e-09
130 2.4554621954395903e-09 -8.00806954156907e-09 3.6787325344485894e-09
132 2.818830086413034e-09 -6.241269903262467e-09 5.262930753550868e-16
144 -6.241268913836578e-09 2.8188326849850935e-09 5.871306235153996e-15
145 -1.062343709728477e-09 -1.0623483573436525e-09 1.6272394478706364e-09
146 -8.445444619345272e-10 -2.78418084003764e-09 -6.4425635698140754e-15
164 -2.0099773305853933e-09 -2.0099767881053867e-09 1.8890889073886e-09
166 2.455461480996599e-09 -8.008073966413405e-09 -3.6787282811578378e-09
173 -1.0623484949523924e-09 -1.0623477860863178e-09 -1.6272453049935147e-09
353 -8.008073703587467e-09 2.4554638849188233e-09 3.6787282251222615e-09
355 -2.8809646951740676e-09 -2.8809794013537087e-09 -4.4685342196141974e-09
356 -2.784187847118048e-09 -8.445461723451746e-10 5.7148177873966435e-15
402 -8.008071018147061e-09 2.4554615146384563e-09 -3.6787368075620912e-09
403 -2.8809707754584877e-09 -2.880973131404611e-09 4.468536271070807e-09
134 -2.3921518363028192e-09 -3.605001752372897e-09 4.519217260237037e-09
136 8.995381710167098e-10 -5.268511301451022e-09 -1.2070942095300157e-15
147 1.0641025340963617e-09 -2.2453729474903363e-09 -5.821973471727359e-10
148 -1.649133603631147e-09 1.6491416140214867e-09 4.0703216745352126e-15
168 -2.3921521614367093e-09 -3.604997408194671e-09 -4.519218196131058e-09
174 1.0641095598512945e-09 -2.2453757866890822e-09 5.822045649925618e-10
357 2.2453819327978583e-09 -1.0641149742723715e-09 -5.821993895761384e-10
358 2.8904071664489845e-09 -2.890410054033205e-09 -2.021102433417162e-15
404 2.2453793526469525e-09 -1.0641152022545744e-09 5.821939851265555e-10
138 -4.596673303616215e-09 8.153733658083789e-10 -7.4098915770611476e-09
140 -4.248259389336518e-10 4.248323813840565e-10 2.0256549703675575e-15
149 3.6049976264559292e-09 2.392157483720191e-09 4.519221940557335e-09
150 1.2935742108701507e-11 -2.0497700352069845e-09 5.1535378408122105e-15
170 -4.5966790204143915e-09 8.153755289212024e-10 7.409884329969287e-09
175 3.6049964458800706e-09 2.3921532670383437e-09 -4.519227499905161e-09
359 1.874821249738984e-09 2.0487994633937255e-09 3.5431066686048818e-09
360 5.268512304812774e-09 -8.99547603526703e-10 3.842771449206476e-15
405 1.874820770371696e-09 2.048803826435746e-09 -3.543114461906872e-09
176 4.322257015725628e-09 -4.322250901793457e-09 7.81012095596779e-09
177 -4.322252040083296e-09 4.322247327436616e-09 7.810133929212808e-09
179 1.6109713640860467e-09 -1.1328797725569174e-09 1.0718653410385324e-09
186 -1.1328791894722683e-09 1.6109739330654373e-09 1.0718631875217543e-09
201 2.1111859964884574e-10 2.1113994831703548e-10 -7.838751846080785e-09
202 -2.111319935661947e-10 -2.1113444245857228e-10 -7.83874937546071e-09
203 -1.0811049681612835e-09 1.0811086348608316e-09 2.240848120443728e-09
204 1.0811021411466447e-09 -1.0811126434698148e-09 2.240850583821236e-09
205 -1.6594925972174486e-09 8.511317166755891e-10 -1.1076370804842929e-09
208 1.0532394019493862e-08 9.103533987939184e-10 -2.3098288207781877e-09
221 8.511287154598096e-10 -1.6594876519882327e-09 -1.1076386709010528e-09
223 9.103537813054523e-10 1.0532395094779043e-08 -2.3098221642265206e-09
225 2.4108852589856777e-09 2.410876139625275e-09 -7.227951700612244e-09
178 -5.372118570421252e-10 -2.341518759636339e-09 -1.3440215761196071e-09
180 1.1416916787121818e-09 -3.41050583215176e-09 -3.2273946162083884e-09
181 9.237776053965601e-10 5.380159687343879e-09 -3.4080933695002025e-09
188 -2.433783418718173e-09 -2.844727469515693e-09 -2.0107238186683185e-09
190 1.6390133691666288e-10 4.39584380014106e-09 -9.136805487281413e-10
206 8.964131875511923e-11 -8.08271011786201e-10 -8.906222542104762e-11
207 4.478536799067007e-09 -2.706599579760231e-10 -3.2755292818986395e-09
209 2.207235141304956e-09 -1.2936159896078368e-09 -3.406889280728924e-09
210 -4.1781099951257854e-10 1.860279191303721e-09 -4.720952081626195e-09
211 1.7651566744748875e-10 -1.6121880757998303e-09 2.631537145768756e-09
212 2.34016945896174e-10 9.07380375109378e-10 -5.421808174000764e-09
227 5.531884738680899e-09 -6.481740037677191e-10 -3.457908849867046e-10
229 -5.842507251729792e-09 -1.7187582294538219e-09 -3.2587706391437087e-09
231 -3.6461680553654845e-09 -3.1051339841704783e-09 -1.471585360306258e-09
182 -9.237644603563392e-10 -5.380152965847832e-09 -3.408094595950328e-09
183 -1.1416978447708715e-09 3.4105093399675327e-09 -3.2274015421754673e-09
192 2.5966108514058903e-09 4.358020095768694e-09 4.861640270824191e-09
213 4.1780514469079736e-10 -1.860279698283289e-09 -4.720952478760191e-09
214 -2.207226455016124e-09 1.2936108330995823e-09 -3.4068783136078813e-09
215 -2.3401151967292214e-10 -9.073724805906522e-10 -5.421808208358107e-09
216 -1.765180786029952e-10 1.6121929210759874e-09 2.631537402785518e-09
233 6.946945136666714e-09 -8.535363669450518e-10 -2.160132040997177e-09
235 -2.585489386997949e-09 -1.7749036231021884e-09 -1.263019563236246e-10
184 -1.6109677542519523e-09 1.1328775236822593e-09 1.0718698470605081e-09
185 5.37200090136884e-10 2.3415015178044236e-09 -1.3440237401377512e-09
194 6.04030952315152e-10 -6.040230681828589e-10 -1.2104144054428283e-09
217 -8.964772224255042e-11 8.082799856263282e-10 -8.906654183905413e-11
218 1.6594982961449725e-09 -8.511372816038675e-10 -1.1076362301565612e-09
219 -1.0532384265182454e-08 -9.103485111321334e-10 -2.3098310404429033e-09
220 -4.478542678294798e-09 2.7066213165092093e-10 -3.2755364022456077e-09
237 -3.820795445932706e-09 3.495109984086991e-09 2.8255385065979127e-10
239 -7.693672490871116e-09 7.693672457587615e-09 1.6531723529644765e-09
187 -2.341509969576305e-09 -5.372127540640097e-10 -1.3440197051235823e-09
189 -2.844728201080797e-09 -2.4337800147404154e-09 -2.0107288181301316e-09
196 5.380162463660561e-09 9.237756625006288e-10 -3.4080931490546224e-09
222 -8.082811224073e-10 8.964813392945705e-11 -8.906393466644831e-11
224 -2.7065643326093126e-10 4.47853564123733e-09 -3.275536613788868e-09
228 -6.481701380673738e-10 5.531882612257581e-09 -3.457822050321699e-10
241 -1.2936109536107947e-09 2.207232279190281e-09 -3.4068842236077333e-09
242 9.073694340074628e-10 2.340152161808603e-10 -5.421805698608897e-09
243 -1.7187584253331487e-09 -5.842506169502641e-09 -3.258784101526195e-09
426 -3.4105034149456056e-09 1.1416861101979847e-09 -3.2273985199510618e-09
427 4.395843981224052e-09 1.638907584706446e-10 -9.136764569864386e-10
451 1.8602802294047413e-09 -4.178121603151967e-10 -4.7209490033850745e-09
452 -1.6121940322062073e-09 1.7651291549283245e-10 2.631536122152866e-09
454 -3.105134350980946e-09 -3.6461521141885853e-09 -1.4715865590745822e-09
191 1.861985956729362e-10 -4.498253364304699e-09 2.389966890793486e-09
197 -4.498256844251563e-09 1.8619873448877032e-10 2.3899684781223716e-09
198 2.641188851377012e-09 1.665552207669088e-09 5.905646146135332e-09
226 -7.190915332849683e-10 -7.190934487680542e-10 -2.072375745813155e-09
230 -9.441130266574869e-09 -4.0854145303624147e-10 1.2048705052087362e-09
232 -2.398667642650681e-10 -6.505960719289154e-10 -5.076099131222116e-09
244 -6.5059227185043e-10 -2.398698168357015e-10 -5.076092803530535e-09
245 -2.4710475669336375e-09 -2.4710478545671543e-09 6.3159353679124326e-09
246 -8.986878369050879e-10 -4.066992320398632e-09 -4.418742125456384e-09
428 1.6655533862456968e-09 2.6411901153555357e-09 5.905653730911797e-09
453 -4.085390866742153e-10 -9.441126992544905e-09 1.204868395404918e-09
455 3.272343682063757e-09 3.272348088919525e-09 7.444116442609335e-09
456 -4.066991578506772e-09 -8.986848301749696e-10 -4.418736582781548e-09
193 -2.938057428042368e-09 -9.917172642717666e-10 2.49032484339674e-09
199 -2.9110030128469087e-09 2.911005191730596e-09 2.9848732044928733e-09
234 9.70818421680217e-09 -2.0473617560174288e-09 5.245046421136139e-09
236 -1.1684412167211588e-09 5.09855764927032e-10 -6.927868511635575e-09
247 -2.0623744638956325e-09 3.938252161722564e-09 6.421957026463856e-09
248 1.6517542964137878e-09 -1.6517568705372166e-09 -6.761218138262274e-09
429 4.010157365063852e-10 -4.0102528673399747e-10 6.819401628467039e-09
457 -3.938248253545234e-09 2.062372049476284e-09 6.421953279971137e-09
458 -2.7999113561383635e-09 2.7999097814553444e-09 3.5370025253641043e-09
195 4.90474012796734e-09 -4.90474407773048e-09 6.4592330068593844e-09
200 -4.358016422420697e-09 -2.596610570404043e-09 4.8616480844558174e-09
238 -3.495105770982516e-09 3.820789855879422e-09 2.8254625328427985e-10
240 -2.765933398758681e-09 2.7659278495957133e-09 1.8763022983550832e-09
249 2.0473592485491546e-09 -9.708178151962426e-09 5.245040689110186e-09
250 1.7749047243964766e-09 2.585497104922748e-09 -1.2629548177323705e-10
430 9.91715987166093e-10 2.9380563151027614e-09 2.4903313734746397e-09
459 8.535376361197392e-10 -6.9469488322316e-09 -2.1601322664556163e-09
460 -5.098558577358266e-10 1.168439879925458e-09 -6.92786524101853e-09
251 -6.814295619055406e-10 1.2600342540468465e-09 -1.6746923289467054e-15
261 6.814256074649102e-10 -1.2600345466163055e-09 -6.264818947460781e-16
262 6.868125550775482e-09 -3.964039482654189e-09 2.6737136741089845e-16
263 1.6121940509161675e-09 -1.7652689605796724e-10 -2.6315376141213092e-09
264 -9.073845154425167e-10 -2.34013005086042e-10 5.421817103913979e-09
265 -4.118164179669592e-09 -3.1719287500035154e-09 -1.7262961958055831e-15
268 -1.774906883053425e-09 -2.5854785122852207e-09 1.262942950510999e-10
311 -1.8602839738109793e-09 4.1781660362898193e-10 4.720945356904355e-09
312 1.2936074433808332e-09 -2.2072202676975758e-09 3.4068844334912392e-09
313 3.41050700786152e-09 -1.1416912536264115e-09 3.2274089290262042e-09
314 -5.380152966243321e-09 -9.237696025859234e-10 3.4080928049573294e-09
315 -8.535353370013479e-10 6.946935146923006e-09 2.1601316671522023e-09
318 4.358016514574796e-09 2.596609410834453e-09 -4.8616406628115325e-09
266 4.116401529705106e-09 -4.467083140884019e-09 -1.3396093419170436e-16
267 5.098537266109997e-10 -1.1684495664212192e-09 6.927872981811922e-09
269 2.989284474104568e-09 -7.925971942833308e-09 -1.839611575323744e-15
270 7.925966864507662e-09 -2.9892783454326446e-09 -1.9104063540294464e-15
271 2.7999112589693056e-09 -2.7999111344004838e-09 -3.5370009618753295e-09
272 -1.6517563429660241e-09 1.6517620003858335e-09 6.7612151576448976e-09
316 -2.0473541029151876e-09 9.708185831194013e-09 -5.24503915544041e-09
317 -9.917166939067857e-10 -2.938056451804926e-09 -2.4903262532827768e-09
319 3.938252018322955e-09 -2.062380080193417e-09 -6.421953428417791e-09
320 2.062377707531426e-09 -3.938248712149087e-09 -6.421957529727837e-09
321 -4.0102076238811934e-10 4.0101602439835416e-10 -6.8194054320208935e-09
322 2.9109909519760174e-09 -2.9110010188059135e-09 -2.984875882928832e-09
273 -3.3477034258958236e-09 -3.347703151517651e-09 -7.966821782898103e-17
274 -5.063174360629625e-09 -5.06317637452205e-09 -4.345598094455006e-17
275 4.0669877133797675e-09 8.98688048648846e-10 4.418739793696345e-09
276 8.986837223756049e-10 4.066987023669241e-09 4.418739399837659e-09
323 -3.272344106946773e-09 -3.2723437071675447e-09 -7.444124508412843e-09
324 2.4710515984116926e-09 2.471047544042169e-09 -6.315930891346974e-09
325 -1.6655443901780613e-09 -2.641177208793633e-09 -5.9056499197894385e-09
326 -2.6411785694849814e-09 -1.665546156807589e-09 -5.9056474815675855e-09
277 -5.979877858495355e-09 -1.3870382839761925e-09 -3.370508806560186e-15
278 -3.0008864344958656e-09 3.5840506013615364e-10 -1.9554926194386253e-16
279 3.1051386009710495e-09 3.646162940592385e-09 1.4715889766827087e-09
280 6.505937228944082e-10 2.39870764404656e-10 5.0760975763810396e-09
327 4.0854209938214454e-10 9.441133441596605e-09 -1.2048658057351783e-09
328 1.7187628443824542e-09 5.842501263232863e-09 3.25876753685026e-09
329 -4.395852617803944e-09 -1.638978032569341e-10 9.136748402906248e-10
330 4.498246123851857e-09 -1.8620538165480864e-10 -2.389967434532845e-09
281 -2.6336894092294782e-09 -7.182301821509464e-10 -6.34780667436597e-16
282 -2.0692463531442836e-09 -1.151209042241534e-08 -3.423620951779507e-15
283 2.7066968956954035e-10 -4.478547022928631e-09 3.2755403138343936e-09
284 -9.103598819595872e-10 -1.0532384231383816e-08 2.3098297250119887e-09
285 -1.4019875873669847e-09 2.152407693812726e-09 2.6134974729778154e-15
288 7.693674003058387e-09 -7.693676634555591e-09 -1.6531700266145585e-09
331 8.082824815953799e-10 -8.96525173488544e-11 8.906523862996817e-11
332 -8.511291765697977e-10 1.6594891638737302e-09 1.107637450528807e-09
333 2.3415028694481646e-09 5.372049613655665e-10 1.3440152619394654e-09
334 1.1328757854665976e-09 -1.6109788402051726e-09 -1.0718693563767121e-09
335 3.4951022002563875e-09 -3.820795860184319e-09 -2.825592277399274e-10
338 -6.040305137533066e-10 6.04043891558777e-10 1.2104191251652738e-09
342 -2.596613429406678e-09 -4.35802215249691e-09 -4.861641913790218e-09
341 2.9380622220108455e-09 9.91724028502367e-10 -2.490331747636123e-09
340 -6.946938074529721e-09 8.53534651206215e-10 2.160133512206311e-09
286 -2.1524137419429386e-09 1.4019870657136779e-09 -1.5064535734934595e-15
287 2.7659294767209125e-09 -2.7659342123496087e-09 -1.8763052352630365e-09
289 4.4670889557544745e-09 -4.116402183261747e-09 -1.370614216818468e-15
290 3.1719217043696664e-09 4.118161386755365e-09 1.885481155285884e-15
291 1.168442303986428e-09 -5.098559051802873e-10 6.927870437350142e-09
292 2.585492514169596e-09 1.7749058754739705e-09 1.262957153459666e-10
336 3.8207928696763074e-09 -3.495099351867694e-09 -2.8254744158129775e-10
337 -4.90473062009467e-09 4.904735760705205e-09 -6.459232358797734e-09
339 -9.708183206951964e-09 2.0473540252874775e-09 -5.245038212386861e-09
346 -1.639093657105936e-10 -4.395851261030052e-09 9.136730851756442e-10
345 -1.8620314674581337e-10 4.498244697142534e-09 -2.3899686442434075e-09
344 5.842506084906957e-09 1.7187562462310421e-09 3.258766964179541e-09
343 9.441126675100465e-09 4.0854624496802913e-10 -1.2048656678494197e-09
296 3.646167405565201e-09 3.105133963013323e-09 1.4715893608404409e-09
295 2.398709920350399e-10 6.505977795714387e-10 5.07609832405815e-09
294 3.5840697831966e-10 -3.00088608183101e-09 8.158318320337703e-17
293 -1.3870412472710383e-09 -5.979876339951979e-09 -2.0867069427824734e-15
350 2.4337924993377237e-09 2.844730731914124e-09 2.0107338108686426e-09
349 2.844730663109754e-09 2.4337918221578722e-09 2.010737028981805e-09
348 -2.410872627833989e-09 -2.4108674281436556e-09 7.22795526529336e-09
347 7.190837025856718e-10 7.190895642351533e-10 2.0723746624207577e-09
300 -5.531887580058368e-09 6.481761528009201e-10 3.4578280250608194e-10
299 6.481740391789593e-10 -5.53189259312062e-09 3.4578168081378774e-10
298 -8.484964751285517e-10 -8.484984034615514e-10 2.252437794983009e-15
297 2.894560188655458e-09 2.8945614131016467e-09 3.5443303727325083e-16
361 2.2886163204798517e-09 -6.003223441345889e-09 7.678676114710348e-09
362 6.6104075764905445e-09 -1.4807553130288214e-09 4.139500454623091e-09
363 1.6495767542829298e-10 1.0916278967312296e-09 4.165983890640466e-16
364 5.959238329183445e-09 2.9874360637649295e-09 3.548856976018246e-16
365 -1.8748275679624196e-09 -2.0488052906009426e-09 3.5431066907274765e-09
368 -1.2947367920661408e-11 2.0497754358331197e-09 -4.00487099895344e-16
406 2.2886145388087983e-09 -6.003221128553383e-09 -7.678676091775558e-09
407 6.610409836170904e-09 -1.4807550112552692e-09 -4.139504382205875e-09
408 -1.874828300164077e-09 -2.0488034653183064e-09 -3.5431087954544054e-09
366 -3.6049936855290955e-09 -2.392146521494127e-09 4.5192196703149e-09
367 -5.268506373307965e-09 8.995323410534513e-10 -9.898172518146129e-17
369 -2.2453824231798808e-09 1.0641143059948396e-09 -5.821968818379181e-10
370 -1.0641029662500618e-09 2.2453738603553323e-09 -5.82185590075135e-10
371 -2.890403955208572e-09 2.890417658001761e-09 -7.29507385529465e-15
372 1.6491403521424107e-09 -1.6491339728133668e-09 -2.0973261890584022e-16
409 -3.604993887740657e-09 -2.3921500317240886e-09 -4.51921368131698e-09
410 -2.245379979523746e-09 1.0641080001346891e-09 5.821990911220951e-10
411 -1.0641161727310389e-09 2.2453843572465783e-09 5.821973254450401e-10
373 2.8809649642051895e-09 2.8809781474845987e-09 -4.468521753348749e-09
374 1.0623455576395202e-09 1.06234520803486e-09 1.6272352336029774e-09
375 2.784175408047684e-09 8.445463962570247e-10 3.2591543657310423e-16
376 8.445375231765522e-10 2.784172837304804e-09 -7.966913140125876e-15
412 2.880977290197804e-09 2.880971373271895e-09 4.468528710134452e-09
413 1.0623466794921316e-09 1.0623381235041833e-09 -1.6272356909237034e-09
377 8.008073395217334e-09 -2.4554596272146334e-09 3.6787253341316297e-09
378 -1.6137332024084955e-09 -6.628850266766762e-10 4.6160973608812344e-09
379 7.842552761830618e-10 -2.7541929771643637e-09 2.7732989463952107e-15
380 6.24128164968306e-09 -2.818832530175261e-09 3.2832962499216427e-16
414 8.008078043737135e-09 -2.455456746918102e-09 -3.6787245824137106e-09
415 -1.613734897017879e-09 -6.628924364244814e-10 -4.616103307630857e-09
381 -3.694163848173278e-09 -2.3124702022523587e-09 3.082991827438939e-10
382 2.7756991470065707e-09 -9.253302764171206e-10 -2.9080088244902415e-09
383 2.1512342246022112e-09 -1.4714293964140202e-09 6.459632636370711e-15
384 5.050143896592307e-10 1.0568109606471836e-08 1.3372189653173513e-14
385 4.596678998252896e-09 -8.153780739170874e-10 -7.409883045172513e-09
388 9.828182158880414e-10 -9.828213025746962e-10 -1.0719108566905742e-15
416 -3.6941573636631845e-09 -2.3124594548702032e-09 -3.0830885337915356e-10
417 2.7756880272547125e-09 -9.253373828825056e-10 2.9080095268681845e-09
418 4.596675080284429e-09 -8.153730943103816e-10 7.409885299249434e-09
421 2.0488132527853147e-09 1.8748224796170963e-09 -3.543111634892233e-09
420 2.392155368101047e-09 3.6049839881915916e-09 -4.519216457925415e-09
419 8.153690841367679e-10 -4.596670901498739e-09 7.409892943793566e-09
386 8.153770475211614e-10 -4.596674448394186e-09 -7.409885466146712e-09
387 4.2483100240701393e-10 -4.2483583110370537e-10 -7.075372099933736e-15
389 2.3921467769004074e-09 3.60499713971405e-09 4.519219566571401e-09
390 2.0488042244750616e-09 1.8748240744903207e-09 3.543107210288408e-09
391 -8.995403102063171e-10 5.268505463262665e-09 1.1471373450454254e-15
392 -2.049772683100159e-09 1.2949665638634883e-11 -6.699372862891586e-15
423 -6.628937860866548e-10 -1.6137346905366605e-09 -4.6160998398183515e-09
422 -2.455467844187125e-09 8.008080181142623e-09 -3.678723025973588e-09
396 -2.7541955059746954e-09 7.842660980826556e-10 6.898063634667868e-15
395 -2.818825810501054e-09 6.241285778379646e-09 -3.099261535085875e-15
394 -6.628778968238408e-10 -1.6137340890191925e-09 4.616105278212155e-09
393 -2.4554629152307346e-09 8.008070025066883e-09 3.678723079646843e-09
425 3.197518387520024e-09 3.1975060661058803e-09 6.671944239818379e-09
424 2.0099794488097917e-09 2.0099795182177087e-09 1.8890919361948514e-09
400 -1.0903548441781289e-09 9.268375455336393e-10 -1.4132809891953613e-14
399 9.268393276573529e-10 -1.0903519278385187e-09 -2.3779755927741306e-16
398 3.1974927305817138e-09 3.197501223847459e-09 -6.671948968006398e-09
397 2.0099812308203403e-09 2.0099839648887247e-09 -1.889084849646521e-09
431 3.4105043619110128e-09 -1.141690075502463e-09 -3.2274095057154627e-09
432 -5.380152877521896e-09 -9.23776801695789e-10 -3.4080933771199847e-09
434 4.358018386127216e-09 2.5966097530150122e-09 4.861641095056173e-09
461 -1.860281074370688e-09 4.178129503583568e-10 -4.7209429535797835e-09
462 1.2936128366777615e-09 -2.2072265998120255e-09 -3.406882806931792e-09
463 1.6121972521300112e-09 -1.7652018702835067e-10 2.6315363199654296e-09
464 -9.073845739865858e-10 -2.340225676863699e-10 -5.4218157383886545e-09
465 -8.535341113810714e-10 6.946942585303345e-09 -2.1601250944519447e-09
468 -1.7749071031547944e-09 -2.5854879240135074e-09 -1.2629714083404962e-10
433 -9.917132255856266e-10 -2.9380552567816583e-09 2.490330087013986e-09
435 -4.0102344605678426e-10 4.010162465036887e-10 6.819408739760801e-09
436 2.911000810129502e-09 -2.9109966587816287e-09 2.9848707153137263e-09
466 -2.047357062890104e-09 9.708183383206957e-09 5.245042119215051e-09
467 5.098529315602847e-10 -1.1684452546807026e-09 -6.92787330531317e-09
469 3.938249245594254e-09 -2.0623817290841073e-09 6.4219506846926526e-09
470 2.062379522841168e-09 -3.938256920389712e-09 6.4219534954115196e-09
471 2.7999121674585852e-09 -2.7999122063001417e-09 3.537002255880322e-09
472 -1.6517584370932366e-09 1.6517628984639254e-09 -6.761212060316599e-09
437 -1.665546674586171e-09 -2.6411766067754355e-09 5.905648367068029e-09
438 -2.6411792949630416e-09 -1.6655482233528757e-09 5.905653625272193e-09
473 -3.2723517435929257e-09 -3.2723431639751503e-09 7.4441167926666555e-09
474 2.471051377608346e-09 2.47104868419941e-09 6.3159288474836245e-09
475 4.06699860139665e-09 8.98683062886491e-10 -4.4187358618907105e-09
476 8.98681133408137e-10 4.066994077927801e-09 -4.4187366551317575e-09
439 -4.395855456889525e-09 -1.638966009911014e-10 -9.136803204983361e-10
440 4.498250728614492e-09 -1.8620677403797933e-10 2.3899720345236865e-09
477 4.085360960877019e-10 9.441137109654135e-09 1.2048627578222992e-09
478 1.7187575806972669e-09 5.842506890215686e-09 -3.258769997964467e-09
479 3.105140324701581e-09 3.6461690171046356e-09 -1.471582428800169e-09
480 6.505927035033483e-10 2.398694528967973e-10 -5.0760982909808115e-09
441 2.3415087504111536e-09 5.37211447988075e-10 -1.3440168624544407e-09
442 1.1328745868220474e-09 -1.6109715710838428e-09 1.0718571731748553e-09
444 -6.040307821337293e-10 6.040369772329664e-10 -1.2104233844184105e-09
481 8.082792779673479e-10 -8.964621163959059e-11 -8.90586436707544e-11
482 -8.511233535473309e-10 1.659481828965766e-09 -1.1076326290927605e-09
483 2.7066591860722976e-10 -4.478535120677952e-09 -3.275541938338009e-09
484 -9.103558458892108e-10 -1.0532394737931816e-08 -2.3098238093450413e-09
485 3.4950995700075356e-09 -3.8207945846870305e-09 2.825556280167573e-10
488 7.693668713170768e-09 -7.693672773652384e-09 1.6531703999438068e-09
492 2.5854860495022924e-09 1.7748988810797384e-09 -1.2629724232014164e-10
491 1.1684424015495685e-09 -5.0985828760704e-10 -6.927864910286505e-09
490 -6.9469440921559435e-09 8.535427372998687e-10 -2.160133927417249e-09
443 -4.904737172040269e-09 4.904735740146882e-09 6.459227803571344e-09
445 2.9380588467686497e-09 9.917150644085826e-10 2.4903184985924766e-09
446 -2.5966137002113092e-09 -4.358010375482255e-09 4.86164831320017e-09
486 3.820798477012279e-09 -3.495106755971391e-09 2.825525929430683e-10
487 2.765936502192571e-09 -2.7659288481313914e-09 1.8762981348083674e-09
489 -9.708189505777192e-09 2.0473561871413395e-09 5.245047787312752e-09
496 3.6461662757052758e-09 3.1051293586656258e-09 -1.4715853982519244e-09
495 2.3987458883628907e-10 6.505956299258494e-10 -5.07609894300227e-09
494 5.8425094762087385e-09 1.7187506801136573e-09 -3.2587754573722e-09
493 9.4411343363242e-09 4.08541679610418e-10 1.2048655692920636e-09
448 -1.6390217449399247e-10 -4.395849702671428e-09 -9.136804961305435e-10
447 -1.8619855572212582e-10 4.4982560039792596e-09 2.389970268569671e-09
500 -5.531891239968011e-09 6.481704909255304e-10 -3.457833218583656e-10
499 6.481761105526229e-10 -5.5318863934847596e-09 -3.4578794925401784e-10
498 -2.4108750637501037e-09 -2.4108784104188e-09 -7.227955952884399e-09
497 7.190857113413233e-10 7.190920119204367e-10 -2.0723772178391994e-09
450 2.433784475782513e-09 2.8447219445700526e-09 -2.0107211243085004e-09
449 2.84472312601351e-09 2.43379181008693e-09 -2.010726538729577e-09
