LAMMPS data file via write_data, version 29 Aug 2024, timestep = 53, units = metal

500 atoms
3 atom types

-0.0037456598852493917 17.603745659885256 xlo xhi
-0.005953969796026581 17.605953969796023 ylo yhi
-0.010589063993096717 17.610589063993082 zlo zhi
1.0784183342549633e-15 1.0789859695821813e-15 1.0789859695821813e-15 xy xz yz

Masses

1 58.71
2 55.845
3 51.9961

Atoms # atomic

82 1 0.04362246099643514 1.7632411642971362 1.705434810061749 0 0 0
86 1 1.7287248613036728 3.473047281331666 1.7467812294856382 0 0 0
247 2 3.5299290433392105 0.007414376481344357 -0.008165135416185495 0 0 0
248 2 3.522968019427008 1.7355587842215385 1.754637902476337 0 0 0
262 2 1.7945693229249777 0.002597181758714387 1.718935175107758 0 0 0
265 2 1.7896814632635971 1.7651244549692797 3.4964314771782186 0 0 0
272 2 0.01788311821856605 3.5271821871863738 3.5073021807221236 0 0 0
333 3 3.5328782102696623 3.4725622224148216 -0.002740584454570592 0 0 0
337 3 3.5310493754212615 3.5333886226390474 3.4894542610453296 0 0 0
443 3 0.02177653298518771 0.03266492233574369 3.4725119861188887 0 0 0
56 1 5.288698910742965 3.5020114470729893 1.7371642723187142 0 0 0
65 1 5.2621386150441385 1.7527194605653573 3.480298310176907 0 0 0
97 1 7.030502227546108 0.025988340048786404 0.0009005601260604901 0 0 0
110 1 5.245517237229918 -0.0025920466944975764 1.7436546233761154 0 0 0
144 1 7.01644104116458 1.7662191122561115 1.7601761414463217 0 0 0
152 1 7.036135661223973 3.5074063036938927 0.01642000719098447 0 0 0
249 2 5.306259205622179 1.7356684242686349 0.002519233950098841 0 0 0
314 2 7.02435762689669 3.502509415197478 3.5112366015739647 0 0 0
368 3 7.037376888602251 0.024573778185762778 3.516673218387768 0 0 0
145 1 8.777262266299982 1.775297681647198 0.03309516089441749 0 0 0
325 2 8.795146081838395 1.7586113864486417 3.504220796911212 0 0 0
122 1 10.548240314775493 1.7402780430192282 1.7660728566140034 0 0 0
123 1 12.25506827914379 1.7324827115413197 3.5518576784319698 0 0 0
130 1 10.51095679059644 3.5044481330700274 0.03563503989757876 0 0 0
153 1 8.80476988795259 3.5092845785386397 1.7664265567968838 0 0 0
191 2 10.54521715325672 3.5076592469662224 3.5046159406998463 0 0 0
230 2 12.265244711364428 1.7488523393930775 0.006182196281577705 0 0 0
479 3 12.320565330508945 3.4991216310073137 1.775622843896797 0 0 0
336 3 14.031970480691792 1.7290756634402338 1.7688026020388252 0 0 0
348 3 15.85912167437474 1.717827269650133 -0.003437674452890147 0 0 0
410 3 15.870973151775656 1.779125283351684 3.501623448188695 0 0 0
426 3 15.85671586643722 3.530143314797369 1.7339068696351614 0 0 0
445 3 14.08191217173307 3.531288849650563 3.5455018272632044 0 0 0
49 1 3.5239847231919557 7.0143058091172215 3.522141367499719 0 0 0
88 1 1.7569971151323551 5.283486849977737 3.4984302660544637 0 0 0
95 1 1.787535825041811 7.079385217515165 1.7533019721713174 0 0 0
334 3 3.494127309267335 5.290419652993204 1.7584625571621524 0 0 0
436 3 0.003245692963130263 7.037464148165293 3.5066605845312906 0 0 0
459 3 0.00045106274825218754 5.269021323811144 1.764804701997303 0 0 0
281 2 1.7401434421205635 8.796025518456196 3.519008214624609 0 0 0
58 1 5.298486762874158 5.30278644601502 3.5062861167295343 0 0 0
161 1 7.0416754398381745 7.0454932530759145 3.531106858354827 0 0 0
257 2 5.2764563902966355 5.271212106265489 0.006629533081898313 0 0 0
399 3 5.272179451508197 7.047335895509651 1.714275458035022 0 0 0
435 3 7.041775051110764 5.253308956213581 1.779863281980871 0 0 0
300 2 8.79589704895385 5.257241259338282 3.5285828589562636 0 0 0
182 2 8.76864941518094 8.79337530090093 3.49819855833663 0 0 0
160 1 8.793569086596746 8.795206997994049 0.013832611952944942 0 0 0
66 1 5.31720857479224 8.779296722347821 3.503336644315009 0 0 0
131 1 10.55961697301429 5.268620331458365 1.7574574738368414 0 0 0
133 1 12.309978514272633 5.26381248152222 3.512847935856409 0 0 0
137 1 12.310563390424575 8.779772976785145 3.4976436415376924 0 0 0
196 2 12.319553853431207 7.009287612600977 1.7406933094985806 0 0 0
316 2 8.801399049574783 5.267187765232675 0.01142931787930731 0 0 0
463 3 8.803484878792517 7.046919389784417 1.7449475910194654 0 0 0
477 3 12.30606880672207 5.268171824324211 0.0043306485430090035 0 0 0
500 3 10.588662593000755 7.032930514904455 3.4829216985582314 0 0 0
391 3 14.076235399988354 8.763072487440885 1.7449652101400592 0 0 0
4 1 14.086351934486158 5.288848774890539 1.7406490451184051 0 0 0
10 1 15.842484178033839 5.2531465865580875 3.53052599773658 0 0 0
383 3 14.056030036112054 6.989649291379351 3.526712953591268 0 0 0
388 3 15.818846567473575 7.010046124977349 1.7062928875164762 0 0 0
50 1 3.5014997332529973 0.029050119210796678 7.051893577733466 0 0 0
111 1 3.536729300517723 1.7302526210399285 5.282319637436762 0 0 0
258 2 3.5352561886769602 3.506936361205706 7.036165570500841 0 0 0
264 2 1.7869110394590437 0.012149932693344051 5.279462356094132 0 0 0
267 2 1.79988252551723 1.7823374797868556 7.064831114848975 0 0 0
419 3 1.7920509783142016 3.546445272042944 5.260795100044766 0 0 0
421 3 0.009912063254328864 3.5442374109030057 7.073911333854758 0 0 0
444 3 0.022387800091451467 1.8107496184102416 5.289119400911712 0 0 0
446 3 0.01086463653743729 0.025043656423792096 7.066170017402711 0 0 0
252 2 3.519357616945967 1.7623609970214646 8.799758037796837 0 0 0
51 1 5.281538999252054 1.753365710539886 7.03369498768026 0 0 0
147 1 7.02759164798621 0.01613724615386077 7.042724113417235 0 0 0
156 1 7.033452644795207 3.518538579150152 7.023206688833556 0 0 0
288 2 7.018255230900716 1.7655567202226559 5.275285695802678 0 0 0
327 3 5.268803527258119 3.529909791262771 5.270748325072566 0 0 0
146 1 8.784702328413688 -0.0016770762212771862 5.288332180399522 0 0 0
155 1 8.767043141325937 3.5023715562820605 5.258091730415935 0 0 0
321 2 8.74598786674571 1.7469719752403807 7.018689236565903 0 0 0
253 2 5.270678761580867 0.006327362301184063 8.785024363845856 0 0 0
326 2 7.0285776145314465 1.7406434868693577 8.785237853226988 0 0 0
132 1 12.3200674125019 3.5078256227531677 5.257517247696345 0 0 0
186 2 12.318213525422184 -0.004890388430025868 5.288390375997224 0 0 0
197 2 10.533439288026695 1.748844184049955 5.239480643591685 0 0 0
360 3 12.294966317732682 1.7414188701383129 7.053014389497831 0 0 0
363 3 10.550754721393647 0.008985946561512451 7.049033426886516 0 0 0
467 3 10.521032757846783 3.4740946302015523 7.00807071745164 0 0 0
2 1 15.837541567464026 3.516954629297725 5.266242597441193 0 0 0
30 1 14.033111512951564 1.7698082295219395 5.292804641185488 0 0 0
389 3 15.814516023551874 1.7637193528018758 7.062807098681678 0 0 0
408 3 15.806477446638814 0.0071385934150099695 5.280739373155127 0 0 0
437 3 14.088482561685547 3.543262182534067 7.03601289380817 0 0 0
402 3 3.532136539008602 8.77521926040493 5.240833620986717 0 0 0
57 1 3.543916670085709 5.311338244377918 5.273326767435205 0 0 0
67 1 3.535988767968659 7.023903089808497 7.036663830841714 0 0 0
282 2 0.007630159550180371 7.034571689392849 7.07514635084801 0 0 0
424 3 1.7705382333889879 5.277477007957503 7.0470850351583305 0 0 0
438 3 1.7289289885121828 7.0141818037391515 5.277947150685114 0 0 0
318 2 3.524800379492433 8.796827148697432 8.796749870125595 0 0 0
320 2 5.277135936712933 8.779582644241707 7.0322805545273654 0 0 0
180 2 7.025356808775381 8.776708467710142 5.282285548035224 0 0 0
163 1 8.77969891772683 8.794036646658373 7.043367637578759 0 0 0
157 1 8.775438325134438 5.2662372189773645 7.032191947146859 0 0 0
315 2 5.29747131007976 7.020698753962036 5.262158186681346 0 0 0
59 1 5.289319629592091 5.298464857165543 7.001514368062043 0 0 0
154 1 7.041808412433494 5.269982054139906 5.27047255036444 0 0 0
162 1 7.0438984342141175 7.038995991287441 7.015410813968741 0 0 0
176 2 8.779320587291629 7.0467079817180105 8.779942945920006 0 0 0
442 3 7.039321352257816 5.284394491265132 8.794334299897036 0 0 0
439 3 10.557341508371607 8.780590213399453 5.259980567755878 0 0 0
430 3 12.326716894985937 8.763709270886435 7.054113815915773 0 0 0
462 3 10.583992503596686 5.237626690781141 5.277268003548966 0 0 0
366 3 8.805304323038769 7.0245816595974775 5.297899463851078 0 0 0
198 2 10.535111243438072 7.024709344112254 7.065469581945643 0 0 0
192 2 12.321425977797235 5.286001734827323 7.0392062729613 0 0 0
185 2 12.329232867657256 7.010806533426154 5.286803669709495 0 0 0
466 3 10.557509812412427 5.249844181800953 8.794422861951759 0 0 0
378 3 15.860302333110909 7.022914578067796 5.297895729121517 0 0 0
351 3 15.854699231944938 5.276333326232611 7.065181085378792 0 0 0
323 2 14.071808449107513 5.2653428513962295 5.279465485273428 0 0 0
290 2 14.084084596383848 7.025536159473193 7.073383986902591 0 0 0
87 1 17.567712307601955 5.259942755648161 5.250326548669439 -1 0 0
52 1 3.5245715422792254 0.0033519055610137967 10.546205612904235 0 0 0
53 1 3.5117801753205247 1.776497062626487 12.320130118726592 0 0 0
60 1 3.5311959448502575 3.545262669435003 10.596850878709619 0 0 0
83 1 -0.002367330604565892 1.777477457126961 8.81514254558888 0 0 0
90 1 1.7597026621259575 3.492558303228191 8.838559618832003 0 0 0
266 2 1.7782815731443546 0.01063975558553919 8.801650391538292 0 0 0
268 2 0.03346294762576578 1.762935040100496 12.35973348616409 0 0 0
275 2 1.7674222353299909 3.5438656364224452 12.349647793305557 0 0 0
453 3 1.7815727849121625 1.7697113638793973 10.572355796104214 0 0 0
149 1 7.067129884151799 1.794924192827871 12.297518781400772 0 0 0
158 1 8.746243823180551 3.5446648520070196 12.331099759712874 0 0 0
175 2 7.035705887076957 3.5465546197118867 10.586224999524728 0 0 0
259 2 5.287766223058032 3.5195456137549246 12.316462847753987 0 0 0
312 2 8.780067752817246 1.7239142050698941 10.583221080419609 0 0 0
328 3 5.3024328202693125 1.7742306108067671 10.551499325487121 0 0 0
339 3 5.266358842092925 -0.0014004472486890624 12.304693974474167 0 0 0
343 3 5.266924134703147 3.54697714697646 8.800348207767229 0 0 0
441 3 8.776507630883174 3.484550106038388 8.82217906234282 0 0 0
124 1 12.342408825346851 0.0023697156847104096 8.827972514373146 0 0 0
125 1 10.553096849526622 -0.0014437348100560686 10.557949094316411 0 0 0
127 1 12.269039010555385 1.733608544161513 10.553069298874432 0 0 0
135 1 12.299197077273469 3.5127163002304322 12.313758104430931 0 0 0
187 2 10.531338676421921 1.7235001948961397 8.831406774549803 0 0 0
188 2 10.540928155807926 1.7158857521745237 12.333682752270134 0 0 0
465 3 12.331027306081028 3.514976282166156 8.829469767198646 0 0 0
499 3 10.53242276202419 3.494386443794546 10.642691565699591 0 0 0
425 3 17.599759796184145 3.5629572060951853 10.607102712247524 -1 0 0
12 1 15.862978191630807 3.5221298776209853 8.833694703157475 0 0 0
15 1 15.873361225984675 3.513045308341731 12.35398851789943 0 0 0
216 2 14.081551350616762 1.7338493395023904 8.821198998073545 0 0 0
362 3 14.103475418848648 3.5310051847200445 10.562344533385797 0 0 0
387 3 14.02234171289997 1.7502747085102803 12.286550439575324 0 0 0
401 3 15.854603523420876 1.7523337602886966 10.557161794172952 0 0 0
61 1 3.54759744269465 5.247753990096296 12.313044021752741 0 0 0
68 1 3.5477038106318526 8.780463388880406 12.345744180127143 0 0 0
92 1 1.7441634385441205 5.273951262108686 10.571211412623233 0 0 0
96 1 0.0142517044703961 8.793001932506616 8.820554695998917 0 0 0
283 2 1.7375119004218935 7.028515992054469 8.81508466719756 0 0 0
285 2 1.748038539080642 8.77869751109969 10.562688624367828 0 0 0
342 3 3.5004005242098777 5.2504703807009045 8.808718492080049 0 0 0
409 3 3.514719748776999 7.04775910597741 10.57201683313084 0 0 0
486 3 0.006683962942502002 8.767116201401038 12.338547199090009 0 0 0
487 3 1.7948393350687282 7.002267571960798 12.340052809765515 0 0 0
62 1 5.305210498881502 5.304099098825617 10.600842310803074 0 0 0
69 1 5.300098464502921 8.793658628451759 10.568632979623255 0 0 0
164 1 7.066080782480316 7.056595484256858 10.587167205821602 0 0 0
178 2 7.036957845570745 5.296825630740366 12.310922243085423 0 0 0
181 2 8.784434294950948 5.294764291211768 10.585395547319141 0 0 0
324 2 5.285584399173467 7.069131543407071 12.316081064673286 0 0 0
407 3 5.273401937303426 7.044878911156607 8.800628231227149 0 0 0
183 2 8.805246663342668 7.08016533011158 12.332328020437478 0 0 0
134 1 10.54876539866172 5.29441812945805 12.315489248970874 0 0 0
136 1 12.31530418362557 5.29863750750225 10.572400145488256 0 0 0
199 2 12.347017050175278 7.032621643125581 8.827559704179267 0 0 0
201 2 12.321919242714957 7.0449946681966304 12.306101183501315 0 0 0
417 3 10.542409010930202 7.056186532478979 10.567189249878707 0 0 0
89 1 17.59964429514089 5.288088751420212 8.830180249838133 -1 0 0
91 1 17.57329018653446 5.28121486743135 12.351513809702158 -1 0 0
284 2 17.591755220785537 7.018871126566197 10.56668724059687 -1 0 0
18 1 15.851444370776974 8.790259200422218 10.559997246821647 0 0 0
21 1 15.828489465674144 7.04669754809862 12.325644130832037 0 0 0
22 1 14.082510951539676 8.792824045992187 12.299321275781354 0 0 0
25 1 14.103407989399765 7.06054648782932 10.560700380258334 0 0 0
32 1 15.855095249461034 7.049488833070405 8.829408007014424 0 0 0
34 1 14.090261271573917 8.782318266669328 8.821034129380788 0 0 0
305 2 15.855327799105945 5.312531744610093 10.57622396537173 0 0 0
317 2 14.101390978946894 5.314077180788703 8.836285623062823 0 0 0
364 3 14.094379417907584 5.259698243138654 12.314546668915547 0 0 0
54 1 3.5298460090201154 1.7461929671099292 15.849248747451199 0 0 0
63 1 3.519090311478991 3.5045813514364923 14.075626688031285 0 0 0
85 1 1.7717273820297135 1.756468961241446 14.076504068998796 0 0 0
93 1 3.101578527038703e-05 3.544369815437284 14.0860533287163 0 0 0
94 1 1.790394335504302 3.497000545045725 15.819983785329415 0 0 0
455 3 0.012484905605106627 1.7906582817518362 15.8259575822039 0 0 0
263 2 1.7611003266146124 1.7564663137103418 17.59706303043385 0 0 -1
271 2 0.0072511217650756375 3.5308906255724875 17.572693789730042 0 0 -1
55 1 5.270088465450431 0.006151534936283235 15.875682820942444 0 0 0
143 1 7.027112112926941 3.5030557014073915 14.063873286461739 0 0 0
150 1 7.025010452922878 1.7533470706811567 15.870847672339 0 0 0
151 1 8.78404186183045 1.752544226806637 14.06493387244679 0 0 0
322 2 5.294395613460915 3.4918728346529826 15.872852472731546 0 0 0
332 3 5.292844823294579 1.7885653483879946 14.11635554785383 0 0 0
498 3 7.042396566570505 0.015252618174076624 14.070384797118637 0 0 0
428 3 8.734827289858295 3.5025800089627603 15.838359172660212 0 0 0
497 3 10.54618543655679 3.487918204518284 14.03952865478488 0 0 0
490 3 12.309988078902764 3.4888535832437046 15.830641026649218 0 0 0
129 1 12.294183459502237 1.7270732286459118 14.045883720705616 0 0 0
355 3 10.529282514315504 1.754145076077981 15.853631454020332 0 0 0
346 3 14.07525687743295 1.7554369434569792 15.818416100757593 0 0 0
306 2 14.085465368634063 3.5108231345311345 14.064850740161987 0 0 0
5 1 15.859529326914531 3.5578188511258833 15.818233679818633 0 0 0
359 3 15.838216069014328 1.7624065212532836 14.067243357187717 0 0 0
357 3 14.103712131702443 3.526029021871858 17.572630485714377 0 0 -1
431 3 1.760501375097627 5.292145311434196 14.1057645774726 0 0 0
349 3 3.5549706918027626 5.273641449588893 15.84223811767223 0 0 0
289 2 3.555357520800478 7.067913943489138 14.093413992978432 0 0 0
277 2 0.007102059893138888 5.266862006637421 15.828674016801633 0 0 0
81 1 1.8088802947754707 7.069282305619464 15.815257384916462 0 0 0
64 1 3.5230707370025036 7.078351410449813 17.565826735585354 0 0 -1
432 3 0.035917992189973616 7.050007585356259 17.580979812739216 0 0 -1
461 3 1.7652681361417248 5.287210194921821 17.60666135188784 0 0 -1
433 3 8.798734946216472 5.3128487857290265 14.054235151289522 0 0 0
427 3 7.02151681421092 5.285261281767478 15.879884029464506 0 0 0
416 3 7.028824802514002 7.10289617363787 14.090287510762472 0 0 0
396 3 5.289032446964309 5.278669298555336 14.079149932778265 0 0 0
291 2 5.273347081950319 7.088122745803675 15.87284032759378 0 0 0
174 2 7.044511753652308 7.052612238335227 17.608690880841635 0 0 -1
493 3 10.526384646733124 5.2769868237925674 15.86099211867337 0 0 0
488 3 12.315192995656966 5.276330644536518 14.043225498300801 0 0 0
420 3 12.327241870632724 7.048042855415194 15.78478753861551 0 0 0
166 1 8.80200342709727 7.054732896321311 15.856730737640857 0 0 0
139 1 10.551185624248399 7.06993668541506 14.072851961957548 0 0 0
194 2 10.545596979880685 7.036455715244868 17.608563420976047 0 0 -1
473 3 12.303953435661972 8.788507587265105 17.603643189732242 0 0 -1
345 3 14.114806197151237 8.797370327133779 15.861765245012661 0 0 0
344 3 15.819943989650866 7.014154485424101 15.82336937621643 0 0 0
307 2 14.08498590730488 5.2658706131975785 15.816836112258832 0 0 0
304 2 14.094778627373872 7.060627368383228 14.039835649763914 0 0 0
48 1 15.839679470263475 5.277992706118714 14.077743744251613 0 0 0
286 2 17.59941132487865 7.032807574137901 14.088258813173326 -1 0 0
298 2 15.84942388240427 8.791766035096293 17.589750052867522 0 0 -1
28 1 15.837052498124478 5.277742675082533 17.57251791448953 0 0 -1
47 1 14.064524280171936 6.98534689596747 17.577593357469578 0 0 -1
100 1 0.0024894403952199786 10.55890259594204 3.5499009182741674 0 0 0
278 2 0.02792649896056701 8.809516459133423 1.7200098156560901 0 0 0
293 2 3.53214451755868 12.320910900865648 1.730012578827538 0 0 0
374 3 3.5213096704967035 10.56346571657268 3.5128960518259826 0 0 0
398 3 3.505793552576063 8.814674718843447 1.7683394290261272 0 0 0
484 3 1.7502485078534207 12.367703227534085 3.528217914418975 0 0 0
495 3 1.7257454195902464 10.588835058519726 1.7482457673952376 0 0 0
168 1 7.0519311694131535 10.561937908149643 0.0026775735433143145 0 0 0
179 2 7.0340901434605065 8.805700655758757 1.7443206003450842 0 0 0
210 2 8.787881205581732 10.54603759428421 1.721565041757487 0 0 0
211 2 7.0385039745908085 10.547902920511254 3.483524019005582 0 0 0
213 2 8.760120561896208 12.33578606091955 3.498885685020971 0 0 0
221 2 7.070972232077566 12.324001717408118 1.74435647890906 0 0 0
294 2 5.300217365048065 10.545828684333678 1.7271853829115942 0 0 0
295 2 5.304527910139829 12.300553011360256 0.00012677619770940646 0 0 0
377 3 5.308556486551679 12.321245952891836 3.4778654064522 0 0 0
140 1 10.539983707944135 10.548853427039301 -0.004357921018934354 0 0 0
195 2 10.560561374158299 8.800326332309462 1.740309324984662 0 0 0
429 3 10.5411837280468 12.33708693694634 1.7286326059472108 0 0 0
448 3 12.362998574191783 12.378307855599111 3.4952580661650106 0 0 0
452 3 10.544765575551928 10.55573515081019 3.5058026681627426 0 0 0
458 3 12.337421218811206 10.570814997682984 1.7489631952954354 0 0 0
494 3 17.586444842251584 12.37909825864811 1.7361011189765074 -1 0 0
20 1 14.084926876164623 12.377251980195663 1.7367648690036852 0 0 0
255 2 14.105226939021126 10.585828226177995 3.483696825121485 0 0 0
335 3 15.866226715728951 10.591866366486876 1.7001711734130434 0 0 0
369 3 15.819898558980913 12.349625676020485 3.517888924234627 0 0 0
414 3 15.893567803273996 8.827870225415987 3.4582847493549624 0 0 0
77 1 3.524059860345999 15.85544485289579 1.7532123451394939 0 0 0
104 1 1.7783402767331138 15.852039321700426 -0.007847135119078648 0 0 0
238 2 1.7637419848900964 14.097405566720282 1.7272845051685752 0 0 0
240 2 1.7639468623933219 15.84588913802468 3.499925323234001 0 0 0
390 3 3.5194778728795395 14.085450436212222 -0.009871031193781929 0 0 0
394 3 3.5086514410277903 14.113969147370327 3.4812068866764925 0 0 0
261 2 0.023011999615526756 17.580267254798347 -0.002308163505526496 0 -1 0
476 3 0.00762265854089837 15.81786316197477 1.768478503816204 0 0 0
250 2 3.5129983198764863 17.602173286900534 3.5078803486041648 0 -1 0
114 1 7.077524884261632 14.07931391320419 3.525419051725837 0 0 0
177 2 5.281464871062293 15.85116384220809 3.4953122380669006 0 0 0
302 2 5.29268906172933 14.092537422684963 1.748642843944669 0 0 0
404 3 7.011308349557596 15.842585150702428 1.7632925700289914 0 0 0
115 1 8.786843555103728 15.826477929707886 3.5416080704238713 0 0 0
341 3 8.805505813540558 17.57417525751812 1.7288510563116506 0 -1 0
231 2 10.520898794744467 17.59447847527394 3.5136801889061036 0 -1 0
229 2 12.259574249876493 17.579816118362036 1.761883104454762 0 -1 0
121 1 10.561756996760222 17.592644545531325 0.019882654239442625 0 -1 0
220 2 8.807223789991914 14.100181884549691 1.7609903188465574 0 0 0
3 1 10.540536571308783 15.825697635988353 1.7433640856941013 0 0 0
42 1 12.28013132693178 15.828934258978782 -0.008120616008779336 0 0 0
43 1 12.31713273143216 14.114046746598813 1.7124839330121566 0 0 0
193 2 10.53423203342281 14.101437955495983 3.4952304383924786 0 0 0
482 3 12.289776245280546 15.82974872199837 3.513118771287964 0 0 0
400 3 14.064343778025043 17.582949865389967 3.5182266376782145 0 -1 0
330 3 14.029604080489532 17.586497292717247 0.013969536563337355 0 -1 0
224 2 15.845018079979106 17.579509113678245 1.7630673416095566 0 -1 0
239 2 17.580177117801814 14.086672089660706 3.542898761640088 -1 0 0
7 1 15.834054767016008 15.82503050507725 3.5322152393079405 0 0 0
41 1 14.059348069674638 14.0849817471128 0.014419099527769116 0 0 0
44 1 14.062814277963266 15.828653797780087 1.7661473310434739 0 0 0
45 1 15.791919205276475 14.126785214075097 1.7655961556456603 0 0 0
46 1 14.083295909631897 14.106318957784785 3.5363548118880845 0 0 0
72 1 3.531108076497442 10.559351605117024 7.073055205719272 0 0 0
101 1 0.000416067114317993 12.295094385869273 5.28167418365622 0 0 0
234 2 1.748630197034084 12.292984160131793 7.049486290786563 0 0 0
246 2 0.00040381102294573647 10.569094210352517 7.038452045371008 0 0 0
280 2 0.0004956675267861264 8.828114023832793 5.29723900430144 0 0 0
287 2 1.7552254583694906 10.572130096455915 5.2885103730245495 0 0 0
375 3 3.5278275392708105 12.327990284387013 5.306342761034906 0 0 0
492 3 1.7906960926525903 8.812486065719487 7.056086279738643 0 0 0
73 1 3.515690022610827 12.316241323602434 8.798723580062326 0 0 0
170 1 7.042915906682705 12.325836848633532 5.274346866447067 0 0 0
214 2 7.039730458057342 10.566211415228503 7.057419524502677 0 0 0
297 2 5.286302420998369 12.31608867801356 7.075867956020595 0 0 0
376 3 5.309826298031723 10.573643734973997 5.306577247304347 0 0 0
381 3 8.7472111377605 10.54427809054519 5.27570889062314 0 0 0
296 2 5.273378193086918 10.547671705159836 8.789454224245302 0 0 0
370 3 7.0476301631358185 8.82934580430911 8.798307493431375 0 0 0
415 3 8.826242561897367 12.320860660966165 7.07302173645694 0 0 0
205 2 12.35600086599606 12.303976179601525 7.043998332050801 0 0 0
440 3 10.544375804647864 12.361937483529719 5.253992474536692 0 0 0
447 3 10.59726315978315 10.57108149732455 7.023490531538623 0 0 0
449 3 12.378681010522095 10.560965002514454 5.240670042292983 0 0 0
17 1 15.815965791536922 12.318085136634856 7.048345418155438 0 0 0
24 1 14.103592579335565 12.32817785343866 5.306872931769897 0 0 0
254 2 15.847227863275926 10.594580058301677 5.286824346840799 0 0 0
274 2 14.079723597822445 10.564533376089967 7.071201767454973 0 0 0
379 3 14.11054820462234 8.8035210557877 5.224557730191133 0 0 0
405 3 15.843847641253577 8.811833721990961 7.0631375943618915 0 0 0
29 1 14.072832089544386 12.307857354063064 8.785724126389784 0 0 0
480 3 -0.0001378089953575903 15.860851397236837 5.2642141494084145 0 0 0
386 3 3.4840103696394875 14.07840050818287 7.0493209928733895 0 0 0
303 2 3.4638857369796603 15.859832667079695 5.2805911559851415 0 0 0
105 1 1.7316921769599536 14.094990592618117 5.281148028742604 0 0 0
242 2 1.7641808620687933 15.860265446500193 7.055192471941709 0 0 0
365 3 5.260701622617307 17.570105320054175 5.272187164459543 0 -1 0
226 2 8.757909732181037 15.868238427252843 7.058297077442357 0 0 0
392 3 5.298642900610166 14.109234054923753 5.260540207458626 0 0 0
384 3 5.249492170875707 15.854545294925206 7.048604163776441 0 0 0
347 3 7.044641174249466 14.06240568631933 7.075338460947671 0 0 0
223 2 8.770439100993837 14.09114399488474 5.277913940633079 0 0 0
222 2 7.070518458531576 15.845691402404535 5.288006512289147 0 0 0
116 1 7.0301706054514 15.872739704991748 8.78467525436469 0 0 0
148 1 8.754660064024835 17.605589176827444 8.797171532737105 0 -1 0
471 3 12.331301505817445 14.103104140341499 5.328406568057423 0 0 0
470 3 10.518058848706113 15.855126317955527 5.3094741164002865 0 0 0
190 2 10.54083393311963 14.09622329769918 7.063454017136157 0 0 0
189 2 12.34208816447659 15.883946657196713 7.06073704345877 0 0 0
356 3 12.333324576839422 14.087422388502219 8.75983962659637 0 0 0
218 2 14.061538149086532 17.60107663254655 7.056586047707105 0 -1 0
276 2 14.130558056964096 14.08668803528328 7.046072183857065 0 0 0
260 2 15.84005084018808 15.839414365018412 7.054943415591351 0 0 0
33 1 14.09250606960882 15.843380945740773 5.316885554575283 0 0 0
6 1 15.842205443975924 14.081198628557976 5.277973196051118 0 0 0
451 3 17.58270161066987 14.056410804837789 7.033515368891412 -1 0 0
11 1 14.091692424344306 15.87191948025131 8.785406706890422 0 0 0
16 1 15.854892440516293 14.088446780296364 8.78181402805164 0 0 0
74 1 3.5263933771169818 12.343557329708863 12.334281086406452 0 0 0
102 1 1.7985029957652954 12.334380988751668 10.559551527845167 0 0 0
233 2 1.76710353474663 10.558701009017168 8.817877469302436 0 0 0
235 2 0.007084448823228772 10.541506017637813 10.565175417285479 0 0 0
382 3 3.513936108836603 10.499988263531 10.564399500944013 0 0 0
464 3 -0.0017613788507951883 12.286364068152064 8.830013121987967 0 0 0
468 3 0.007599010312746426 12.336111444992191 12.34829095086435 0 0 0
469 3 1.7790526892274932 10.571155935961514 12.316940079295726 0 0 0
215 2 7.02938521111072 12.292425690674447 8.809391550261235 0 0 0
217 2 7.054697416279111 10.543031736173992 10.570299039288962 0 0 0
372 3 5.288130301094336 10.542995874734604 12.35344486490054 0 0 0
385 3 5.253849247036561 12.310360780573628 10.554268260980615 0 0 0
413 3 7.058480226016512 12.3237793624824 12.325690316858905 0 0 0
165 1 7.038805437199533 8.80547908463457 12.313009238723808 0 0 0
184 2 8.783959490991304 8.831288497240397 10.583335793786398 0 0 0
171 1 8.799812097632758 10.56995488983053 8.809875010351444 0 0 0
172 1 8.816888546330514 10.517460295912661 12.334040572035889 0 0 0
412 3 8.85146425388507 12.27809420398156 10.547312959751325 0 0 0
142 1 12.354070269681324 10.544959969445186 8.83175935968412 0 0 0
159 1 10.57303681623845 10.55568856682025 10.571483313225748 0 0 0
204 2 10.611816299113373 12.288247270302485 8.806585603887486 0 0 0
206 2 12.335413172810092 12.293845703948179 10.552266369432044 0 0 0
207 2 10.555369068727558 12.288465650678168 12.357727126018384 0 0 0
208 2 12.318899156466761 10.581722401647184 12.29498099369875 0 0 0
138 1 10.55882391916496 8.817206407428934 12.322650099857162 0 0 0
202 2 12.343152658588853 8.801264792534424 10.57217059567303 0 0 0
434 3 10.531650992144554 8.834754194954634 8.810894698676874 0 0 0
36 1 14.084610874099283 10.534303695991518 10.54081937820115 0 0 0
37 1 14.055196412087374 12.327984253947964 12.324511998306278 0 0 0
251 2 15.824649497806421 10.542861010968826 8.815294503013186 0 0 0
353 3 15.832101681757528 10.561214310239528 12.319132493882947 0 0 0
483 3 15.799367685555334 12.311153106629627 10.565844895395202 0 0 0
78 1 3.497315184199398 15.871134529865236 8.81116904949053 0 0 0
79 1 3.4956287345607944 14.077558027825479 10.561618568288104 0 0 0
106 1 0.012012352468734099 15.864391083739925 8.806962234717007 0 0 0
107 1 0.03336270223931285 15.853654411290536 12.36346037895303 0 0 0
241 2 1.7520985361375452 14.090483694553097 8.81483156532144 0 0 0
243 2 1.7772675681567496 14.082720751069305 12.327487966396639 0 0 0
244 2 1.7755083168650596 15.841821492908952 10.562699000498029 0 0 0
311 2 3.5028355014286063 15.83201687352157 12.290561962480004 0 0 0
269 2 1.7774427878557233 17.604946547054386 12.337397655053232 0 -1 0
450 3 0.022293475045599122 17.603737340287125 10.562913026773256 0 -1 0
80 1 5.2658002084829265 14.079739933615613 12.315759446444943 0 0 0
117 1 7.031464336057018 15.819498617260109 12.324468848400183 0 0 0
310 2 5.249444249081289 14.083766446531829 8.811129005312281 0 0 0
338 3 7.074741399477767 14.09747334772955 10.536073595123202 0 0 0
411 3 5.27621922451901 15.824471408213867 10.549810632282885 0 0 0
118 1 8.793564374635352 15.867832914372958 10.540682330410242 0 0 0
319 2 7.043955721540568 17.590831782557746 10.546632982511737 0 -1 0
474 3 8.78610123877792 17.556431829466373 12.32191146475288 0 -1 0
225 2 8.813710921508203 14.100388821411572 8.805579881427063 0 0 0
331 3 8.827920157829155 14.116371099311898 12.369026679603552 0 0 0
31 1 12.321665097731136 15.865833899891852 10.560205778114717 0 0 0
35 1 10.576995072875137 15.858921587079948 12.323087394912452 0 0 0
350 3 12.294259357806595 14.063297494313465 12.351204395667214 0 0 0
352 3 10.548945027702803 15.87541635865033 8.828218372178373 0 0 0
358 3 10.565948190795185 14.085386787296208 10.57709482231084 0 0 0
126 1 12.297973612896458 17.580296145738906 12.300966130893666 0 -1 0
406 3 17.59361471606387 14.085326231762458 10.596332682040638 -1 0 0
14 1 15.840215981374277 14.086284498537616 12.36864769075036 0 0 0
273 2 14.064651969343231 15.82726006526477 12.317373820821443 0 0 0
422 3 14.071890777691316 14.081970126045698 10.552430587883665 0 0 0
460 3 15.826239400997343 15.817364927128537 10.55274086119155 0 0 0
1 1 14.043175016229943 17.59030135082714 10.53796566450831 0 -1 0
212 2 15.830985458968211 17.595983181751354 8.808511600751887 0 -1 0
380 3 15.866092945741304 17.585091679161053 12.313208058058382 0 -1 0
98 1 1.795949652769541 8.814889244927638 14.085487157205009 0 0 0
70 1 3.5259562601632273 8.824118715365007 15.84121492468825 0 0 0
75 1 3.5200265669293143 10.560700294264356 14.09639969772141 0 0 0
236 2 1.7735936003653061 10.540217196868129 15.817214515828377 0 0 0
237 2 1.7750981946810374 12.300564341018328 14.092418893451006 0 0 0
299 2 3.5407963993934657 12.29640412057496 15.82845348298131 0 0 0
472 3 0.008921409712450167 12.304509316328769 15.810075391012049 0 0 0
489 3 0.0036163107778859143 8.805116966685157 15.809261871597691 0 0 0
279 2 1.7825366797249789 8.815552431083884 17.57680512518717 0 0 -1
292 2 3.5439773547753908 10.550559064092232 17.587745662915744 0 0 -1
496 3 1.7731141852602204 12.281706377038049 17.56127994304536 0 0 -1
76 1 5.2802698437126265 10.586499837907843 15.858587531379143 0 0 0
113 1 8.79513557445703 12.296788440889133 14.099935671527934 0 0 0
173 1 7.021915357001929 12.309434809247508 15.843651799365123 0 0 0
219 2 7.060522884380673 10.558597574390811 14.10375197868926 0 0 0
301 2 5.290466471689769 12.314083515416717 14.088931572397941 0 0 0
373 3 7.068337822561091 8.83916905039667 15.86563804034998 0 0 0
128 1 8.790522567054584 10.58640135095284 15.867857516833737 0 0 0
71 1 5.257662932013154 8.833180907820916 14.105705286869666 0 0 0
169 1 8.788162214847281 12.304972549543313 17.6063711271229 0 0 -1
313 2 5.28426952716336 8.83095644958726 17.593664397213853 0 0 -1
8 1 10.536266406929052 10.574650484961591 14.075731860916877 0 0 0
13 1 12.296715678235268 10.581897611225047 15.848439284064417 0 0 0
203 2 12.302829264041788 12.311785198861788 14.091729372772857 0 0 0
423 3 10.518396538310837 8.822356341517827 15.841508669377696 0 0 0
457 3 10.564396981686905 12.299540328327543 15.862661651115024 0 0 0
418 3 12.328160362991671 8.853363492017122 14.036642984721903 0 0 0
167 1 8.809850234921818 8.824723025150037 14.067238582088864 0 0 0
141 1 12.32221784878678 12.340055372374517 17.604939621637982 0 0 -1
103 1 17.6022901330692 10.547534111603888 14.079033016941148 -1 0 0
38 1 15.872097677379562 10.585132304165294 15.841232616052004 0 0 0
39 1 15.846582431307711 12.347660896107934 14.089229375781146 0 0 0
478 3 14.06919850145601 12.385832492694986 15.829192836981411 0 0 0
481 3 14.110914154460053 10.57827028628979 14.094695299696962 0 0 0
19 1 15.846762374431584 8.805750545009893 14.078112798823808 0 0 0
99 1 17.594188656395097 10.538258456509803 17.58351915567517 -1 0 -1
256 2 15.828822818158157 12.366411485890012 17.58355587123585 0 0 -1
340 3 14.08849424952009 10.597259116873927 17.57862093720898 0 0 -1
456 3 1.7594603624113454 17.591334104860774 15.868007336455083 0 -1 0
108 1 0.039497024318375706 15.82776557259542 15.812431450147301 0 0 0
109 1 1.7849387767780471 14.097509173301896 15.835450380613507 0 0 0
232 2 1.7511935346158145 15.844112772585278 14.088336292921156 0 0 0
245 2 0.02410767312837255 14.092270732922294 14.09094523030305 0 0 0
309 2 3.5105669830566164 15.849784451709994 15.864029877989177 0 0 0
403 3 3.510262718912685 14.0680291651575 14.09101959454718 0 0 0
329 3 3.5220941107413144 17.594678232418072 14.088277686655823 0 -1 0
84 1 0.008599217021753178 17.59097921773322 14.08887358424989 0 -1 0
485 3 8.796277890572135 17.60181318422187 15.882897708857913 0 -1 0
119 1 7.043109662598163 14.051032812248682 14.080970377242277 0 0 0
308 2 5.282347462879752 14.041627033905757 15.84403642181044 0 0 0
361 3 5.281078219734146 15.800191823337276 14.096060355324399 0 0 0
371 3 7.036319819287537 15.842521530102754 15.820570358566403 0 0 0
227 2 8.79974392017587 14.05134606756735 15.814726439185526 0 0 0
393 3 5.281028168017222 15.875253129304149 17.587059179272735 0 0 -1
395 3 7.086532511360131 14.059463244351823 17.592939448694402 0 0 -1
354 3 12.29394252541435 17.588504026191632 15.85341725651481 0 -1 0
112 1 10.562291712909568 17.576374770190732 14.073649869284806 0 -1 0
23 1 12.278243517039295 15.817890701172642 14.07121629165787 0 0 0
26 1 10.545696706391466 15.829709853884427 15.832784130201198 0 0 0
27 1 10.561624353540635 14.077894142991267 14.11751173808488 0 0 0
120 1 8.819692708734065 15.81487803215656 14.093961742150853 0 0 0
228 2 12.29491711452674 14.092546492836728 15.861152227858902 0 0 0
200 2 10.548296844357534 14.095570666566418 17.595232413477643 0 0 -1
209 2 8.821241459874772 15.832310771561787 17.600703681817393 0 0 -1
367 3 15.874488002052493 17.555850641479882 15.840141736281495 0 -1 0
397 3 14.073711002280188 17.541751721301626 14.063174387452056 0 -1 0
454 3 14.065111587463923 15.778421013044557 15.814626722399781 0 0 0
9 1 15.853920682364125 14.083359912853936 15.821211507418774 0 0 0
40 1 15.892500109816465 15.779116480542147 14.068912778259454 0 0 0
270 2 14.0815679864042 14.083520943996971 14.05549336214166 0 0 0
475 3 17.592960547992757 14.095226750563537 17.569268309971232 -1 0 -1
491 3 15.831122379973479 15.838499355755886 17.601558264400357 0 0 -1

Velocities

82 0 0 0
86 0 0 0
247 0 0 0
248 0 0 0
262 0 0 0
265 0 0 0
272 0 0 0
333 0 0 0
337 0 0 0
443 0 0 0
56 0 0 0
65 0 0 0
97 0 0 0
110 0 0 0
144 0 0 0
152 0 0 0
249 0 0 0
314 0 0 0
368 0 0 0
145 0 0 0
325 0 0 0
122 0 0 0
123 0 0 0
130 0 0 0
153 0 0 0
191 0 0 0
230 0 0 0
479 0 0 0
336 0 0 0
348 0 0 0
410 0 0 0
426 0 0 0
445 0 0 0
49 0 0 0
88 0 0 0
95 0 0 0
334 0 0 0
436 0 0 0
459 0 0 0
281 0 0 0
58 0 0 0
161 0 0 0
257 0 0 0
399 0 0 0
435 0 0 0
300 0 0 0
182 0 0 0
160 0 0 0
66 0 0 0
131 0 0 0
133 0 0 0
137 0 0 0
196 0 0 0
316 0 0 0
463 0 0 0
477 0 0 0
500 0 0 0
391 0 0 0
4 0 0 0
10 0 0 0
383 0 0 0
388 0 0 0
50 0 0 0
111 0 0 0
258 0 0 0
264 0 0 0
267 0 0 0
419 0 0 0
421 0 0 0
444 0 0 0
446 0 0 0
252 0 0 0
51 0 0 0
147 0 0 0
156 0 0 0
288 0 0 0
327 0 0 0
146 0 0 0
155 0 0 0
321 0 0 0
253 0 0 0
326 0 0 0
132 0 0 0
186 0 0 0
197 0 0 0
360 0 0 0
363 0 0 0
467 0 0 0
2 0 0 0
30 0 0 0
389 0 0 0
408 0 0 0
437 0 0 0
402 0 0 0
57 0 0 0
67 0 0 0
282 0 0 0
424 0 0 0
438 0 0 0
318 0 0 0
320 0 0 0
180 0 0 0
163 0 0 0
157 0 0 0
315 0 0 0
59 0 0 0
154 0 0 0
162 0 0 0
176 0 0 0
442 0 0 0
439 0 0 0
430 0 0 0
462 0 0 0
366 0 0 0
198 0 0 0
192 0 0 0
185 0 0 0
466 0 0 0
378 0 0 0
351 0 0 0
323 0 0 0
290 0 0 0
87 0 0 0
52 0 0 0
53 0 0 0
60 0 0 0
83 0 0 0
90 0 0 0
266 0 0 0
268 0 0 0
275 0 0 0
453 0 0 0
149 0 0 0
158 0 0 0
175 0 0 0
259 0 0 0
312 0 0 0
328 0 0 0
339 0 0 0
343 0 0 0
441 0 0 0
124 0 0 0
125 0 0 0
127 0 0 0
135 0 0 0
187 0 0 0
188 0 0 0
465 0 0 0
499 0 0 0
425 0 0 0
12 0 0 0
15 0 0 0
216 0 0 0
362 0 0 0
387 0 0 0
401 0 0 0
61 0 0 0
68 0 0 0
92 0 0 0
96 0 0 0
283 0 0 0
285 0 0 0
342 0 0 0
409 0 0 0
486 0 0 0
487 0 0 0
62 0 0 0
69 0 0 0
164 0 0 0
178 0 0 0
181 0 0 0
324 0 0 0
407 0 0 0
183 0 0 0
134 0 0 0
136 0 0 0
199 0 0 0
201 0 0 0
417 0 0 0
89 0 0 0
91 0 0 0
284 0 0 0
18 0 0 0
21 0 0 0
22 0 0 0
25 0 0 0
32 0 0 0
34 0 0 0
305 0 0 0
317 0 0 0
364 0 0 0
54 0 0 0
63 0 0 0
85 0 0 0
93 0 0 0
94 0 0 0
455 0 0 0
263 0 0 0
271 0 0 0
55 0 0 0
143 0 0 0
150 0 0 0
151 0 0 0
322 0 0 0
332 0 0 0
498 0 0 0
428 0 0 0
497 0 0 0
490 0 0 0
129 0 0 0
355 0 0 0
346 0 0 0
306 0 0 0
5 0 0 0
359 0 0 0
357 0 0 0
431 0 0 0
349 0 0 0
289 0 0 0
277 0 0 0
81 0 0 0
64 0 0 0
432 0 0 0
461 0 0 0
433 0 0 0
427 0 0 0
416 0 0 0
396 0 0 0
291 0 0 0
174 0 0 0
493 0 0 0
488 0 0 0
420 0 0 0
166 0 0 0
139 0 0 0
194 0 0 0
473 0 0 0
345 0 0 0
344 0 0 0
307 0 0 0
304 0 0 0
48 0 0 0
286 0 0 0
298 0 0 0
28 0 0 0
47 0 0 0
100 0 0 0
278 0 0 0
293 0 0 0
374 0 0 0
398 0 0 0
484 0 0 0
495 0 0 0
168 0 0 0
179 0 0 0
210 0 0 0
211 0 0 0
213 0 0 0
221 0 0 0
294 0 0 0
295 0 0 0
377 0 0 0
140 0 0 0
195 0 0 0
429 0 0 0
448 0 0 0
452 0 0 0
458 0 0 0
494 0 0 0
20 0 0 0
255 0 0 0
335 0 0 0
369 0 0 0
414 0 0 0
77 0 0 0
104 0 0 0
238 0 0 0
240 0 0 0
390 0 0 0
394 0 0 0
261 0 0 0
476 0 0 0
250 0 0 0
114 0 0 0
177 0 0 0
302 0 0 0
404 0 0 0
115 0 0 0
341 0 0 0
231 0 0 0
229 0 0 0
121 0 0 0
220 0 0 0
3 0 0 0
42 0 0 0
43 0 0 0
193 0 0 0
482 0 0 0
400 0 0 0
330 0 0 0
224 0 0 0
239 0 0 0
7 0 0 0
41 0 0 0
44 0 0 0
45 0 0 0
46 0 0 0
72 0 0 0
101 0 0 0
234 0 0 0
246 0 0 0
280 0 0 0
287 0 0 0
375 0 0 0
492 0 0 0
73 0 0 0
170 0 0 0
214 0 0 0
297 0 0 0
376 0 0 0
381 0 0 0
296 0 0 0
370 0 0 0
415 0 0 0
205 0 0 0
440 0 0 0
447 0 0 0
449 0 0 0
17 0 0 0
24 0 0 0
254 0 0 0
274 0 0 0
379 0 0 0
405 0 0 0
29 0 0 0
480 0 0 0
386 0 0 0
303 0 0 0
105 0 0 0
242 0 0 0
365 0 0 0
226 0 0 0
392 0 0 0
384 0 0 0
347 0 0 0
223 0 0 0
222 0 0 0
116 0 0 0
148 0 0 0
471 0 0 0
470 0 0 0
190 0 0 0
189 0 0 0
356 0 0 0
218 0 0 0
276 0 0 0
260 0 0 0
33 0 0 0
6 0 0 0
451 0 0 0
11 0 0 0
16 0 0 0
74 0 0 0
102 0 0 0
233 0 0 0
235 0 0 0
382 0 0 0
464 0 0 0
468 0 0 0
469 0 0 0
215 0 0 0
217 0 0 0
372 0 0 0
385 0 0 0
413 0 0 0
165 0 0 0
184 0 0 0
171 0 0 0
172 0 0 0
412 0 0 0
142 0 0 0
159 0 0 0
204 0 0 0
206 0 0 0
207 0 0 0
208 0 0 0
138 0 0 0
202 0 0 0
434 0 0 0
36 0 0 0
37 0 0 0
251 0 0 0
353 0 0 0
483 0 0 0
78 0 0 0
79 0 0 0
106 0 0 0
107 0 0 0
241 0 0 0
243 0 0 0
244 0 0 0
311 0 0 0
269 0 0 0
450 0 0 0
80 0 0 0
117 0 0 0
310 0 0 0
338 0 0 0
411 0 0 0
118 0 0 0
319 0 0 0
474 0 0 0
225 0 0 0
331 0 0 0
31 0 0 0
35 0 0 0
350 0 0 0
352 0 0 0
358 0 0 0
126 0 0 0
406 0 0 0
14 0 0 0
273 0 0 0
422 0 0 0
460 0 0 0
1 0 0 0
212 0 0 0
380 0 0 0
98 0 0 0
70 0 0 0
75 0 0 0
236 0 0 0
237 0 0 0
299 0 0 0
472 0 0 0
489 0 0 0
279 0 0 0
292 0 0 0
496 0 0 0
76 0 0 0
113 0 0 0
173 0 0 0
219 0 0 0
301 0 0 0
373 0 0 0
128 0 0 0
71 0 0 0
169 0 0 0
313 0 0 0
8 0 0 0
13 0 0 0
203 0 0 0
423 0 0 0
457 0 0 0
418 0 0 0
167 0 0 0
141 0 0 0
103 0 0 0
38 0 0 0
39 0 0 0
478 0 0 0
481 0 0 0
19 0 0 0
99 0 0 0
256 0 0 0
340 0 0 0
456 0 0 0
108 0 0 0
109 0 0 0
232 0 0 0
245 0 0 0
309 0 0 0
403 0 0 0
329 0 0 0
84 0 0 0
485 0 0 0
119 0 0 0
308 0 0 0
361 0 0 0
371 0 0 0
227 0 0 0
393 0 0 0
395 0 0 0
354 0 0 0
112 0 0 0
23 0 0 0
26 0 0 0
27 0 0 0
120 0 0 0
228 0 0 0
200 0 0 0
209 0 0 0
367 0 0 0
397 0 0 0
454 0 0 0
9 0 0 0
40 0 0 0
270 0 0 0
475 0 0 0
491 0 0 0
