LAMMPS data file via write_data, version 29 Aug 2024, timestep = 55, units = metal

500 atoms
3 atom types

-0.015178936826646667 17.61517893682663 xlo xhi
-0.005075860005431938 17.60507586000543 ylo yhi
-0.0034405612892477798 17.603440561289247 zlo zhi
1.078310796820528e-15 1.078110530486686e-15 1.078110530486686e-15 xy xz yz

Masses

1 58.71
2 55.845
3 51.9961

Atoms # atomic

15 1 1.7768780836123916 1.7554532851496176 3.519294860140229 0 0 0
71 1 1.7335609087691388 3.502422206028019 1.7246825207523109 0 0 0
144 1 3.486041733945426 0.01294255412372165 3.51886251068053 0 0 0
285 2 3.4822990216253618 3.4777864141072965 3.5256955822628973 0 0 0
301 2 3.451072655521172 1.7377279645565764 1.7298644935615284 0 0 0
445 3 0.0009777708493668037 1.739603606631307 1.7597668180071473 0 0 0
500 3 0.010399829224673031 0.00458675383305838 3.55074593936172 0 0 0
294 2 5.225692404135103 1.7431753857546632 3.527998833448659 0 0 0
337 3 7.021760182585903 3.496511736227764 3.5368949922196453 0 0 0
353 3 7.024915864048656 0.003925227766486489 3.5141601800703257 0 0 0
392 3 7.043738314341101 1.7781812538348476 1.7491867173386348 0 0 0
476 3 5.230622496607395 0.012086189117628397 1.717743838288692 0 0 0
495 3 5.2195623339117825 3.503381830009997 1.7563432645727541 0 0 0
36 1 8.8024520375909 1.7662942160573314 0.0003367328283655508 0 0 0
93 1 10.549154054310643 3.5094077883821027 0.01368156100595578 0 0 0
179 2 10.584497461437113 3.5312990129265613 3.511221967704415 0 0 0
273 2 8.828138713018513 3.5252806680705664 1.7572770694708755 0 0 0
303 2 8.820266110950817 1.7377741146441965 3.517462380230328 0 0 0
346 3 12.33763330762908 1.7589576214749252 3.5385562165986926 0 0 0
349 3 10.542011855698718 1.7342327018433399 1.7315537941528012 0 0 0
442 3 12.311709098968858 3.5226749010186595 1.7284830553983803 0 0 0
463 3 17.60486058890741 3.503107527543417 3.534184682306009 -1 0 0
9 1 14.079089962755827 3.530993381668718 3.5388922388486135 0 0 0
23 1 15.823307968205414 1.7540517410023495 3.5452354382289877 0 0 0
404 3 15.866722054667608 3.5325159457997923 1.7561092742440167 0 0 0
410 3 14.125401532118982 1.7485768561280752 1.7643095666094935 0 0 0
14 1 3.50857761277865 7.015688916787093 3.5195435484109927 0 0 0
73 1 -0.008061889609699094 5.295510135672956 1.7365282414050514 0 0 0
135 1 1.7315151084999445 7.044656049748073 1.7720218252429307 0 0 0
240 2 1.7171717992232538 5.257728803588584 0.0219291105579594 0 0 0
281 2 3.4861827615222367 5.282445471508123 1.7718251493412238 0 0 0
375 3 3.465967987319729 7.003787193890097 0.011489916385673909 0 0 0
461 3 -0.014086967558600767 7.047491358036124 0.008878294275359482 0 0 0
465 3 1.7387712931520891 5.25286060588041 3.489330845919663 0 0 0
374 3 3.4834851459506178 8.76174055555326 1.7567139841647033 0 0 0
257 2 -0.003903314962147953 8.788104765462712 1.7675188649267366 0 0 0
128 1 1.7301065590939082 8.774287068450933 3.5126241635655107 0 0 0
13 1 5.258891116184403 7.006372219323531 1.7700670423494738 0 0 0
361 3 5.273570741911068 8.779819527296196 3.515426755855613 0 0 0
286 2 7.0250449615601065 7.024091331824515 3.535384384399125 0 0 0
316 2 5.236051407041318 5.268266722852232 3.537773355912854 0 0 0
339 3 6.98270987651545 5.283318582751453 1.7453137751497136 0 0 0
332 3 7.036833710365141 8.785688304817553 1.766750098897526 0 0 0
331 3 8.779903261827911 7.052165036009266 1.7540799476536508 0 0 0
334 3 8.798318876033614 5.271296680610089 3.5174282201390987 0 0 0
190 2 12.354748110497745 8.783555663238829 -0.002200567567703784 0 0 0
161 1 12.324071000470138 8.781639212990111 3.5194434825492826 0 0 0
94 1 10.585310353113407 5.290248715119777 1.7584881098142402 0 0 0
155 1 10.571856084412197 7.083067921056764 0.006348179705394698 0 0 0
157 1 12.32870526666073 7.052949366602159 1.7682036843262343 0 0 0
180 2 12.3252870476748 5.277071524758544 3.53191639315582 0 0 0
338 3 8.85108236469092 5.2943047087981014 0.017142033723434806 0 0 0
432 3 10.567563616687297 7.036528242413671 3.5390597525646963 0 0 0
397 3 15.846000186475251 8.76502923856079 3.4925334417507243 0 0 0
242 2 14.073236894681726 8.763928757137773 1.764883245637198 0 0 0
252 2 17.613828599809015 7.020231075553013 3.497576889739014 -1 0 0
69 1 14.087056539167016 7.0491779303826565 0.0075734871929737345 0 0 0
70 1 15.856297981395612 7.023024491578584 1.768998700348923 0 0 0
238 2 15.848754191179625 5.292039450403954 3.5258877362899392 0 0 0
243 2 14.068139390869575 7.013377984062482 3.5220353608258543 0 0 0
405 3 14.096044015521024 5.304169992506656 1.7539501127615535 0 0 0
12 1 1.7454956332078118 3.4541914517129535 5.312611880689772 0 0 0
45 1 1.7706691937022039 1.7645956326593017 7.045386466757693 0 0 0
63 1 3.5315368267955245 3.508013270107215 7.051368412304752 0 0 0
189 2 1.7515254063047068 0.02716221920621421 5.277416593308552 0 0 0
293 2 3.5071638905205273 0.04632344751741868 7.044285896965275 0 0 0
296 2 3.497469678813039 1.7700416743666965 5.296857587325662 0 0 0
467 3 0.011369067092714793 3.5328618616088594 7.065651863915105 0 0 0
499 3 -0.0019946842410613064 0.019924972086151082 7.062163164331041 0 0 0
27 1 5.314197316550672 1.7822182414958698 7.013117911178638 0 0 0
67 1 5.266009354397982 3.4724852149762815 5.284868514655647 0 0 0
154 1 7.021088120241115 3.5246340260692572 7.050916533990661 0 0 0
302 2 7.054922693147674 1.7421226433688657 5.30728250576901 0 0 0
473 3 5.240762593849287 0.003862909098559077 5.304838477927554 0 0 0
306 2 8.782806236623442 1.758349547478021 7.04942071672704 0 0 0
11 1 5.3011014595422346 3.5384752200093383 8.783905481049601 0 0 0
305 2 7.056931396136581 1.7773620208504994 8.783457178319363 0 0 0
343 3 8.796011491671063 -0.0009266629300685222 8.788118296447642 0 0 0
470 3 5.28271087971241 0.007505004192327179 8.768843667219032 0 0 0
97 1 12.342273140171425 3.5280364128686132 5.2709811286758645 0 0 0
184 2 12.356828204862959 1.7621612879603439 7.046242764891418 0 0 0
335 3 8.831372361774692 3.5032167727940777 5.295203110695298 0 0 0
347 3 10.586782506298983 1.7360622902286595 5.274687376424818 0 0 0
440 3 10.583263870997905 3.517499204416711 7.053111165682351 0 0 0
86 1 12.35155401380382 0.031651960358434664 8.79877165873353 0 0 0
345 3 10.60289522364641 -0.004813699570033648 7.052183058405722 0 0 0
181 2 17.610248668075272 1.748309656182008 5.295501046739587 -1 0 0
7 1 14.049057194116804 3.5217189473276944 7.030188607962748 0 0 0
18 1 14.08397607895772 1.7285110920095392 5.2850362588031015 0 0 0
225 2 14.063560176687272 -0.00403810322455691 7.034358221120491 0 0 0
394 3 15.81035414895506 3.5069366467133145 5.290899573417742 0 0 0
408 3 15.818128352772007 1.7644845329175372 7.06266618422951 0 0 0
478 3 -0.0030053522821813974 8.798593002566683 5.279276911044156 0 0 0
228 2 1.769780508779181 5.250498183899873 7.08798951611184 0 0 0
311 2 3.487554973890722 7.012414662988254 7.074963172820172 0 0 0
479 3 1.7552160007674162 7.013602770092954 5.282894156468889 0 0 0
480 3 0.00034680543574692503 7.027342931280232 7.059300998727033 0 0 0
494 3 3.499006094618922 5.19519571700106 5.3039281875532485 0 0 0
172 1 1.7533462702333606 7.042913714242212 8.796602400982165 0 0 0
330 3 7.0697972708166565 8.795805249201274 5.315993277595582 0 0 0
90 1 8.795094316820279 8.786320651939482 7.0504240555965385 0 0 0
371 3 5.246457852087236 7.038295042804232 5.305912039257879 0 0 0
327 3 7.010566714623141 5.273135642562037 5.315606045180802 0 0 0
325 2 7.06427030045398 7.019939677108474 7.06114911206877 0 0 0
1 1 5.258499644932491 5.249655627112948 7.047531858645659 0 0 0
80 1 7.041252899230558 8.7828776085638 8.792847789617923 0 0 0
277 2 7.057982314396569 5.266176485345512 8.788454568317048 0 0 0
314 2 8.795335314682102 7.043051384145802 8.798538542887286 0 0 0
369 3 5.289262684141765 7.011947120294734 8.791026492741155 0 0 0
193 2 12.313574822634148 8.753677315176029 7.044504661360854 0 0 0
438 3 12.3413787914751 5.302578317040955 7.046988636140759 0 0 0
191 2 12.314447593287838 7.03261263019367 5.285735832843566 0 0 0
152 1 8.801532955866008 5.2864527338868665 7.035009405591254 0 0 0
150 1 10.529351955806243 7.0501938794875665 7.0073374209010515 0 0 0
96 1 10.572107779513434 5.274837596003532 5.2758055588587265 0 0 0
84 1 8.820295657710739 7.0426176111863565 5.311235795746785 0 0 0
164 1 12.325689074773056 7.060624439153855 8.77961897401995 0 0 0
68 1 14.108243599774815 5.280534924032445 8.777543035251968 0 0 0
76 1 14.100723642029863 7.031133038735726 7.030461266576196 0 0 0
398 3 14.080583368915034 8.762729258254288 5.278817020679556 0 0 0
396 3 15.865690649281586 8.773698565502901 7.0885780161708905 0 0 0
74 1 15.834590915367098 7.00462522746555 5.268321346063598 0 0 0
59 1 15.820492749408366 5.302192131984601 7.0430761073979955 0 0 0
10 1 14.088038361496292 5.277942543034536 5.27351056568627 0 0 0
464 3 17.606748352747413 5.2648723606160805 5.300516169090499 -1 0 0
37 1 15.852877381097846 7.013971777405999 8.796621661829313 0 0 0
46 1 -0.0035180838155808945 1.7628579887017841 8.838715128029074 0 0 0
49 1 1.7200312955762525 1.7515201644867329 10.575223354381318 0 0 0
55 1 1.7363430725823086 0.00295730297949957 12.30640433033682 0 0 0
148 1 1.7056541680360027 3.512165263611515 12.324499399792604 0 0 0
149 1 -0.010313223062701488 3.4933265520374857 10.565784547176564 0 0 0
229 2 1.747166152454953 3.5070628806255955 8.81349093349155 0 0 0
250 2 1.7427020240959037 0.033422141274963166 8.830221973560162 0 0 0
262 2 -0.013447726624579975 1.7297252464967932 12.306557394228994 0 0 0
469 3 3.5010088775986135 1.756884931680663 12.31572586759234 0 0 0
471 3 3.5276754095592424 1.7818580495988559 8.810719897960047 0 0 0
493 3 3.5324443355922472 3.5302044337723064 10.587288956286933 0 0 0
114 1 7.050582643547013 3.5501722993647844 10.537579262334889 0 0 0
300 2 8.79601326736327 3.523199054152804 8.805810111982302 0 0 0
307 2 7.072878283057331 1.7440103779851939 12.330847810270617 0 0 0
309 2 8.784327764617537 1.7788656166513959 10.563164138119864 0 0 0
333 3 8.787358428158369 3.5253642376035144 12.311306544952593 0 0 0
466 3 5.348033083888307 1.7299088945766794 10.554965036614982 0 0 0
487 3 5.3468217474799316 3.5329136925412654 12.331727436061332 0 0 0
308 2 8.810007948769847 0.012203275753802315 12.312158765350453 0 0 0
85 1 10.561684014289508 1.7798074317531314 8.830992004795869 0 0 0
87 1 10.567325838164262 1.760025619165351 12.30327346257647 0 0 0
88 1 12.338563108943191 0.003397334316415635 12.319986855439462 0 0 0
99 1 12.326198080733892 3.4891996031436885 8.801994046515562 0 0 0
101 1 10.554123723748248 3.506904631305611 10.567678045208597 0 0 0
151 1 12.30477679438103 3.5073019011388165 12.334772256244538 0 0 0
208 2 12.32058368366185 1.7591958290066738 10.559189807813103 0 0 0
261 2 17.60510859132536 0.01187716969110628 10.573677403554166 -1 0 0
32 1 15.851162764803743 1.7271133771491762 10.553200284936736 0 0 0
226 2 14.07513377986527 1.7569501317128993 8.810015587764013 0 0 0
227 2 15.841308795271225 0.004592027609384999 8.820043221992774 0 0 0
400 3 15.884289607843733 3.5349539798496967 12.289217271150815 0 0 0
401 3 14.09497079814843 3.5478553885799378 10.546555798979492 0 0 0
402 3 15.857808124034271 3.542830604140921 8.807642886553372 0 0 0
407 3 14.071003710360012 1.7548478384470139 12.317157273216166 0 0 0
22 1 3.5060141249065517 5.3041005770135605 12.301598908203287 0 0 0
61 1 3.496018627847037 7.048836300936221 10.53735313621149 0 0 0
158 1 1.765128159366591 7.034815442142105 12.305310316621645 0 0 0
167 1 -0.010133006387272228 7.056883368167067 10.539807445045788 0 0 0
222 2 -0.011562175039966205 5.297109742450158 12.311080834792316 0 0 0
245 2 -0.005465065296097622 8.798132571283409 8.82797134575357 0 0 0
288 2 3.496748883155143 8.782447804007795 12.3154654008349 0 0 0
324 2 3.512686297729675 5.264273222554909 8.806625050127362 0 0 0
472 3 1.7210765015972564 5.275542649493299 10.556915626855368 0 0 0
17 1 5.289116945233603 5.278591848769271 10.548723221922721 0 0 0
98 1 8.795802198179926 5.288636850969828 10.56561987484531 0 0 0
268 2 7.0545245473029 5.322244215879437 12.307671878124006 0 0 0
322 2 7.06012823977643 7.025736195561979 10.551435380624667 0 0 0
329 3 7.043474236759565 8.749614047197914 12.334187724030146 0 0 0
368 3 5.242002688524079 7.025508865772914 12.322767981532785 0 0 0
122 1 8.81844999247496 8.779322153353474 10.545991070743572 0 0 0
123 1 8.828135945778907 7.045353339216065 12.296343069932949 0 0 0
165 1 10.546747301188452 7.060635723514097 10.576325095649636 0 0 0
182 2 10.556361112906968 5.288853713138367 12.308607530335957 0 0 0
428 3 12.317295776665771 5.252733868020804 10.566269994087168 0 0 0
430 3 12.318018000962082 7.059049976156513 12.315697343176668 0 0 0
431 3 10.581699206506315 8.774814866989082 8.830922692002039 0 0 0
439 3 10.549107141815115 5.305737225762123 8.838501651463075 0 0 0
26 1 17.610628177278805 5.289946602642529 8.828484188006785 -1 0 0
482 3 17.599420399589118 8.784579757340067 12.282647135391883 -1 0 0
62 1 14.082943098477568 5.26147875982067 12.353980389933266 0 0 0
64 1 15.885942524550357 5.296607441888922 10.555073310946634 0 0 0
77 1 14.088719479041393 8.77480548202204 8.811059687147496 0 0 0
236 2 15.842836373609162 8.793065682630694 10.5338178570307 0 0 0
395 3 14.091977393340875 7.003142964640396 10.526955638038315 0 0 0
403 3 15.831561081253696 7.011622897166221 12.322653202561499 0 0 0
38 1 1.7059103901055634 1.7426697332837757 14.070068731748231 0 0 0
246 2 1.72213219106754 0.001958315036468452 15.80761256422035 0 0 0
274 2 3.478237600714432 0.010826722220525182 14.076036196079816 0 0 0
377 3 3.4933751842030785 3.5288560761926417 14.035797762517046 0 0 0
462 3 3.5193639756260193 1.7654450684764371 15.821435458109827 0 0 0
475 3 1.7327864993698636 3.5336699365827524 15.823978001413778 0 0 0
34 1 1.71278766313768 1.747098487467469 17.58016897173305 0 0 -1
131 1 3.467377805429081 0.010402781702695447 17.582858544173988 0 0 -1
496 3 3.4904199687767905 3.5197439926021747 17.585564673599777 0 0 -1
40 1 5.299478992001633 1.7760814792743242 14.088997720894655 0 0 0
127 1 7.031828633368093 1.8068318127620524 15.811514481986956 0 0 0
282 2 7.078263336628126 3.53665529430192 14.102604262204926 0 0 0
310 2 5.289914642952041 3.5108521362033707 15.826535118900084 0 0 0
498 3 5.264975996099754 -0.004029489915797736 15.838567049559952 0 0 0
95 1 8.78548571759031 3.5154955531065064 15.848269097836074 0 0 0
140 1 5.259872452918892 1.7633815003044178 17.58990367756722 0 0 -1
340 3 7.06461524112701 3.5104947231344563 17.57236674561375 0 0 -1
391 3 7.0213846804318045 0.0010807221668064056 17.582107167484864 0 0 -1
173 1 8.804329718918243 1.7690820283408748 14.07169015165444 0 0 0
175 2 12.335828218483353 1.7595242738620305 14.08503731947304 0 0 0
341 3 8.810678692326835 0.007609685276896008 15.886004945047294 0 0 0
434 3 12.334846812721672 3.523187550125327 15.865558157602836 0 0 0
436 3 10.569592875037051 3.5409429449570458 14.081986049260376 0 0 0
443 3 10.555721234694404 1.7617590058383181 15.873103810644766 0 0 0
444 3 10.592321635431285 0.01635118846831604 14.06524620655503 0 0 0
81 1 12.351774359211234 1.747759315818396 17.570811419581613 0 0 -1
406 3 15.881421155761455 0.008976425901867143 15.812781357565749 0 0 0
241 2 15.845508800586009 3.514450737409877 15.824294654368906 0 0 0
41 1 17.605634886805603 1.7756644728024131 15.799753575670588 -1 0 0
266 2 17.60409889353194 3.511834306939299 14.05842525347663 -1 0 0
33 1 14.090003723597501 0.016313862845010473 14.067947107804303 0 0 0
65 1 14.095210134370063 3.545774412861815 14.094711532214562 0 0 0
220 2 15.870232701821047 1.7578607237590467 14.048473437287905 0 0 0
230 2 14.100519420030013 1.7650276275800836 15.809638481199451 0 0 0
75 1 17.591295822730462 3.519522258588683 17.586253692608658 -1 0 -1
223 2 15.876103844006513 1.7669409250658674 17.57810716589041 0 0 -1
234 2 14.109471883900085 3.5258368699340763 17.575385894150504 0 0 -1
420 3 14.097512532393955 0.007775687355539206 17.597829461067036 0 0 -1
366 3 3.4953733826276006 8.765532288385343 15.824196217345333 0 0 0
484 3 1.7018135170478839 8.76625603001217 14.098376279580805 0 0 0
319 2 3.4770627538648275 5.309685856785884 15.803082214325032 0 0 0
259 2 1.7322874410905205 5.300087425400567 14.022910926737383 0 0 0
186 2 1.7322273761470086 7.018185407483997 15.820294611291294 0 0 0
52 1 3.498399110301844 7.026629284823487 14.063982320276308 0 0 0
255 2 1.7122497966485033 8.795062863220366 17.582927045928813 0 0 -1
119 1 7.033840253647445 8.784913581960634 15.808783165341783 0 0 0
48 1 5.2762158831056265 8.795039217730961 14.076355707410084 0 0 0
117 1 8.786753614062508 7.073850671822596 15.841052017022992 0 0 0
376 3 5.291495518762478 5.283928966822521 14.133744410384532 0 0 0
283 2 7.085418913432866 5.315404630210776 15.839184752659552 0 0 0
120 1 7.060414891100032 7.04087118004807 14.094377477833497 0 0 0
92 1 8.794280328061642 5.31825026902267 14.060906365739251 0 0 0
50 1 5.275706853951918 7.063919504718286 15.828781376912707 0 0 0
78 1 7.026971921886942 7.0600016269631025 17.580300110507363 0 0 -1
497 3 5.258955112581518 5.300219404603145 17.538162589970195 0 0 -1
284 2 8.772868485960432 8.789734615676766 17.557360466059947 0 0 -1
194 2 10.554545123132726 8.7912552750434 15.801801167246538 0 0 0
435 3 10.516860035478203 5.3187978153635305 15.797902657839217 0 0 0
429 3 12.328307667469689 7.083197832438269 15.80136649752282 0 0 0
188 2 12.344324441066387 5.287091199262325 14.06609760061319 0 0 0
169 1 10.536512555297355 7.058429198715062 14.037082131033385 0 0 0
115 1 8.837410534274206 8.789473564863684 14.090350466700102 0 0 0
441 3 12.311499220992832 5.317323292060272 17.578986011612237 0 0 -1
427 3 15.834475843999302 7.075454235079976 15.81767742724293 0 0 0
235 2 14.091547056760417 7.046647131342157 14.079137868779197 0 0 0
66 1 14.110743669476454 5.298086213056614 15.818775800060225 0 0 0
57 1 15.834768071824527 5.263411535950736 14.080220421467423 0 0 0
474 3 17.613486665406366 5.285362364358662 15.803224440503122 -1 0 0
153 1 17.599414051371042 7.029772348004915 14.051333455592639 -1 0 0
237 2 15.844873100218056 5.2920557693253345 17.581055531953353 0 0 -1
176 2 0.001590359413853765 10.553550544673854 3.506858676725369 0 0 0
362 3 3.5114236355172728 10.557237793241121 3.547763032802259 0 0 0
364 3 3.524018362736619 12.356014803019836 1.7717850286469117 0 0 0
486 3 1.7492152806858143 10.53645050466852 1.7172218412247373 0 0 0
489 3 1.7469239996742127 12.353053745324473 3.5448493225128375 0 0 0
72 1 5.267248707882972 12.347436613439458 3.558217804732046 0 0 0
104 1 8.778570851580213 12.310099346378035 3.5651823465660493 0 0 0
278 2 5.273181113125498 10.568268588312584 1.780287165306527 0 0 0
318 2 7.024016562887496 10.578772468493645 3.5491381228425087 0 0 0
328 3 7.0001908364303995 12.335144184574009 1.7942116591979549 0 0 0
336 3 8.768835130650862 10.563729599258558 1.769025766440946 0 0 0
360 3 8.783446470178122 12.318047188068734 0.007630144985694035 0 0 0
373 3 5.28193866382657 8.800363933279874 0.01651987084212527 0 0 0
326 2 8.803862680450274 8.810301984609604 3.563110100759348 0 0 0
247 2 10.53783608165487 10.551719081980908 3.541229123969603 0 0 0
256 2 10.54078851287976 12.303565533660878 1.7792795187087351 0 0 0
433 3 10.565169745260809 8.801122310835375 1.7544349224495097 0 0 0
446 3 12.344520835107273 10.546386643855893 1.7534854972800284 0 0 0
447 3 12.318656485695605 12.307452417528822 0.0031784153945775572 0 0 0
449 3 12.310290880968743 12.297012209806795 3.5467129891096483 0 0 0
485 3 17.609737255047197 12.32385838183275 1.7424519464676824 -1 0 0
224 2 14.103573132292343 10.555600631579624 3.5359533875242994 0 0 0
231 2 15.862870725896764 10.55597807493145 1.766287392940098 0 0 0
267 2 15.882680160239213 12.337656130014018 3.5361158353735442 0 0 0
399 3 15.841986753575393 8.81324038630738 0.018701981597588613 0 0 0
426 3 14.11883436247294 12.318753075970344 1.7825160685729156 0 0 0
106 1 1.7523795235719224 14.105443625003424 1.7355961375769007 0 0 0
108 1 0.018879708466500354 15.830269673686992 1.7456049352122993 0 0 0
287 2 1.7408451215759897 15.847565241095195 3.5141188339354263 0 0 0
298 2 3.50123721735932 14.096911445445237 3.527806145102979 0 0 0
21 1 1.7622568016744609 17.596963450462617 1.7489633477648097 0 -1 0
323 2 0.014159470863370794 14.113084629563875 3.51629820057805 0 0 0
382 3 3.4995359624333724 15.84540114634331 1.7638766073843613 0 0 0
16 1 5.282879469701074 15.844360347128731 3.5111490385416335 0 0 0
30 1 5.241703729127677 15.814160250900864 0.0032007521271026555 0 0 0
110 1 7.018758492184162 14.085094666077817 0.007361320730738408 0 0 0
111 1 8.759520954122529 14.07518429017741 1.7699746373563725 0 0 0
202 2 7.015840123948915 15.817365397423492 1.7409993916294906 0 0 0
203 2 7.044144491581728 14.090230734572101 3.5220173407743056 0 0 0
289 2 5.268529165840493 14.10433304444886 1.7675498242639107 0 0 0
393 3 8.830283711929933 17.55600010105471 1.7400205782629923 0 -1 0
348 3 12.310355018984245 17.569155815006386 1.7798387585087165 0 -1 0
82 1 10.551228035335035 17.573237317522935 3.543244590982362 0 -1 0
112 1 8.811128987904173 15.808714669622326 0.022955894571782473 0 0 0
126 1 12.307704381857725 15.863188432404119 0.02119318158386402 0 0 0
137 1 12.330824160318489 14.09680594914613 1.7549260884019464 0 0 0
141 1 12.307335227823945 15.85139415619659 3.5257903929518815 0 0 0
205 2 8.808639204324928 15.823604935921814 3.515712884743544 0 0 0
258 2 10.564484987810955 15.82370513751575 1.766144917978299 0 0 0
455 3 10.56215445694322 14.076001906658728 0.0251021692934901 0 0 0
456 3 10.548644869729403 14.051167800600162 3.4921497761424267 0 0 0
409 3 15.859433157125155 17.56729369195996 1.7568161074427122 0 -1 0
162 1 14.092391673651013 17.592849401794616 3.5625604903471086 0 -1 0
192 2 14.07996603194102 15.843274409711984 1.763062861205256 0 0 0
416 3 15.858749863741375 15.836742708260513 3.522786420519235 0 0 0
417 3 14.082420073344244 14.08538029354527 3.5465741503077157 0 0 0
418 3 15.880686903423811 14.106496568964202 1.7226953380955312 0 0 0
419 3 14.101650956198668 14.108846454155023 -0.00010759559867000489 0 0 0
39 1 3.4888589692072607 12.326866321815828 5.309366863552 0 0 0
170 1 1.7570184936078108 8.827188735411736 7.083436928833615 0 0 0
177 2 1.7254374057336117 10.574789050737197 5.308676735648135 0 0 0
199 2 -0.004347949605961398 12.346332965847123 5.289925536283117 0 0 0
215 2 1.744499157479865 12.296917708362674 7.031995425671742 0 0 0
218 2 -0.01329683647418806 10.565513596196938 7.0726417676001585 0 0 0
275 2 3.4955436710973973 10.577095874616186 7.064663124035996 0 0 0
372 3 3.4604798346210677 8.80138101138137 5.325119748431561 0 0 0
83 1 1.7477881664333512 10.557487748270601 8.797761621696438 0 0 0
312 2 3.496218578111649 8.813081987473488 8.791236756810287 0 0 0
105 1 8.770955229875316 12.330121156270696 7.045851739605704 0 0 0
270 2 5.281912462415666 12.308318944191107 7.073193091841492 0 0 0
299 2 7.060436012723953 10.564627037147494 7.090331447266053 0 0 0
313 2 5.2763698042624245 8.804334312524702 7.074420801471168 0 0 0
315 2 7.052524323757473 12.329689931556606 5.295790952073316 0 0 0
370 3 5.291318959278667 10.612085284026556 5.322254313176204 0 0 0
197 2 8.788891264625365 10.554889295257604 8.794907586775786 0 0 0
317 2 8.802148725533032 10.562276106109817 5.301728862757426 0 0 0
159 1 10.556633413075074 8.81035363175664 5.277123921159433 0 0 0
248 2 10.52713601126548 12.324752998748977 5.3148782619811445 0 0 0
448 3 12.31964472357266 10.537248007918302 5.28074326531707 0 0 0
450 3 10.554630420899759 10.554829882972651 7.072308234901063 0 0 0
451 3 12.337274055155286 12.309915442839978 7.03898478820412 0 0 0
129 1 10.542633742920417 12.322818820762185 8.786023659114049 0 0 0
53 1 14.119598643690738 12.354066125567114 5.283646033589156 0 0 0
54 1 15.865170161448848 12.339535078325486 7.045580089151798 0 0 0
424 3 14.088594976254672 10.536379943678726 7.0446737516114055 0 0 0
425 3 15.86679461495244 10.607815626410705 5.295260268157736 0 0 0
423 3 14.140932705990275 12.32681716579966 8.782476119906033 0 0 0
124 1 1.7418903903702776 14.101727547362403 5.2859933469916935 0 0 0
488 3 0.028903223806408175 14.080623511923175 7.052311428927047 0 0 0
483 3 1.774460860343743 15.869330878206792 7.064212421383262 0 0 0
385 3 3.523580090044273 14.064666144399899 7.061434473474323 0 0 0
383 3 3.495388224474421 15.87882731195814 5.255038138784809 0 0 0
113 1 -0.004627389101387554 15.84760430791246 5.271084133437653 0 0 0
133 1 7.038195954592322 17.604082013430705 7.044548733979008 0 -1 0
384 3 5.255813721677884 14.060104522960229 5.265543551274308 0 0 0
355 3 7.078662642497813 15.84487899601876 5.294459386534792 0 0 0
354 3 6.99926297599013 14.084840705225204 7.077437871432072 0 0 0
291 2 5.276985531162477 15.859004305188076 7.038161018508777 0 0 0
118 1 8.798151467971973 14.069442939622169 8.793524958981443 0 0 0
216 2 12.334254494079595 17.571116142893075 5.274125420935589 0 -1 0
457 3 12.311787439560428 14.109097745842705 5.3551347380187035 0 0 0
136 1 8.822197873716545 17.600958828783227 5.283354244989944 0 -1 0
207 2 8.829368857297284 15.83021615613004 7.042169896672015 0 0 0
145 1 12.307581773864188 15.873804548649547 7.06075606429401 0 0 0
142 1 10.528991952139796 14.077101817822264 7.07130196245585 0 0 0
139 1 10.552041026697864 15.823855132734332 5.268522282728081 0 0 0
204 2 8.813087075089577 14.071938377273279 5.298029208016397 0 0 0
143 1 10.556647414098233 15.819351024231777 8.7933844372767 0 0 0
458 3 12.346605839211458 14.096337511553646 8.760652662182874 0 0 0
3 1 14.098058315107176 15.887250952491517 8.766654912640234 0 0 0
20 1 15.842720351871879 17.602776987709913 5.291749771513455 0 -1 0
415 3 15.843062934008026 15.838565819587451 7.026786552075663 0 0 0
185 2 14.071741113570898 15.862475232030208 5.30121134393125 0 0 0
183 2 15.885114043814585 14.072197205949767 5.2858629313445435 0 0 0
8 1 14.126054082357928 14.10046587389334 7.026184577084002 0 0 0
58 1 3.4959186038443577 10.568944953784074 10.571338243451649 0 0 0
211 2 1.7410593321588184 12.317212187668101 10.578399754787897 0 0 0
269 2 3.5087776314599304 12.335347288999026 12.294452748539316 0 0 0
379 3 3.5036769615202035 12.308046081210824 8.841626058837955 0 0 0
491 3 1.7479843108948494 10.55650338075353 12.307867103113075 0 0 0
156 1 1.7601764100186839 8.80344492256729 10.52681305097146 0 0 0
5 1 5.265905717647889 10.57753265162158 12.31663575626692 0 0 0
6 1 5.26749637340143 12.322457892818903 10.554765292561958 0 0 0
103 1 7.021444378916981 12.320930721788706 8.804822525483774 0 0 0
107 1 7.020158254168017 12.311225561412197 12.304856696793529 0 0 0
272 2 5.2677802059823255 10.563130340385518 8.80233038656021 0 0 0
359 3 7.040254992318309 10.551564777576658 10.552291654376672 0 0 0
367 3 5.240092502722793 8.821166583886793 10.551645402782263 0 0 0
357 3 8.819897269399725 12.32028488980322 10.533506556677933 0 0 0
358 3 8.838060904476482 10.55314823809315 12.325309074837184 0 0 0
132 1 10.605853154757723 12.338195187941508 12.317505092608256 0 0 0
251 2 12.354559690297807 10.529712410156248 8.813487110817478 0 0 0
253 2 10.582334318764895 10.540036231320858 10.563157725212596 0 0 0
254 2 12.328811200870453 10.542504845531308 12.30526132180291 0 0 0
452 3 12.322228999156643 12.287182888888422 10.533098245657975 0 0 0
168 1 12.355418444630654 8.815512597501913 10.56143480073211 0 0 0
166 1 10.582967599005816 8.803268161139084 12.313266792879418 0 0 0
213 2 17.586353370860177 12.34321234266499 12.31586030791098 -1 0 0
214 2 17.607090449369714 10.543664876949595 10.549035954795675 -1 0 0
490 3 17.606893847323086 12.31215057025609 8.822807290812028 -1 0 0
35 1 14.117445232507626 10.53182211943766 10.553528440007993 0 0 0
42 1 15.838133756316802 10.575119564894221 12.3009009062637 0 0 0
56 1 15.848306651616001 10.55577011923225 8.817992850506391 0 0 0
260 2 15.858172208626787 12.310313027486465 10.568751320002313 0 0 0
422 3 14.092927556117433 12.33534132608998 12.304519467861226 0 0 0
239 2 14.097351490938918 8.80652075312562 12.301339322125258 0 0 0
163 1 1.7349318317892026 14.081717221568997 12.301006942038464 0 0 0
280 2 1.7362158464292312 14.074888537029704 8.828797168763158 0 0 0
292 2 3.5009969039797806 14.077299293737902 10.562774312536023 0 0 0
386 3 3.53657587667335 15.865191283546698 8.805042924878272 0 0 0
387 3 3.499085497314856 15.842980264037774 12.343210178797388 0 0 0
481 3 1.7303483386790812 15.846886370689628 10.54200431422314 0 0 0
28 1 3.4870010100601525 17.59812184299925 10.565719677795853 0 -1 0
121 1 7.071257587711605 15.870588533210537 12.291630065398872 0 0 0
196 2 7.051844087198595 14.070931683490116 10.55105705127359 0 0 0
206 2 7.0702980130117465 15.840562138483584 8.804678043452132 0 0 0
290 2 5.290268221402229 14.068236470280317 8.835858313906714 0 0 0
388 3 5.277052894805944 14.081925024894613 12.30235065067613 0 0 0
389 3 5.317928377908285 15.854502043077563 10.543363465437409 0 0 0
210 2 8.799986251557915 15.822882400030688 10.548150049719553 0 0 0
130 1 7.069753165005898 17.594436221368916 10.575367265749799 0 -1 0
468 3 5.2541447108148756 17.603968589577562 12.350691136107246 0 -1 0
344 3 8.834715428570995 14.07589777331546 12.322858527472107 0 0 0
263 2 10.577147802670055 14.086317661324824 10.529123209486677 0 0 0
264 2 10.579070677426536 15.839468584068294 12.312012586547047 0 0 0
265 2 12.328373056858283 14.110346356873768 12.30637463637311 0 0 0
459 3 12.32883657398907 15.892951996416405 10.540697389782515 0 0 0
378 3 10.559054283938607 17.595934088561194 10.571515703503 0 -1 0
89 1 17.590507842269158 15.868263666631268 8.82620685672506 -1 0 0
160 1 17.607813141094248 15.838570027033388 12.316820361077653 -1 0 0
276 2 17.586295088203332 14.096947568487193 10.575659970394645 -1 0 0
24 1 15.846738972974656 14.091222336302108 12.31900479537847 0 0 0
25 1 14.091251530797884 15.87826686670127 12.323433347025787 0 0 0
174 2 15.861898852205968 14.10672825524086 8.807201029856204 0 0 0
217 2 15.858723693953497 15.877417527356132 10.56857227847981 0 0 0
414 3 14.121525255741332 14.138435546135955 10.562741483707558 0 0 0
29 1 14.110296033723127 17.602702011988438 10.545781759798896 0 -1 0
31 1 15.854193177797727 17.59388996533364 12.302299520833637 0 -1 0
2 1 3.4796995226902947 12.317490382886968 15.820637265676652 0 0 0
102 1 1.7197900902196124 10.552234939292735 15.874967236302211 0 0 0
116 1 -0.011960987603529673 12.298257173025608 15.83967056160235 0 0 0
380 3 3.5148426636041203 10.548971619373152 14.070126803931641 0 0 0
492 3 1.7203586014617143 12.335777949596354 14.094639465890626 0 0 0
178 2 1.7358850034720925 12.339032170188526 17.5726232667557 0 0 -1
365 3 3.5218405026613047 10.581266658536519 17.568273066046626 0 0 -1
198 2 7.037961848109255 10.532091514280117 14.054480397817832 0 0 0
304 2 5.286035387099328 10.534101780651412 15.808893563300892 0 0 0
356 3 7.0737004146528 12.323642444243077 15.806543175648004 0 0 0
381 3 5.250385185330266 12.320352831071675 14.082733267294111 0 0 0
200 2 8.788769076324908 10.530362858812328 15.791276810513281 0 0 0
320 2 7.033732041583905 10.544854929151553 17.574090644403167 0 0 -1
363 3 5.272881233527971 12.324096400296416 17.56499593944674 0 0 -1
195 2 12.313237393963103 8.82422604763869 14.057734123851725 0 0 0
201 2 8.815594076285409 12.309766626574312 14.047721246630621 0 0 0
134 1 10.577627916808517 10.566149841355175 14.057976959242453 0 0 0
244 2 12.323150514889733 10.525826769260698 15.838241463098198 0 0 0
453 3 10.538041449920321 12.321867221917541 15.8121145274041 0 0 0
454 3 12.336485065530052 12.33297116197955 14.089971033838157 0 0 0
437 3 10.535745767452884 10.523852566154625 17.570862764206844 0 0 -1
187 2 17.59235108981779 8.818259597010462 15.825680278241986 -1 0 0
209 2 17.58155255098923 10.549662706356646 14.085180802218066 -1 0 0
43 1 14.080735639427145 8.81635134435439 15.846525814250954 0 0 0
219 2 15.877818133401474 12.3241476796836 14.078427337916605 0 0 0
249 2 15.878504479787054 10.555998719413964 15.82906507626849 0 0 0
411 3 14.108884473663727 12.319842118855805 15.862115002227176 0 0 0
421 3 14.10808392425508 10.53185512981792 14.079615755175745 0 0 0
47 1 15.834953644362981 8.806103954423547 14.062556903384868 0 0 0
100 1 17.597353062497174 10.559863817074119 17.592507584587903 -1 0 -1
51 1 15.886292679484798 12.299214009763292 17.587950455272306 0 0 -1
233 2 14.11483009469602 10.546238687361297 17.596501933640365 0 0 -1
44 1 0.015504807881689299 17.599326097925747 14.037677585779383 0 -1 0
138 1 1.7549673052151493 14.080680613291431 15.853934542138575 0 0 0
171 1 -0.0016906155838532673 15.816897116978684 15.830809011799982 0 0 0
271 2 -0.0148163471270959 14.094241733427227 14.088101715657466 0 0 0
279 2 1.7166531870570527 15.839100295671596 14.063617962450826 0 0 0
295 2 3.4873063763683154 14.07866695350832 14.089293890610357 0 0 0
390 3 3.4987449890917275 15.84903027389025 15.825785171050551 0 0 0
4 1 3.5019363165436634 14.07307096922591 17.58286509609402 0 0 -1
109 1 0.008812085024697597 14.074271980882925 17.56770526514466 0 0 -1
321 2 1.7482558353606077 15.83298434200542 17.593520537098236 0 0 -1
477 3 0.011581460075990263 17.580754069089707 17.571881744624424 0 -1 -1
342 3 7.021441161587145 17.60323191112795 14.076253718739222 0 -1 0
146 1 5.2655269371297875 15.830422649497413 14.085918943188176 0 0 0
297 2 5.24615417823793 14.084400232313314 15.842063151254559 0 0 0
351 3 7.043657163433946 15.790305496501665 15.873757796507206 0 0 0
352 3 7.034850252647699 14.094943292295339 14.053864190723363 0 0 0
91 1 12.334718515730684 17.602807550824316 15.840930397030826 0 -1 0
125 1 8.818170607706723 14.07698573577748 15.843979539691713 0 0 0
147 1 10.582431071907484 15.831700128624052 15.895026988878111 0 0 0
221 2 12.318608779627235 14.105636685377263 15.863545680076731 0 0 0
232 2 10.570189672334992 14.08963851291966 14.093188815277347 0 0 0
350 3 8.831223733586794 15.87046183191689 14.102159137150256 0 0 0
460 3 12.341121413753534 15.847036656840208 14.085528781211632 0 0 0
79 1 10.590887634709606 17.59037219727606 17.593065203257584 0 -1 -1
413 3 14.090641584656902 15.84457392503489 15.879382722807378 0 0 0
412 3 15.85627853284892 15.846838090576007 14.082511558934488 0 0 0
212 2 14.113724623140598 14.095338112970811 14.075669124495452 0 0 0
19 1 15.875041475769917 14.045862298975129 15.844672825367516 0 0 0
60 1 15.90860031201666 15.820166687559356 17.58835868123602 0 0 -1

Velocities

15 0 0 0
71 0 0 0
144 0 0 0
285 0 0 0
301 0 0 0
445 0 0 0
500 0 0 0
294 0 0 0
337 0 0 0
353 0 0 0
392 0 0 0
476 0 0 0
495 0 0 0
36 0 0 0
93 0 0 0
179 0 0 0
273 0 0 0
303 0 0 0
346 0 0 0
349 0 0 0
442 0 0 0
463 0 0 0
9 0 0 0
23 0 0 0
404 0 0 0
410 0 0 0
14 0 0 0
73 0 0 0
135 0 0 0
240 0 0 0
281 0 0 0
375 0 0 0
461 0 0 0
465 0 0 0
374 0 0 0
257 0 0 0
128 0 0 0
13 0 0 0
361 0 0 0
286 0 0 0
316 0 0 0
339 0 0 0
332 0 0 0
331 0 0 0
334 0 0 0
190 0 0 0
161 0 0 0
94 0 0 0
155 0 0 0
157 0 0 0
180 0 0 0
338 0 0 0
432 0 0 0
397 0 0 0
242 0 0 0
252 0 0 0
69 0 0 0
70 0 0 0
238 0 0 0
243 0 0 0
405 0 0 0
12 0 0 0
45 0 0 0
63 0 0 0
189 0 0 0
293 0 0 0
296 0 0 0
467 0 0 0
499 0 0 0
27 0 0 0
67 0 0 0
154 0 0 0
302 0 0 0
473 0 0 0
306 0 0 0
11 0 0 0
305 0 0 0
343 0 0 0
470 0 0 0
97 0 0 0
184 0 0 0
335 0 0 0
347 0 0 0
440 0 0 0
86 0 0 0
345 0 0 0
181 0 0 0
7 0 0 0
18 0 0 0
225 0 0 0
394 0 0 0
408 0 0 0
478 0 0 0
228 0 0 0
311 0 0 0
479 0 0 0
480 0 0 0
494 0 0 0
172 0 0 0
330 0 0 0
90 0 0 0
371 0 0 0
327 0 0 0
325 0 0 0
1 0 0 0
80 0 0 0
277 0 0 0
314 0 0 0
369 0 0 0
193 0 0 0
438 0 0 0
191 0 0 0
152 0 0 0
150 0 0 0
96 0 0 0
84 0 0 0
164 0 0 0
68 0 0 0
76 0 0 0
398 0 0 0
396 0 0 0
74 0 0 0
59 0 0 0
10 0 0 0
464 0 0 0
37 0 0 0
46 0 0 0
49 0 0 0
55 0 0 0
148 0 0 0
149 0 0 0
229 0 0 0
250 0 0 0
262 0 0 0
469 0 0 0
471 0 0 0
493 0 0 0
114 0 0 0
300 0 0 0
307 0 0 0
309 0 0 0
333 0 0 0
466 0 0 0
487 0 0 0
308 0 0 0
85 0 0 0
87 0 0 0
88 0 0 0
99 0 0 0
101 0 0 0
151 0 0 0
208 0 0 0
261 0 0 0
32 0 0 0
226 0 0 0
227 0 0 0
400 0 0 0
401 0 0 0
402 0 0 0
407 0 0 0
22 0 0 0
61 0 0 0
158 0 0 0
167 0 0 0
222 0 0 0
245 0 0 0
288 0 0 0
324 0 0 0
472 0 0 0
17 0 0 0
98 0 0 0
268 0 0 0
322 0 0 0
329 0 0 0
368 0 0 0
122 0 0 0
123 0 0 0
165 0 0 0
182 0 0 0
428 0 0 0
430 0 0 0
431 0 0 0
439 0 0 0
26 0 0 0
482 0 0 0
62 0 0 0
64 0 0 0
77 0 0 0
236 0 0 0
395 0 0 0
403 0 0 0
38 0 0 0
246 0 0 0
274 0 0 0
377 0 0 0
462 0 0 0
475 0 0 0
34 0 0 0
131 0 0 0
496 0 0 0
40 0 0 0
127 0 0 0
282 0 0 0
310 0 0 0
498 0 0 0
95 0 0 0
140 0 0 0
340 0 0 0
391 0 0 0
173 0 0 0
175 0 0 0
341 0 0 0
434 0 0 0
436 0 0 0
443 0 0 0
444 0 0 0
81 0 0 0
406 0 0 0
241 0 0 0
41 0 0 0
266 0 0 0
33 0 0 0
65 0 0 0
220 0 0 0
230 0 0 0
75 0 0 0
223 0 0 0
234 0 0 0
420 0 0 0
366 0 0 0
484 0 0 0
319 0 0 0
259 0 0 0
186 0 0 0
52 0 0 0
255 0 0 0
119 0 0 0
48 0 0 0
117 0 0 0
376 0 0 0
283 0 0 0
120 0 0 0
92 0 0 0
50 0 0 0
78 0 0 0
497 0 0 0
284 0 0 0
194 0 0 0
435 0 0 0
429 0 0 0
188 0 0 0
169 0 0 0
115 0 0 0
441 0 0 0
427 0 0 0
235 0 0 0
66 0 0 0
57 0 0 0
474 0 0 0
153 0 0 0
237 0 0 0
176 0 0 0
362 0 0 0
364 0 0 0
486 0 0 0
489 0 0 0
72 0 0 0
104 0 0 0
278 0 0 0
318 0 0 0
328 0 0 0
336 0 0 0
360 0 0 0
373 0 0 0
326 0 0 0
247 0 0 0
256 0 0 0
433 0 0 0
446 0 0 0
447 0 0 0
449 0 0 0
485 0 0 0
224 0 0 0
231 0 0 0
267 0 0 0
399 0 0 0
426 0 0 0
106 0 0 0
108 0 0 0
287 0 0 0
298 0 0 0
21 0 0 0
323 0 0 0
382 0 0 0
16 0 0 0
30 0 0 0
110 0 0 0
111 0 0 0
202 0 0 0
203 0 0 0
289 0 0 0
393 0 0 0
348 0 0 0
82 0 0 0
112 0 0 0
126 0 0 0
137 0 0 0
141 0 0 0
205 0 0 0
258 0 0 0
455 0 0 0
456 0 0 0
409 0 0 0
162 0 0 0
192 0 0 0
416 0 0 0
417 0 0 0
418 0 0 0
419 0 0 0
39 0 0 0
170 0 0 0
177 0 0 0
199 0 0 0
215 0 0 0
218 0 0 0
275 0 0 0
372 0 0 0
83 0 0 0
312 0 0 0
105 0 0 0
270 0 0 0
299 0 0 0
313 0 0 0
315 0 0 0
370 0 0 0
197 0 0 0
317 0 0 0
159 0 0 0
248 0 0 0
448 0 0 0
450 0 0 0
451 0 0 0
129 0 0 0
53 0 0 0
54 0 0 0
424 0 0 0
425 0 0 0
423 0 0 0
124 0 0 0
488 0 0 0
483 0 0 0
385 0 0 0
383 0 0 0
113 0 0 0
133 0 0 0
384 0 0 0
355 0 0 0
354 0 0 0
291 0 0 0
118 0 0 0
216 0 0 0
457 0 0 0
136 0 0 0
207 0 0 0
145 0 0 0
142 0 0 0
139 0 0 0
204 0 0 0
143 0 0 0
458 0 0 0
3 0 0 0
20 0 0 0
415 0 0 0
185 0 0 0
183 0 0 0
8 0 0 0
58 0 0 0
211 0 0 0
269 0 0 0
379 0 0 0
491 0 0 0
156 0 0 0
5 0 0 0
6 0 0 0
103 0 0 0
107 0 0 0
272 0 0 0
359 0 0 0
367 0 0 0
357 0 0 0
358 0 0 0
132 0 0 0
251 0 0 0
253 0 0 0
254 0 0 0
452 0 0 0
168 0 0 0
166 0 0 0
213 0 0 0
214 0 0 0
490 0 0 0
35 0 0 0
42 0 0 0
56 0 0 0
260 0 0 0
422 0 0 0
239 0 0 0
163 0 0 0
280 0 0 0
292 0 0 0
386 0 0 0
387 0 0 0
481 0 0 0
28 0 0 0
121 0 0 0
196 0 0 0
206 0 0 0
290 0 0 0
388 0 0 0
389 0 0 0
210 0 0 0
130 0 0 0
468 0 0 0
344 0 0 0
263 0 0 0
264 0 0 0
265 0 0 0
459 0 0 0
378 0 0 0
89 0 0 0
160 0 0 0
276 0 0 0
24 0 0 0
25 0 0 0
174 0 0 0
217 0 0 0
414 0 0 0
29 0 0 0
31 0 0 0
2 0 0 0
102 0 0 0
116 0 0 0
380 0 0 0
492 0 0 0
178 0 0 0
365 0 0 0
198 0 0 0
304 0 0 0
356 0 0 0
381 0 0 0
200 0 0 0
320 0 0 0
363 0 0 0
195 0 0 0
201 0 0 0
134 0 0 0
244 0 0 0
453 0 0 0
454 0 0 0
437 0 0 0
187 0 0 0
209 0 0 0
43 0 0 0
219 0 0 0
249 0 0 0
411 0 0 0
421 0 0 0
47 0 0 0
100 0 0 0
51 0 0 0
233 0 0 0
44 0 0 0
138 0 0 0
171 0 0 0
271 0 0 0
279 0 0 0
295 0 0 0
390 0 0 0
4 0 0 0
109 0 0 0
321 0 0 0
477 0 0 0
342 0 0 0
146 0 0 0
297 0 0 0
351 0 0 0
352 0 0 0
91 0 0 0
125 0 0 0
147 0 0 0
221 0 0 0
232 0 0 0
350 0 0 0
460 0 0 0
79 0 0 0
413 0 0 0
412 0 0 0
212 0 0 0
19 0 0 0
60 0 0 0
