LAMMPS data file via write_data, version 29 Aug 2024, timestep = 27, units = metal

500 atoms
3 atom types

0 17.576421828412784 xlo xhi
0 17.576421828412784 ylo yhi
0 17.576421828412784 zlo zhi

Masses

1 56.3914
2 58.71
3 58.71

Atoms # atomic

1 2 0.002933538814527241 0.002933538814526637 6.354891725958023e-16 0 0 0
2 3 1.7547086440267525 1.7547086440267523 1.5832155755094044e-16 0 0 0
3 1 1.7544380650537363 0.0032041177875414325 1.7511503491396223 0 0 0
4 1 0.003204117787542649 1.7544380650537374 1.751150349139622 0 0 0
5 1 3.51228950846552 0.0031829649887607134 5.287065902348349e-16 0 0 0
8 1 3.511807906065939 1.757396821491683 1.7542213471355146 0 0 0
21 1 0.0031829649887620912 3.51228950846552 4.1532806945341533e-16 0 0 0
23 1 1.7573968214916822 3.5118079060659384 1.754221347135515 0 0 0
25 1 3.511589614697783 3.5115896146977823 1.0637322505432118e-15 0 0 0
51 1 0.00025770923718558634 0.00025770923718327525 3.515075328324633 0 0 0
52 1 1.7573844736040942 1.7573844736040944 3.5150753283246337 0 0 0
53 1 1.7576125910024558 2.9591838822137776e-05 5.273116346828775 0 0 0
54 1 2.9591838822875904e-05 1.7576125910024563 5.273116346828775 0 0 0
55 1 3.514442308896772 0.00024685258974543444 3.5143669214454047 0 0 0
58 1 3.5151166469903483 1.7575699964749365 5.272863976939041 0 0 0
71 1 0.000246852589746679 3.5144423088967724 3.514366921445405 0 0 0
73 1 1.757569996474936 3.5151166469903474 5.27286397693904 0 0 0
75 1 3.5149284276831994 3.5149284276831985 3.514864719221994 0 0 0
6 1 5.273159723032178 1.7576298821937966 1.2257154773000448e-15 0 0 0
7 1 5.2727415346010975 0.00024389422075020927 1.7573736925070345 0 0 0
9 1 7.030747812452936 3.0808229876765166e-05 3.802493029945019e-16 0 0 0
12 1 7.0307024866048415 1.7576523354865556 1.757620322646747 0 0 0
27 1 5.272494567994243 3.514922091960747 1.757342240170681 0 0 0
29 1 7.030670007711025 3.5152529474365246 7.385691299677926e-16 0 0 0
56 1 5.27219902498102 1.7575737548030304 3.5145673954383523 0 0 0
57 1 5.272536759851551 7.049689579651047e-05 5.272518667138491 0 0 0
59 1 7.030422618604217 6.953389993112836e-05 3.5151431879137123 0 0 0
62 1 7.030242484676187 1.757607659250344 5.272614726795759 0 0 0
77 1 5.272722759990346 3.515157127153019 5.2727067608037546 0 0 0
79 1 7.030359952005226 3.5151750624761213 3.5151170027131036 0 0 0
60 1 8.788208873504168 1.7576432259828487 3.515278616134279 0 0 0
61 1 8.788134510756267 3.3987619062956285e-05 5.272847977467084 0 0 0
81 1 8.788135791371564 3.515212394043492 5.272831806093311 0 0 0
10 1 8.788288165296677 1.7576606429014374 3.932631878458172e-16 0 0 0
14 1 12.303316198801125 1.7576113746114024 3.7977741761373797e-16 0 0 0
16 1 10.545823221402708 1.7576482221662588 1.7576646847906026 0 0 0
31 1 8.788241676146047 3.515297529910151 1.7576501862845493 0 0 0
33 1 10.545856040878856 3.5152909717264493 4.036305756684076e-16 0 0 0
35 1 12.303608046677684 3.5151615452348084 1.7575798083052705 0 0 0
64 1 12.303641392649846 1.7575726489413483 3.515143187913712 0 0 0
65 1 12.303821526577877 3.452359093428838e-05 5.272614726795758 0 0 0
66 1 10.545929500497795 1.7576081952222158 5.272847977467084 0 0 0
83 1 10.54592013169104 3.515243343683131 3.5152487484118806 0 0 0
85 1 12.303647223105868 3.5151917445712044 5.272790147074169 0 0 0
17 1 14.060904288221884 1.2300647482521218e-05 1.3478627428055744e-15 0 0 0
18 1 15.821774502788541 1.7544592178525187 5.990322659922112e-16 0 0 0
19 1 15.822256105188123 0.00024536134959509824 1.7542213471355148 0 0 0
20 1 14.061322476652967 1.7573982886205297 1.757373692507034 0 0 0
37 1 14.061606900736358 3.5146802037165683 5.479835483343614e-16 0 0 0
39 1 15.819332982550701 3.514731028703361 1.7571354391951182 0 0 0
67 1 14.061864986273042 6.842803824937718e-05 3.5145673954383523 0 0 0
68 1 15.81962170235729 1.7573953302515337 3.514366921445405 0 0 0
69 1 15.818947364263714 7.218636634154018e-05 5.27286397693904 0 0 0
70 1 14.061527251402513 1.7575716859454835 5.272518667138491 0 0 0
87 1 14.061403256148113 3.5150982177712096 3.5150311329612993 0 0 0
89 1 15.818986229837934 3.515077781416128 5.272620231247489 0 0 0
22 1 1.7576298821937961 5.27315972303218 2.0161419936261835e-16 0 0 0
24 1 0.00024389422075004398 5.272741534601098 1.7573736925070338 0 0 0
28 1 3.514922091960748 5.272494567994244 1.7573422401706809 0 0 0
41 1 3.08082298787865e-05 7.030747812452936 1.0447716180942062e-19 0 0 0
42 1 1.7576523354865552 7.030702486604842 1.7576203226467464 0 0 0
43 1 3.5152529474365246 7.0306700077110245 5.459941917263952e-16 0 0 0
72 1 1.7575737548030297 5.272199024981021 3.5145673954383523 0 0 0
74 1 7.049689579660349e-05 5.272536759851552 5.272518667138491 0 0 0
78 1 3.51515712715302 5.272722759990346 5.272706760803754 0 0 0
91 1 6.953389993137385e-05 7.030422618604217 3.515143187913712 0 0 0
92 1 1.7576076592503427 7.030242484676187 5.272614726795758 0 0 0
93 1 3.515175062476122 7.030359952005226 3.5151170027131036 0 0 0
301 1 1.7576432259828476 8.788208873504168 3.5152786161342786 0 0 0
302 1 3.398761906457299e-05 8.788134510756269 5.272847977467084 0 0 0
304 1 3.515212394043493 8.788135791371564 5.272831806093311 0 0 0
26 1 5.272118858860797 5.2721188588607975 5.859870570989868e-16 0 0 0
32 1 7.030353208090038 5.272739559314735 1.757544975571055 0 0 0
44 1 5.272739559314733 7.030353208090038 1.7575449755710557 0 0 0
45 1 7.030242561445033 7.030242561445032 4.476295351433559e-16 0 0 0
76 1 5.272746754897157 5.272746754897159 3.5151210528916956 0 0 0
82 1 7.030469046902796 5.2728324676842755 5.272823268189701 0 0 0
94 1 5.272832467684275 7.030469046902796 5.272823268189701 0 0 0
95 1 7.030471267090198 7.030471267090199 3.5151954111766064 0 0 0
30 1 8.788209750929783 5.272901879379106 7.921258007217599e-16 0 0 0
46 1 8.788137487246244 7.0304742612981 1.7575819170586342 0 0 0
80 1 8.788145558551221 5.272850237479192 3.5152102786111055 0 0 0
96 1 8.788182513577164 7.030511423015456 5.272863979002472 0 0 0
253 1 5.272901879379106 8.788209750929784 4.232843107191315e-16 0 0 0
256 1 7.030474261298101 8.788137487246244 1.7575819170586346 0 0 0
303 1 5.272850237479191 8.788145558551223 3.515210278611106 0 0 0
306 1 7.030511423015457 8.788182513577164 5.272863979002472 0 0 0
255 1 8.788126427086699 8.7881264270867 8.305143289970014e-16 0 0 0
305 1 8.788182409781282 8.788182409781282 3.515215225459839 0 0 0
34 1 12.303743497848462 5.272671027003108 9.043789486104626e-16 0 0 0
36 1 10.54592866736258 5.272870172839914 1.7576112347423214 0 0 0
47 1 10.54593996426581 7.030466643074609 1.7684355471747154e-16 0 0 0
48 1 12.303634617064754 7.030429394189308 1.757577617778159 0 0 0
84 1 12.30363569532713 5.272812009958807 3.515186579131512 0 0 0
86 1 10.54588543035864 5.272849859584429 5.272856599223769 0 0 0
97 1 10.54588402786542 7.030503189797936 3.5152129302896182 0 0 0
98 1 12.303565110230116 7.030498901023948 5.272854545067403 0 0 0
257 1 12.303597368179453 8.788124046988253 2.0420536171841303e-19 0 0 0
258 1 10.545887943929499 8.788176067324565 1.7575846067675502 0 0 0
307 1 12.303560821456127 8.788179983388645 3.5152129302896173 0 0 0
308 1 10.545873623026505 8.788190388227559 5.2728704111850035 0 0 0
100 1 15.818872266682858 7.030416788148195 5.27279014707417 0 0 0
99 1 14.061252001295257 7.03042831592693 3.515186579131511 0 0 0
90 1 14.061269455292733 5.272794555961331 5.272781176721696 0 0 0
88 1 15.818965793482853 5.272660755105952 3.515031132961299 0 0 0
38 1 15.819383807537493 5.272457110517705 4.009026200390104e-16 0 0 0
40 1 14.061416532372249 5.272647478881815 1.7575031140706594 0 0 0
49 1 14.061392984250954 7.0303205134055995 3.7996592315003513e-16 0 0 0
50 1 15.818902466019253 7.030455964576375 1.757579808305271 0 0 0
259 1 15.818773039527613 8.788207970375208 4.569930526490185e-16 0 0 0
260 1 14.061193838414148 8.788135343891485 1.7576112347423214 0 0 0
309 1 15.81882066757093 8.788143879563025 3.51524874841188 0 0 0
310 1 14.061214151669633 8.788178580895424 5.27285659922377 0 0 0
102 1 1.757646805464502 1.7576468054645025 7.030668428361617 0 0 0
108 1 3.515300901647458 1.7576416877940162 8.788210914206392 0 0 0
123 1 1.7576416877940158 3.515300901647457 8.788210914206392 0 0 0
125 1 3.51524367231337 3.5152436723133698 7.030523542068291 0 0 0
152 1 1.7576468054645025 1.7576468054645027 10.545753400051167 0 0 0
163 1 3.5152436723133698 3.5152436723133698 10.545898286344494 0 0 0
106 1 5.27284500625312 1.7576069314571028 7.030483121904253 0 0 0
107 1 5.272907039730572 1.1131195067133707e-06 8.788210914206392 0 0 0
109 1 7.030411355782692 3.455925840786277e-05 7.030401809028661 0 0 0
112 1 7.030509856688147 1.7576097820422898 8.788210914206392 0 0 0
127 1 5.272889064769842 3.5152435551648513 8.788210914206392 0 0 0
129 1 7.030473079215197 3.515209205543828 7.030463838555042 0 0 0
154 1 5.27284500625312 1.7576069314571021 10.545938706508531 0 0 0
155 1 7.030411355782692 3.455925840845097e-05 10.546020019384123 0 0 0
165 1 7.030473079215197 3.5152092055438278 10.54595798985774 0 0 0
110 1 8.7881221694151 1.7576101730985318 7.030448607199125 0 0 0
111 1 8.7881720610481 3.193745903912454e-05 8.788210914206392 0 0 0
131 1 8.788175883076605 3.5152143845930666 8.788210914206392 0 0 0
156 1 8.7881221694151 1.7576101730985325 10.54597322121366 0 0 0
113 1 10.545941841838962 3.200974274691935e-05 7.030448607199125 0 0 0
114 1 12.30365265547137 1.7576076235828717 7.030401809028662 0 0 0
115 1 12.303554154565914 3.240079899072781e-05 8.788210914206392 0 0 0
116 1 10.545891950205965 1.7576102453822389 8.788210914206392 0 0 0
133 1 10.5458862588096 3.51521184794582 7.030505630803316 0 0 0
135 1 12.303572582742277 3.51521252337088 8.788210914206392 0 0 0
157 1 10.545941841838962 3.200974274702232e-05 10.54597322121366 0 0 0
158 1 12.303652655471371 1.757607623582871 10.546020019384123 0 0 0
167 1 10.5458862588096 3.515211847945819 10.545916197609468 0 0 0
104 1 17.576407128753367 1.7576568825006964 8.788210914206392 -1 0 0
121 1 17.57641772483261 3.51527461550671 7.030589261963746 -1 0 0
161 1 17.57641772483261 3.5152746155067103 10.545832566449038 -1 0 0
117 1 14.061219005000943 3.52513841760166e-05 7.030483121904252 0 0 0
118 1 15.818789395747352 1.757646286421454 7.030589261963746 0 0 0
119 1 15.818763109606605 4.950472626543832e-07 8.788210914206392 0 0 0
120 1 14.061156971523491 1.757641069721773 8.788210914206392 0 0 0
137 1 14.061249399826256 3.5152043913106237 7.030419982547536 0 0 0
139 1 15.818779214672006 3.515284796582056 8.788210914206392 0 0 0
159 1 14.061219005000941 3.525138417706788e-05 10.545938706508531 0 0 0
160 1 15.818789395747352 1.7576462864214526 10.54583256644904 0 0 0
169 1 14.061249399826256 3.515204391310624 10.546001845865248 0 0 0
122 1 1.7576069314571026 5.27284500625312 7.030483121904252 0 0 0
124 1 1.113119506781101e-06 5.272907039730573 8.788210914206392 0 0 0
128 1 3.5152435551648518 5.272889064769842 8.788210914206392 0 0 0
141 1 3.455925840822755e-05 7.030411355782692 7.030401809028661 0 0 0
142 1 1.7576097820422891 7.030509856688148 8.788210914206392 0 0 0
143 1 3.515209205543828 7.030473079215197 7.030463838555043 0 0 0
162 1 1.757606931457102 5.27284500625312 10.54593870650853 0 0 0
171 1 3.455925840793522e-05 7.030411355782692 10.546020019384121 0 0 0
172 1 3.5152092055438278 7.030473079215197 10.545957989857742 0 0 0
351 1 1.7576101730985318 8.7881221694151 7.030448607199125 0 0 0
352 1 3.193745903953909e-05 8.7881720610481 8.788210914206392 0 0 0
354 1 3.515214384593067 8.788175883076605 8.788210914206392 0 0 0
401 1 1.7576101730985316 8.7881221694151 10.54597322121366 0 0 0
126 1 5.27284382986956 5.272843829869561 7.030471773146713 0 0 0
132 1 7.030510861699771 5.272855270445673 8.788210914206392 0 0 0
144 1 5.272855270445672 7.030510861699771 8.788210914206392 0 0 0
145 1 7.030511847727949 7.030511847727948 7.0305239147675005 0 0 0
164 1 5.27284382986956 5.272843829869561 10.54595005526607 0 0 0
173 1 7.030511847727949 7.030511847727948 10.545897913645284 0 0 0
130 1 8.78818236347584 5.272854354214874 7.030522592818038 0 0 0
146 1 8.788191734403142 7.030519441977814 8.788210914206392 0 0 0
166 1 8.78818236347584 5.272854354214873 10.545899235594746 0 0 0
353 1 5.272854354214873 8.78818236347584 7.030522592818039 0 0 0
356 1 7.030519441977815 8.788191734403144 8.788210914206392 0 0 0
402 1 5.272854354214873 8.78818236347584 10.545899235594746 0 0 0
355 1 8.788192328648112 8.788192328648112 7.0305371621226005 0 0 0
403 1 8.788192328648112 8.788192328648112 10.545884666290183 0 0 0
134 1 12.303567105718844 5.272845976534584 7.03050971578862 0 0 0
136 1 10.54587609385847 5.272855947445382 8.788210914206392 0 0 0
147 1 10.545873893818511 7.030517050617838 7.030533407350071 0 0 0
148 1 12.303549680410983 7.030514330843078 8.788210914206392 0 0 0
168 1 12.303567105718844 5.272845976534585 10.545912112624164 0 0 0
174 1 10.54587389381851 7.030517050617839 10.545888421062713 0 0 0
357 1 12.303546960636224 8.788190117435555 7.030533407350071 0 0 0
358 1 10.545871070000501 8.788192941253563 8.788210914206392 0 0 0
404 1 12.303546960636224 8.788190117435555 10.545888421062713 0 0 0
175 1 14.061218034719479 7.030496905535218 10.545912112624162 0 0 0
170 1 15.818859619943439 5.272814611427808 10.546001845865247 0 0 0
150 1 15.818851487883181 7.030491428511785 8.788210914206392 0 0 0
149 1 14.061218034719479 7.030496905535218 7.03050971578862 0 0 0
140 1 14.061216528662989 5.272847482591074 8.788210914206392 0 0 0
138 1 15.818859619943439 5.272814611427808 7.030419982547537 0 0 0
359 1 15.818852163308241 8.788177752444463 7.030505630803315 0 0 0
360 1 14.061208063808682 8.788187917395597 8.788210914206392 0 0 0
405 1 15.818852163308243 8.788177752444463 10.545916197609468 0 0 0
176 1 1.7576125910024565 2.9591838823066652e-05 12.303305481584008 0 0 0
177 1 2.9591838823019137e-05 1.7576125910024556 12.303305481584008 0 0 0
179 1 3.515116646990348 1.7575699964749372 12.303557851473744 0 0 0
186 1 1.7575699964749365 3.5151166469903474 12.303557851473744 0 0 0
201 1 0.0002577092371847386 0.0002577092371840768 14.061346500088149 0 0 0
202 1 1.7573844736040944 1.7573844736040944 14.06134650008815 0 0 0
203 1 1.7544380650537366 0.003204117787542552 15.825271479273162 0 0 0
204 1 0.0032041177875419898 1.7544380650537368 15.825271479273162 0 0 0
205 1 3.514442308896772 0.0002468525897464198 14.062054906967381 0 0 0
208 1 3.5118079060659384 1.7573968214916835 15.82220048127727 0 0 0
221 1 0.00024685258974673055 3.5144423088967724 14.062054906967381 0 0 0
223 1 1.757396821491683 3.5118079060659393 15.82220048127727 0 0 0
225 1 3.5149284276831994 3.5149284276831994 14.061557109190788 0 0 0
178 1 5.272536759851551 7.049689579711548e-05 12.303903161274294 0 0 0
181 1 7.030242484676186 1.7576076592503436 12.303807101617025 0 0 0
188 1 5.272722759990346 3.5151571271530195 12.30371506760903 0 0 0
206 1 5.27219902498102 1.7575737548030308 14.061854432974432 0 0 0
207 1 5.272741534601098 0.0002438942207484509 15.81904813590575 0 0 0
209 1 7.030422618604217 6.953389993066884e-05 14.061278640499072 0 0 0
212 1 7.030702486604842 1.7576523354865559 15.818801505766038 0 0 0
227 1 5.272494567994243 3.514922091960747 15.819079588242102 0 0 0
229 1 7.030359952005226 3.5151750624761213 14.06130482569968 0 0 0
180 1 8.788134510756269 3.398761906308669e-05 12.303573850945698 0 0 0
190 1 8.788135791371564 3.515212394043492 12.303590022319472 0 0 0
210 1 8.788208873504168 1.757643225982848 14.061143212278505 0 0 0
182 1 12.303821526577877 3.4523590935234185e-05 12.303807101617025 0 0 0
183 1 10.545929500497795 1.757608195222215 12.3035738509457 0 0 0
192 1 12.30364722310587 3.515191744571205 12.303631681338613 0 0 0
214 1 12.303641392649846 1.7575726489413477 14.061278640499072 0 0 0
216 1 10.545823221402706 1.7576482221662588 15.818757143622182 0 0 0
231 1 8.788241676146047 3.515297529910151 15.818771642128235 0 0 0
233 1 10.545920131691037 3.5152433436831316 14.061173080000904 0 0 0
235 1 12.303608046677686 3.515161545234808 15.818842020107514 0 0 0
184 1 15.818947364263716 7.218636634346833e-05 12.303557851473744 0 0 0
185 1 14.061527251402513 1.7575716859454835 12.303903161274294 0 0 0
194 1 15.818986229837932 3.515077781416128 12.303801597165295 0 0 0
217 1 14.061864986273042 6.842803824904314e-05 14.061854432974432 0 0 0
218 1 15.819621702357292 1.7573953302515322 14.062054906967381 0 0 0
219 1 15.822256105188124 0.0002453613495956565 15.822200481277267 0 0 0
220 1 14.061322476652967 1.7573982886205293 15.819048135905751 0 0 0
237 1 14.061403256148111 3.51509821777121 14.061390695451484 0 0 0
239 1 15.819332982550701 3.5147310287033613 15.819286389217668 0 0 0
187 1 7.049689579678062e-05 5.272536759851552 12.303903161274294 0 0 0
189 1 3.5151571271530204 5.272722759990346 12.30371506760903 0 0 0
196 1 1.7576076592503431 7.030242484676186 12.303807101617025 0 0 0
222 1 1.7575737548030292 5.27219902498102 14.061854432974432 0 0 0
224 1 0.00024389422075032173 5.272741534601098 15.81904813590575 0 0 0
228 1 3.514922091960747 5.272494567994244 15.819079588242102 0 0 0
241 1 6.953389993201899e-05 7.0304226186042165 14.061278640499072 0 0 0
242 1 1.7576523354865552 7.030702486604842 15.818801505766038 0 0 0
243 1 3.5151750624761218 7.030359952005226 14.06130482569968 0 0 0
426 1 3.398761906347594e-05 8.788134510756267 12.3035738509457 0 0 0
427 1 3.5152123940434925 8.788135791371564 12.303590022319472 0 0 0
451 1 1.7576432259828483 8.78820887350417 14.061143212278505 0 0 0
191 1 7.030469046902796 5.272832467684275 12.303598560223083 0 0 0
197 1 5.272832467684275 7.0304690469027955 12.303598560223081 0 0 0
226 1 5.272746754897158 5.272746754897159 14.061300775521088 0 0 0
232 1 7.030353208090038 5.272739559314733 15.81887685284173 0 0 0
244 1 5.272739559314733 7.0303532080900375 15.81887685284173 0 0 0
245 1 7.030471267090199 7.030471267090198 14.061226417236178 0 0 0
198 1 8.788182513577164 7.030511423015456 12.303557849410312 0 0 0
230 1 8.788145558551221 5.272850237479192 14.061211549801678 0 0 0
246 1 8.788137487246244 7.0304742612981 15.818839911354148 0 0 0
428 1 7.030511423015456 8.788182513577164 12.303557849410312 0 0 0
453 1 5.27285023747919 8.788145558551221 14.061211549801678 0 0 0
456 1 7.030474261298101 8.788137487246244 15.818839911354148 0 0 0
455 1 8.78818240978128 8.78818240978128 14.061206602952945 0 0 0
193 1 10.54588543035864 5.272849859584429 12.303565229189013 0 0 0
199 1 12.303565110230116 7.030498901023948 12.303567283345382 0 0 0
234 1 12.30363569532713 5.272812009958807 14.061235249281271 0 0 0
236 1 10.545928667362578 5.272870172839914 15.818810593670461 0 0 0
247 1 10.54588402786542 7.030503189797936 14.061208898123166 0 0 0
248 1 12.303634617064754 7.030429394189309 15.818844210634625 0 0 0
429 1 10.545873623026505 8.788190388227557 12.30355141722778 0 0 0
457 1 12.303560821456127 8.788179983388645 14.061208898123166 0 0 0
458 1 10.545887943929499 8.788176067324564 15.818837221645234 0 0 0
250 1 15.818902466019253 7.030455964576375 15.818842020107514 0 0 0
249 1 14.061252001295255 7.0304283159269305 14.061235249281273 0 0 0
240 1 14.061416532372249 5.272647478881815 15.818918714342125 0 0 0
195 1 14.061269455292733 5.27279455596133 12.303640651691088 0 0 0
200 1 15.818872266682858 7.030416788148195 12.303631681338615 0 0 0
238 1 15.818965793482853 5.272660755105952 14.061390695451484 0 0 0
430 1 14.061214151669635 8.788178580895424 12.303565229189015 0 0 0
459 1 15.81882066757093 8.788143879563025 14.061173080000904 0 0 0
460 1 14.061193838414148 8.788135343891485 15.818810593670461 0 0 0
251 1 1.757660642901437 8.788288165296677 2.6743904561021807e-16 0 0 0
254 1 3.515297529910151 8.788241676146047 1.7576501862845493 0 0 0
262 1 1.7576113746114022 12.303316198801125 1.5671574271413094e-19 0 0 0
263 1 1.7576482221662586 10.545823221402706 1.7576646847906017 0 0 0
265 1 3.5152909717264498 10.545856040878855 4.563715346032955e-16 0 0 0
268 1 3.515161545234809 12.303608046677686 1.7575798083052705 0 0 0
312 1 1.757572648941348 12.303641392649846 3.5151431879137123 0 0 0
313 1 1.7576081952222153 10.545929500497795 5.272847977467084 0 0 0
314 1 3.452359093548966e-05 12.303821526577877 5.272614726795759 0 0 0
315 1 3.515243343683131 10.54592013169104 3.5152487484118806 0 0 0
318 1 3.5151917445712053 12.303647223105868 5.27279014707417 0 0 0
266 1 5.272671027003108 12.303743497848464 5.699234380537382e-16 0 0 0
267 1 5.272870172839914 10.545928667362578 1.7576112347423212 0 0 0
269 1 7.03046664307461 10.54593996426581 3.163879613957057e-16 0 0 0
272 1 7.030429394189309 12.303634617064754 1.7575776177781581 0 0 0
316 1 5.272812009958807 12.30363569532713 3.5151865791315116 0 0 0
317 1 5.272849859584428 10.545885430358638 5.27285659922377 0 0 0
319 1 7.030503189797938 10.54588402786542 3.5152129302896173 0 0 0
322 1 7.030498901023948 12.303565110230116 5.2728545450674025 0 0 0
270 1 8.788124046988253 12.303597368179455 6.286438315691843e-19 0 0 0
271 1 8.788176067324564 10.545887943929499 1.7575846067675505 0 0 0
320 1 8.788179983388645 12.303560821456129 3.515212930289618 0 0 0
321 1 8.788190388227557 10.545873623026505 5.272870411185003 0 0 0
273 1 10.545937584167364 10.545937584167362 7.480917568558473e-17 0 0 0
274 1 12.30382144980903 12.30382144980903 7.249156417604632e-16 0 0 0
275 1 12.303589749955961 10.545926524007818 1.757581917058635 0 0 0
276 1 10.54592652400782 12.303589749955963 1.7575819170586338 0 0 0
323 1 10.545881601472782 10.545881601472782 3.5152152254598397 0 0 0
324 1 12.303592744163865 12.303592744163865 3.515195411176607 0 0 0
325 1 12.303552588238606 10.545881497676898 5.272863979002472 0 0 0
326 1 10.5458814976769 12.303552588238606 5.272863979002471 0 0 0
252 1 17.576415789087807 8.788240789851356 1.757664684790602 -1 0 0
261 1 17.576403368352626 10.545775845957387 6.471145610155592e-17 -1 0 0
264 1 17.576411675767506 12.30336152464922 1.7576203226467473 -1 0 0
311 1 17.576420785271214 10.545855137749895 3.515278616134279 -1 0 0
277 1 14.061162131874957 10.545854260324278 1.0911646357142776e-15 0 0 0
278 1 15.818811063817538 12.303394003543039 4.755802155205077e-16 0 0 0
279 1 15.81876648134391 10.545822335108015 1.7576501862845497 0 0 0
280 1 14.06132445193933 12.303710803164023 1.757544975571056 0 0 0
327 1 14.061213773774872 10.54591845270284 3.515210278611105 0 0 0
328 1 15.818888948777941 12.303704059248838 3.515117002713104 0 0 0
329 1 15.81885161721057 10.545928219882498 5.272831806093312 0 0 0
330 1 14.061231543569788 12.303594964351268 5.272823268189701 0 0 0
281 1 1.230064748232155e-05 14.060904288221884 4.896003157933605e-16 0 0 0
282 1 1.754459217852518 15.821774502788543 1.3895101660340487e-15 0 0 0
283 1 1.7573982886205295 14.061322476652965 1.7573736925070336 0 0 0
284 1 0.0002453613495968323 15.822256105188123 1.7542213471355155 0 0 0
285 1 3.5146802037165683 14.061606900736356 4.815136619684483e-16 0 0 0
288 1 3.5147310287033604 15.819332982550701 1.7571354391951182 0 0 0
331 1 6.842803824893095e-05 14.061864986273042 3.5145673954383523 0 0 0
332 1 1.7573953302515326 15.819621702357292 3.5143669214454047 0 0 0
333 1 1.7575716859454822 14.061527251402511 5.272518667138491 0 0 0
334 1 7.218636634337683e-05 15.818947364263716 5.272863976939039 0 0 0
335 1 3.5150982177712105 14.061403256148111 3.515031132961299 0 0 0
338 1 3.515077781416129 15.818986229837934 5.272620231247489 0 0 0
341 1 8.788178580895424 14.061214151669633 5.27285659922377 0 0 0
340 1 8.788143879563025 15.81882066757093 3.51524874841188 0 0 0
286 1 5.272457110517706 15.819383807537495 5.842754493114703e-16 0 0 0
287 1 5.272647478881815 14.061416532372247 1.7575031140706583 0 0 0
289 1 7.0303205134056 14.061392984250954 2.4932582318203816e-16 0 0 0
292 1 7.030455964576376 15.818902466019255 1.7575798083052705 0 0 0
336 1 5.272660755105951 15.818965793482853 3.5150311329612993 0 0 0
337 1 5.2727945559613305 14.061269455292733 5.272781176721696 0 0 0
339 1 7.03042831592693 14.061252001295255 3.5151865791315116 0 0 0
342 1 7.030416788148195 15.818872266682858 5.272790147074169 0 0 0
290 1 8.788207970375208 15.818773039527613 3.452543938272597e-16 0 0 0
291 1 8.788135343891485 14.061193838414148 1.757611234742321 0 0 0
346 1 10.5459282198825 15.818851617210571 5.272831806093311 0 0 0
345 1 12.303594964351268 14.061231543569788 5.272823268189701 0 0 0
344 1 12.303704059248838 15.818888948777941 3.515117002713105 0 0 0
343 1 10.545918452702841 14.061213773774872 3.515210278611106 0 0 0
296 1 10.545822335108015 15.81876648134391 1.7576501862845497 0 0 0
295 1 12.303710803164023 14.06132445193933 1.7575449755710555 0 0 0
294 1 12.303394003543039 15.818811063817538 5.89432760181979e-16 0 0 0
293 1 10.54585426032428 14.061162131874957 4.1157195747945115e-16 0 0 0
11 1 8.788240789851356 17.576415789087804 1.757664684790602 0 -1 0
13 1 10.545775845957385 17.576403368352626 7.176192337560759e-16 0 -1 0
15 1 12.30336152464922 17.576411675767506 1.757620322646748 0 -1 0
63 1 10.545855137749895 17.576420785271214 3.5152786161342795 0 -1 0
350 1 14.061341251263718 15.818906884101043 5.2727067608037546 0 0 0
349 1 15.818906884101043 14.061341251263716 5.2727067608037546 0 0 0
348 1 15.819135583570864 15.819135583570864 3.514864719221994 0 0 0
347 1 14.061317256356903 14.061317256356903 3.515121052891696 0 0 0
300 1 14.06156944325982 15.819141919293317 1.757342240170682 0 0 0
299 1 15.819141919293317 14.06156944325982 1.7573422401706817 0 0 0
298 1 15.82247439655628 15.82247439655628 7.03878589938741e-16 0 0 0
297 1 14.061945152393266 14.061945152393266 4.969648719789132e-16 0 0 0
361 1 3.200974274697804e-05 10.545941841838962 7.030448607199125 0 0 0
362 1 1.7576076235828708 12.30365265547137 7.030401809028662 0 0 0
363 1 1.7576102453822384 10.545891950205965 8.788210914206392 0 0 0
364 1 3.240079898983755e-05 12.303554154565914 8.788210914206392 0 0 0
365 1 3.51521184794582 10.545886258809599 7.030505630803316 0 0 0
368 1 3.5152125233708804 12.303572582742278 8.788210914206392 0 0 0
406 1 3.2009742747711816e-05 10.545941841838962 10.54597322121366 0 0 0
407 1 1.7576076235828708 12.303652655471371 10.546020019384123 0 0 0
408 1 3.515211847945821 10.5458862588096 10.545916197609468 0 0 0
366 1 5.272845976534585 12.303567105718844 7.03050971578862 0 0 0
367 1 5.2728559474453816 10.545876093858467 8.788210914206392 0 0 0
369 1 7.0305170506178385 10.54587389381851 7.030533407350071 0 0 0
372 1 7.030514330843079 12.303549680410985 8.788210914206392 0 0 0
409 1 5.272845976534585 12.303567105718844 10.545912112624164 0 0 0
410 1 7.0305170506178385 10.54587389381851 10.545888421062712 0 0 0
370 1 8.788190117435553 12.303546960636226 7.03053340735007 0 0 0
371 1 8.78819294125356 10.545871070000501 8.788210914206392 0 0 0
411 1 8.788190117435555 12.303546960636226 10.545888421062712 0 0 0
373 1 10.545871682605952 10.54587168260595 7.0305371621226005 0 0 0
374 1 12.303552163526115 12.303552163526115 7.0305239147675005 0 0 0
375 1 12.303544569276248 10.54587227685092 8.788210914206392 0 0 0
376 1 10.54587227685092 12.303544569276248 8.788210914206392 0 0 0
412 1 10.545871682605952 10.54587168260595 10.545884666290183 0 0 0
413 1 12.303552163526113 12.303552163526115 10.545897913645286 0 0 0
377 1 14.06120965703919 10.545881647778224 7.030522592818038 0 0 0
378 1 15.818854805710235 12.303590932038867 7.0304638385550415 0 0 0
379 1 15.818849626660997 10.545888128177458 8.788210914206392 0 0 0
380 1 14.061208740808391 12.303553149554292 8.788210914206392 0 0 0
414 1 14.06120965703919 10.545881647778222 10.545899235594746 0 0 0
415 1 15.818854805710235 12.303590932038867 10.545957989857742 0 0 0
381 1 3.5251384176797984e-05 14.061219005000941 7.030483121904252 0 0 0
382 1 1.7576462864214533 15.818789395747352 7.030589261963746 0 0 0
383 1 1.7576410697217733 14.061156971523491 8.788210914206392 0 0 0
384 1 4.95047262800046e-07 15.818763109606605 8.788210914206392 0 0 0
385 1 3.515204391310624 14.061249399826256 7.030419982547537 0 0 0
388 1 3.5152847965820557 15.818779214672006 8.788210914206392 0 0 0
416 1 3.525138417653859e-05 14.061219005000943 10.545938706508531 0 0 0
417 1 1.7576462864214535 15.818789395747352 10.54583256644904 0 0 0
418 1 3.5152043913106237 14.061249399826254 10.546001845865248 0 0 0
103 1 1.757656882500696 17.576407128753367 8.788210914206392 0 -1 0
105 1 3.5152746155067107 17.57641772483261 7.030589261963746 0 -1 0
153 1 3.5152746155067103 17.57641772483261 10.545832566449038 0 -1 0
421 1 8.788177752444463 15.818852163308243 10.545916197609468 0 0 0
391 1 8.788187917395595 14.06120806380868 8.788210914206392 0 0 0
390 1 8.788177752444463 15.818852163308243 7.030505630803316 0 0 0
386 1 5.272814611427807 15.818859619943439 7.030419982547536 0 0 0
387 1 5.272847482591073 14.061216528662989 8.788210914206392 0 0 0
389 1 7.030496905535218 14.061218034719477 7.03050971578862 0 0 0
392 1 7.030491428511786 15.818851487883183 8.788210914206392 0 0 0
419 1 5.272814611427808 15.818859619943439 10.546001845865248 0 0 0
420 1 7.030496905535218 14.061218034719477 10.545912112624164 0 0 0
423 1 12.303590932038867 15.818854805710235 10.545957989857742 0 0 0
422 1 10.545881647778222 14.06120965703919 10.545899235594746 0 0 0
396 1 10.545888128177458 15.818849626660997 8.788210914206392 0 0 0
395 1 12.303553149554292 14.061208740808391 8.788210914206392 0 0 0
394 1 12.303590932038867 15.818854805710235 7.030463838555042 0 0 0
393 1 10.545881647778222 14.06120965703919 7.030522592818038 0 0 0
425 1 15.818820338940693 15.818820338940691 10.545898286344494 0 0 0
424 1 14.0612201813845 14.061220181384503 10.54595005526607 0 0 0
400 1 14.061174946484222 15.818820456089211 8.788210914206392 0 0 0
399 1 15.818820456089211 14.061174946484222 8.788210914206392 0 0 0
398 1 15.818820338940691 15.818820338940691 7.030523542068292 0 0 0
397 1 14.061220181384503 14.0612201813845 7.030471773146714 0 0 0
101 1 17.57641720578956 17.57641720578956 7.030668428361618 -1 -1 0
151 1 17.576417205789557 17.57641720578956 10.545753400051167 -1 -1 0
431 1 1.7576081952222151 10.545929500497795 12.3035738509457 0 0 0
432 1 3.452359093562323e-05 12.303821526577877 12.303807101617027 0 0 0
434 1 3.515191744571205 12.303647223105868 12.303631681338613 0 0 0
454 1 3.515297529910151 8.788241676146049 15.818771642128233 0 0 0
462 1 1.7575726489413475 12.303641392649846 14.061278640499072 0 0 0
463 1 1.7576482221662582 10.545823221402706 15.818757143622182 0 0 0
465 1 3.5152433436831316 10.545920131691037 14.061173080000904 0 0 0
468 1 3.515161545234809 12.303608046677686 15.818842020107514 0 0 0
433 1 5.272849859584428 10.545885430358638 12.303565229189013 0 0 0
436 1 7.0304989010239485 12.303565110230116 12.303567283345382 0 0 0
466 1 5.272812009958808 12.303635695327133 14.061235249281271 0 0 0
467 1 5.272870172839914 10.545928667362578 15.818810593670461 0 0 0
469 1 7.030503189797937 10.54588402786542 14.061208898123166 0 0 0
472 1 7.030429394189309 12.303634617064754 15.818844210634627 0 0 0
435 1 8.788190388227557 10.545873623026505 12.30355141722778 0 0 0
470 1 8.788179983388645 12.303560821456127 14.061208898123166 0 0 0
471 1 8.788176067324564 10.545887943929499 15.818837221645234 0 0 0
437 1 12.303552588238606 10.545881497676898 12.303557849410312 0 0 0
438 1 10.5458814976769 12.303552588238606 12.303557849410312 0 0 0
473 1 10.545881601472782 10.545881601472782 14.061206602952945 0 0 0
474 1 12.303592744163863 12.303592744163863 14.061226417236178 0 0 0
475 1 12.303589749955961 10.545926524007818 15.818839911354148 0 0 0
476 1 10.54592652400782 12.303589749955961 15.81883991135415 0 0 0
452 1 17.576415789087807 8.788240789851356 15.818757143622182 -1 0 0
461 1 17.576420785271214 10.545855137749895 14.061143212278505 -1 0 0
464 1 17.576411675767506 12.303361524649223 15.818801505766038 -1 0 0
439 1 15.81885161721057 10.545928219882498 12.303590022319474 0 0 0
440 1 14.061231543569788 12.303594964351266 12.303598560223083 0 0 0
477 1 14.061213773774872 10.545918452702841 14.061211549801678 0 0 0
478 1 15.818888948777941 12.303704059248838 14.06130482569968 0 0 0
479 1 15.818766481343912 10.545822335108015 15.818771642128235 0 0 0
480 1 14.06132445193933 12.303710803164025 15.81887685284173 0 0 0
441 1 1.7575716859454837 14.061527251402513 12.303903161274294 0 0 0
442 1 7.218636634218172e-05 15.818947364263716 12.303557851473744 0 0 0
444 1 3.515077781416128 15.818986229837932 12.303801597165295 0 0 0
481 1 6.84280382488188e-05 14.061864986273042 14.061854432974432 0 0 0
482 1 1.757395330251534 15.819621702357292 14.06205490696738 0 0 0
483 1 1.75739828862053 14.061322476652965 15.81904813590575 0 0 0
484 1 0.00024536134959677664 15.822256105188123 15.82220048127727 0 0 0
485 1 3.51509821777121 14.061403256148111 14.061390695451484 0 0 0
488 1 3.5147310287033617 15.819332982550701 15.819286389217666 0 0 0
491 1 8.788135343891485 14.061193838414148 15.818810593670463 0 0 0
490 1 8.788143879563025 15.81882066757093 14.061173080000904 0 0 0
443 1 5.2727945559613305 14.061269455292733 12.303640651691088 0 0 0
446 1 7.030416788148196 15.818872266682856 12.303631681338613 0 0 0
486 1 5.272660755105951 15.818965793482853 14.061390695451486 0 0 0
487 1 5.272647478881815 14.061416532372249 15.818918714342123 0 0 0
489 1 7.03042831592693 14.061252001295255 14.061235249281271 0 0 0
492 1 7.030455964576375 15.818902466019255 15.818842020107512 0 0 0
445 1 8.788178580895424 14.061214151669633 12.303565229189015 0 0 0
496 1 10.545822335108015 15.81876648134391 15.818771642128233 0 0 0
495 1 12.303710803164025 14.06132445193933 15.81887685284173 0 0 0
494 1 12.303704059248838 15.818888948777941 14.061304825699679 0 0 0
493 1 10.545918452702841 14.061213773774872 14.061211549801678 0 0 0
448 1 10.545928219882498 15.81885161721057 12.303590022319474 0 0 0
447 1 12.303594964351266 14.061231543569788 12.303598560223083 0 0 0
211 1 8.788240789851356 17.576415789087807 15.818757143622182 0 -1 0
213 1 10.545855137749895 17.576420785271214 14.061143212278505 0 -1 0
215 1 12.303361524649223 17.57641167576751 15.818801505766038 0 -1 0
500 1 14.061569443259822 15.819141919293315 15.819079588242102 0 0 0
499 1 15.819141919293315 14.06156944325982 15.819079588242102 0 0 0
498 1 15.819135583570864 15.819135583570864 14.061557109190788 0 0 0
497 1 14.061317256356904 14.061317256356904 14.061300775521088 0 0 0
450 1 14.061341251263718 15.818906884101043 12.30371506760903 0 0 0
449 1 15.818906884101043 14.061341251263718 12.30371506760903 0 0 0

Velocities

1 -1.4831087688652353e-09 -1.4831054823665197e-09 5.1943100794553e-16
2 1.4831077425471076e-09 1.483106853071397e-09 8.322143263053011e-16
3 1.6359609047915604e-09 -1.635956292955935e-09 9.597319258813656e-10
4 -1.6359601497066181e-09 1.6359567138326833e-09 9.597331196516635e-10
5 6.475869558990685e-10 -2.09939005826651e-09 -7.416553252726055e-16
8 -1.3791313350534832e-09 2.9335604380880136e-10 5.362333972735625e-10
21 -2.0993950846855815e-09 6.475873384873116e-10 -1.0091544038409946e-16
23 2.933609002588631e-10 -1.3791274440026806e-09 5.362315897092144e-10
25 7.480784585505382e-10 7.480830577786902e-10 -4.930700127452654e-16
51 -1.5381702623420952e-10 -1.5381014795651697e-10 -6.606721004980844e-09
52 1.5381543295749192e-10 1.5381316354732376e-10 -6.606721316334658e-09
53 -6.722780272249323e-10 6.722829833602956e-10 2.226877519156237e-09
54 6.722803162245683e-10 -6.722818928799193e-10 2.226875886700584e-09
55 6.790862690824208e-10 -1.3720336537826078e-09 -4.5217723839088036e-09
58 -1.399285781677316e-09 -2.5358756816947573e-09 1.0629638986017095e-09
71 -1.372037123380433e-09 6.79087385607885e-10 -4.5217730519112806e-09
73 -2.535873031328802e-09 -1.399282778255724e-09 1.06296599883011e-09
75 2.0705916971432558e-10 2.070623272580499e-10 -1.908540518194172e-09
6 1.6017910049438317e-09 -1.6033264090308458e-09 -2.409504544229763e-15
7 1.4449035712292537e-09 -1.3193899898770492e-09 -1.4438911257948157e-09
9 3.2534114151137556e-09 9.587901669639548e-10 -3.04527181864959e-16
12 2.8302261226995975e-09 -2.0992378691146273e-09 -1.8787580844670346e-09
27 -2.7351149579358194e-09 1.18933983682197e-10 2.54198494046859e-10
29 1.8093694225164261e-10 -2.0771821047861943e-09 2.1028996915333668e-16
56 -5.040888468756186e-10 -2.0258013683453045e-09 5.735746932150132e-10
57 2.954646263764333e-10 3.479812023113887e-10 -8.630665102233898e-10
59 -5.828271436204518e-10 4.6457739867955175e-10 1.3782902483220135e-09
62 -7.011311970960248e-10 -3.481176448054621e-09 1.2366584109814338e-09
77 -1.1414373953874857e-09 -1.583370562455206e-09 1.8639093666130754e-10
79 2.1608013358954285e-09 -2.2353273034345816e-09 2.2026905683899263e-09
60 -1.2019523292935272e-09 -1.8380927700160466e-09 2.199450163952864e-09
61 3.0524068252224595e-10 1.6911829497757861e-09 1.3866911358045807e-09
81 -6.124361852773372e-10 -5.105218906909487e-10 2.093162081095573e-09
10 2.6999008337878555e-11 1.1208751667350622e-09 2.6095545642853014e-15
14 -3.2534095804608463e-09 -9.587888232103697e-10 1.1560928038533894e-15
16 -1.515804972283891e-09 -1.8066756468936974e-09 9.039313705207079e-10
31 -7.083238400386194e-10 -2.821077658383627e-09 -1.902593394342492e-09
33 -9.391487300201254e-10 8.13231345652014e-10 -4.576812031537687e-16
35 -1.8575110012711579e-09 -8.013188929052372e-10 -2.8756539466520755e-09
64 5.828275639035799e-10 -4.6457803385320595e-10 1.3782916041506363e-09
65 7.011313097076389e-10 3.4811824869938775e-09 1.2366609720434855e-09
66 -3.052400317747561e-10 -1.6911817625353112e-09 1.3866917104289706e-09
83 -4.3955271677566295e-09 -1.3343749022493555e-09 4.629839058841916e-10
85 -1.8012495251640297e-10 -2.0291040560806245e-11 -8.366503496699474e-10
17 -1.6017911248551196e-09 1.603327365946669e-09 -1.1284720715892534e-15
18 -6.475827866073301e-10 2.0993893194458345e-09 -1.6146470461455914e-16
19 1.3791318925927409e-09 -2.933560064536247e-10 5.362331325282119e-10
20 -1.4449060074467087e-09 1.3193877275903238e-09 -1.443890841450722e-09
37 -3.875556599223867e-09 -2.2759398631518686e-10 1.5570658831028994e-15
39 9.31232848404303e-10 -9.312291539067261e-10 -2.851476726063483e-10
67 5.040890665151064e-10 2.0258020088615404e-09 5.735749793399677e-10
68 -6.790841592818939e-10 1.3720317359799671e-09 -4.521773299896135e-09
69 1.3992885669434705e-09 2.5358774787316216e-09 1.0629673677183778e-09
70 -2.9546680129431755e-10 -3.479846751782147e-10 -8.630652039203182e-10
87 -1.7358824806482775e-09 2.385640880083659e-10 -3.0458982378893187e-10
89 4.85591610889249e-10 -4.855866074497729e-10 -2.3799064326055014e-09
22 -1.6033231417450584e-09 1.6017860292190005e-09 2.1236763998477402e-16
24 -1.3193911913644099e-09 1.4449022308347574e-09 -1.4438914166687321e-09
28 1.1892947265070804e-10 -2.7351184000972593e-09 2.5419846610239647e-10
41 9.587814526188676e-10 3.2534115647060552e-09 1.0447716180942062e-16
42 -2.0992343002697594e-09 2.83022388000234e-09 -1.8787564781306718e-09
43 -2.0771827476769117e-09 1.8094217857575806e-10 -1.4614930248567816e-15
72 -2.025797911101041e-09 -5.040901937860246e-10 5.735736444364586e-10
74 3.479792429594208e-10 2.954619205487244e-10 -8.630658571993896e-10
78 -1.5833743796176206e-09 -1.1414382612521672e-09 1.8639259420437234e-10
91 4.6457503369652535e-10 -5.828255239276336e-10 1.3782911399396104e-09
92 -3.481172117001368e-09 -7.01130580324598e-10 1.2366596614424643e-09
93 -2.2353321905615924e-09 2.160803948276645e-09 2.2026911619730625e-09
301 -1.8380881872678127e-09 -1.201953073693305e-09 2.1994517370464935e-09
302 1.6911764116424898e-09 3.052358920069289e-10 1.3866911571749093e-09
304 -5.105266488539627e-10 -6.124377936913708e-10 2.0931623191372885e-09
26 -1.300687806058449e-09 -1.300690747298321e-09 -5.462790236086325e-16
32 -1.8729089337457272e-09 -9.943502334247231e-10 -2.4171862934508335e-09
44 -9.943459210426814e-10 -1.8729064088643652e-09 -2.417188904779072e-09
45 -2.7677716835871898e-09 -2.767767458495149e-09 -1.6818745380485283e-15
76 -1.0611961339378532e-09 -1.061201877832498e-09 3.4637941704678863e-09
82 -6.145313317014352e-10 1.5554641166095369e-09 1.5826482207554308e-09
94 1.5554669453259103e-09 -6.145289791779464e-10 1.5826492570633228e-09
95 -2.3803571255967845e-09 -2.3803570551817143e-09 3.035980103140785e-09
30 -3.2507026824268266e-09 -1.880044971370863e-09 -9.746954446997283e-16
46 -1.5327180627685715e-09 -1.332712804169521e-09 -1.6108539327389125e-09
80 1.906957340109277e-09 -5.267351032484595e-10 2.113489255361656e-09
96 -5.25359547911194e-11 -1.0619427527722598e-09 2.6285746345608076e-10
253 -1.8800432318455973e-09 -3.2507089905916476e-09 -1.223702902550062e-15
256 -1.3327160180294872e-09 -1.5327201553960043e-09 -1.6108546605173237e-09
303 -5.267320051919757e-10 1.906954489017363e-09 2.1134887983343626e-09
306 -1.0619456582465125e-09 -5.2537657465554056e-11 2.6285767211359424e-10
255 -1.0040422143849904e-09 -1.0040468418912627e-09 -1.1183805275508434e-15
305 -1.4386828914031976e-09 -1.4386848134907489e-09 -2.778249352430833e-09
34 -4.100650583367001e-10 7.808836199904195e-10 -8.169304318391405e-16
36 -2.0525414424059374e-09 -6.702160945088848e-10 -4.258693784539803e-09
47 -1.252062929910726e-09 -9.761672770308702e-10 2.671291068990868e-17
48 -9.496022616781464e-10 9.496054484792162e-10 -5.278945036393493e-09
84 -4.139910200657224e-09 -3.449871574584141e-10 2.555526341163683e-10
86 -1.4150746938626274e-09 2.867991225100128e-09 1.1544186479239287e-09
97 -7.707311901241341e-10 -5.000685457611752e-10 1.5291122523567712e-09
98 -2.5184716811412234e-09 2.518474542403867e-09 -1.0933168763611108e-10
257 9.761717286956977e-10 1.2520610637096406e-09 2.0420536171841302e-16
258 -2.2099187376144722e-10 2.209880075682021e-10 2.0287142972809534e-09
307 5.000706992706597e-10 7.707266128652489e-10 1.52911443540447e-09
308 1.6470508655890715e-09 -1.6470546958687271e-09 -2.5632630395085497e-09
100 2.0292834211857837e-11 1.8012821229382198e-10 -8.366524065489981e-10
99 3.4498227164502e-10 4.139916845850857e-09 2.555554554916261e-10
90 -1.7005576676963383e-09 1.7005561830521243e-09 -2.877800964199664e-09
88 -2.3855902680222054e-10 1.7358761900546202e-09 -3.045869368653116e-10
38 2.2760171614111017e-10 3.875551968392394e-09 1.0234012895422792e-15
40 -1.6822214140981403e-09 1.682214314103289e-09 -2.837587329451228e-09
49 -7.808862801232831e-10 4.1007086078901586e-10 3.3658267469284936e-16
50 8.013253360592956e-10 1.857520440129745e-09 -2.875657263801963e-09
259 -8.132291053292375e-10 9.391425540224202e-10 6.618865648721818e-17
260 6.702139491096945e-10 2.05253473756308e-09 -4.258695450623115e-09
309 1.334378396131118e-09 4.3955227426317425e-09 4.62984901128244e-10
310 -2.8679933481272556e-09 1.4150704472822107e-09 1.1544160404597887e-09
102 -2.3990093574256642e-09 -2.399011138286377e-09 -4.346156860522953e-10
108 -3.751490702696173e-10 -2.711544995416118e-09 5.195858229656739e-16
123 -2.7115439444114875e-09 -3.751463704847769e-10 -6.68564792544659e-16
125 -2.9315886707231795e-09 -2.931586749768091e-09 3.6420541140754318e-09
152 -2.399011978852633e-09 -2.399012812889067e-09 4.3461801215319613e-10
163 -2.9315866666612576e-09 -2.931586360353215e-09 -3.6420559369069503e-09
106 -1.262835430148562e-09 -3.8524604475929366e-09 -9.366202727539758e-10
107 -1.3059115295177052e-09 -2.9400564214026487e-10 9.261577149635158e-16
109 -1.1104681634044925e-09 1.2888756301650856e-09 6.290298105710845e-10
112 -1.3915809424170519e-09 4.590141275330952e-10 3.8763401512245263e-16
127 -1.617473787099241e-09 -6.891265385536847e-10 7.316589716607241e-16
129 -1.731795916419746e-09 -1.3768148889220277e-09 2.2062324173505538e-10
154 -1.2628376396587381e-09 -3.85245876001292e-09 9.366163689683473e-10
155 -1.1104674605581313e-09 1.2888746043893152e-09 -6.290316157702269e-10
165 -1.7317969766254904e-09 -1.3768140056151143e-09 -2.2062107734929268e-10
110 -7.418543985728831e-10 1.0221198961485343e-09 9.117974938766294e-10
111 -4.140013262410417e-10 -1.809032741894394e-09 1.043881187737876e-15
131 -6.919281307604633e-10 -1.2541836566783523e-10 -1.1872868516881113e-16
156 -7.418544131722308e-10 1.0221182957483738e-09 -9.117995065460448e-10
113 7.418570608112435e-10 -1.0221193001538159e-09 9.117961638704871e-10
114 1.1104715535696693e-09 -1.2888785412787306e-09 6.290261482310288e-10
115 1.3915827085160987e-09 -4.5902099799633383e-10 4.228060141974991e-16
116 4.139964345560826e-10 1.8090377140575038e-09 1.944699898225352e-15
133 5.492156618535706e-10 3.9679874908508395e-09 1.7190935771507542e-10
135 2.4005943391769555e-10 4.78435136190748e-09 1.9708145510196013e-15
157 7.418575537989378e-10 -1.0221199436381533e-09 -9.11798567587234e-10
158 1.1104669735622913e-09 -1.2888755969223524e-09 -6.290306582607837e-10
167 5.492176862921001e-10 3.9679883191180266e-09 -1.7191125447318297e-10
104 -1.2258003313632835e-09 1.2257995786528223e-09 5.793733518522416e-16
121 5.690171256095518e-10 -1.6901596778954558e-09 -1.8754781035171397e-09
161 5.690157976810804e-10 -1.690161532661888e-09 1.875479337653614e-09
117 1.2628352069102514e-09 3.852461993246703e-09 -9.36618617304997e-10
118 1.6901616172527717e-09 -5.690199714249706e-10 -1.8754786446019862e-09
119 3.7514559402950617e-10 2.711548168613098e-09 3.4741624402820123e-16
120 1.3059117260338298e-09 2.940034241188268e-10 1.2495706000501727e-15
137 4.506997839449611e-10 -1.0421338687845682e-09 2.3007499948111075e-09
139 1.002543465396925e-09 -1.0025432600043228e-09 1.390852216587912e-15
159 1.2628413312902422e-09 3.852458518787452e-09 9.366163441847024e-10
160 1.690160210966429e-09 -5.690154058917236e-10 1.8754739398647937e-09
169 4.50699776227898e-10 -1.0421348656314968e-09 -2.300753916691902e-09
122 -3.852459312457709e-09 -1.262836780003881e-09 -9.366183786696616e-10
124 -2.940049354759516e-10 -1.3059139639821254e-09 -8.432653733934193e-16
128 -6.891287006182995e-10 -1.6174741331427383e-09 8.693695914569304e-16
141 1.2888739086663968e-09 -1.1104662590707704e-09 6.290301453728985e-10
142 4.590172143583305e-10 -1.391583031811883e-09 4.3927897578960943e-16
143 -1.376817158332196e-09 -1.7317957597040032e-09 2.2062031688930478e-10
162 -3.852458498010743e-09 -1.2628373783730804e-09 9.366204127836081e-10
171 1.2888737282058446e-09 -1.1104673513320075e-09 -6.290277340874935e-10
172 -1.3768162465315112e-09 -1.73179620135746e-09 -2.2062540077939537e-10
351 1.0221210738910857e-09 -7.418550246938286e-10 9.117965687194892e-10
352 -1.809040081415011e-09 -4.140017095249335e-10 -7.206549683899809e-16
354 -1.2542132287980175e-10 -6.919292961622063e-10 1.875190678534319e-15
401 1.022120917175343e-09 -7.418535412368551e-10 -9.117983258353923e-10
126 -4.289196528944868e-10 -4.289219232576937e-10 4.297279147590393e-09
132 -2.4857814966008106e-09 1.3450156521976942e-09 1.7586811127691744e-16
144 1.345019371021998e-09 -2.4857796882982076e-09 1.1896149560572666e-15
145 2.5247823886299996e-09 2.5247863678498272e-09 2.5016019898713785e-09
164 -4.2891951210446204e-10 -4.28922660856346e-10 -4.297279428873632e-09
173 2.524783177581345e-09 2.5247860069287228e-09 -2.5016014401790386e-09
130 -1.0174201833574944e-09 1.6602324157218756e-09 -2.0897302123163562e-09
146 -1.9652247335393215e-09 7.69320020466035e-09 5.223858090471031e-16
166 -1.0174203266680865e-09 1.6602346267512776e-09 2.0897276340567088e-09
353 1.6602358073618276e-09 -1.017422783414135e-09 -2.0897316352240654e-09
356 7.693196962245453e-09 -1.9652320872404343e-09 6.043054018294897e-16
402 1.6602359558664154e-09 -1.017422761153376e-09 2.0897271772844866e-09
355 1.4894000541510848e-09 1.4893978436577252e-09 7.295461018353314e-09
403 1.489398576227553e-09 1.4893985847925918e-09 -7.295460605342034e-09
134 -5.395633574950133e-10 3.152877895743612e-09 -9.046670293890071e-10
136 2.140631921580575e-09 -1.0839014832410135e-09 2.5081115902916574e-15
147 -1.5201689452731552e-09 2.4829659449935705e-09 -1.4733680445049985e-09
148 1.420001349092139e-09 -1.419995739504713e-09 1.6191965887474666e-15
168 -5.395645669800155e-10 3.1528770822778054e-09 9.046645133852821e-10
174 -1.520166098204528e-09 2.4829618133967174e-09 1.4733638392992359e-09
357 -2.482960078393168e-09 1.520162695379e-09 -1.4733671169733774e-09
358 -6.823429674882801e-09 6.823425215325296e-09 5.627519852007429e-16
404 -2.4829593602194915e-09 1.5201616200359396e-09 1.4733648003704004e-09
175 -3.1528802013646148e-09 5.39568393371647e-10 9.04670947282575e-10
170 1.0421376761265116e-09 -4.507013134817057e-10 -2.3007467061549915e-09
150 -4.784345399270454e-09 -2.400522013391555e-10 -5.580030233003147e-16
149 -3.152881485958809e-09 5.395657937314718e-10 -9.04666331885228e-10
140 -2.298567062051907e-09 2.298561649422581e-09 -1.2287938917357995e-16
138 1.042137142165108e-09 -4.5070208897234354e-10 2.3007476880028644e-09
359 -3.967982175575232e-09 -5.492204976638346e-10 1.719120684818902e-10
360 1.0838968902064539e-09 -2.140638200878843e-09 4.2918743175119947e-16
405 -3.9679867322041755e-09 -5.492213980373299e-10 -1.7191136934565545e-10
176 -6.722795350203357e-10 6.722824170465891e-10 -2.226879567146057e-09
177 6.722820163529287e-10 -6.722773125061663e-10 -2.226877403993911e-09
179 -1.3992848652760742e-09 -2.535876101087455e-09 -1.0629642191566379e-09
186 -2.5358751042506713e-09 -1.399282883326506e-09 -1.062965259179294e-09
201 -1.5381261207412305e-10 -1.5381433238557148e-10 6.606723284482555e-09
202 1.5381451640784513e-10 1.5381537359546815e-10 6.606720762783786e-09
203 1.635959636818733e-09 -1.635959112058443e-09 -9.597321962753838e-10
204 -1.6359580447292558e-09 1.635958939908574e-09 -9.597316961503338e-10
205 6.790875061127933e-10 -1.3720352251834921e-09 4.5217697389167345e-09
208 -1.3791283890460989e-09 2.933559923226805e-10 -5.362326464552658e-10
221 -1.372037610742648e-09 6.790857757098009e-10 4.521769530556031e-09
223 2.933583833090559e-10 -1.3791299668886902e-09 -5.362318556510809e-10
225 2.0705957567636555e-10 2.070608778693127e-10 1.9085407270974814e-09
178 2.954632474383604e-10 3.479776975774643e-10 8.630669888923147e-10
181 -7.011283308007078e-10 -3.4811753937850793e-09 -1.2366555868331537e-09
188 -1.1414370917507344e-09 -1.5833714674292581e-09 -1.863923337430584e-10
206 -5.040886925343568e-10 -2.0258013683453045e-09 -5.73573395412769e-10
207 1.4449018283602364e-09 -1.3193824817682846e-09 1.4438939359930203e-09
209 -5.82825220290882e-10 4.645774461691708e-10 -1.3782942588203385e-09
212 2.830221670547816e-09 -2.099237085535914e-09 1.878758469726569e-09
227 -2.735115924349566e-09 1.1893333188717616e-10 -2.5419629661691274e-10
229 2.1608031755245446e-09 -2.235328679149482e-09 -2.202692600500404e-09
180 3.0523564023774565e-10 1.691182389398282e-09 -1.3866872737113151e-09
190 -6.124371181986485e-10 -5.105228955508811e-10 -2.093158547741543e-09
210 -1.2019536613773402e-09 -1.8380912432247956e-09 -2.199452663094064e-09
182 7.011297560597099e-10 3.4811752192213095e-09 -1.2366567362262138e-09
183 -3.0523805096677657e-10 -1.691178238805581e-09 -1.3866913996687763e-09
192 -1.8013101826238273e-10 -2.029306692954159e-11 8.366543369092575e-10
214 5.82825212940194e-10 -4.6457540089603765e-10 -1.3782918112951138e-09
216 -1.5157992911863344e-09 -1.80667395388878e-09 -9.03933219796153e-10
231 -7.083251667798504e-10 -2.8210766088630472e-09 1.90259345177525e-09
233 -4.395522101952283e-09 -1.334376550139135e-09 -4.629870826428929e-10
235 -1.8575169383639638e-09 -8.013183087829235e-10 2.8756541915204237e-09
184 1.3992811656863486e-09 2.535871058135132e-09 -1.062965821634469e-09
185 -2.9546462448890646e-10 -3.479845255859148e-10 8.630677313763775e-10
194 4.855961656005208e-10 -4.855887904835589e-10 2.379909193908258e-09
217 5.040904404491463e-10 2.0258022160350033e-09 -5.735745927447881e-10
218 -6.790886322103839e-10 1.3720379307039562e-09 4.5217705444593966e-09
219 1.379128072052892e-09 -2.933577801908945e-10 -5.362291006595584e-10
220 -1.4449035997230251e-09 1.319388914830799e-09 1.4438886860156395e-09
237 -1.7358774111314487e-09 2.385614572318781e-10 3.045911055634298e-10
239 9.312320989587532e-10 -9.312303635563652e-10 2.8514446156607833e-10
187 3.4797907437127334e-10 2.954608128533611e-10 8.630633996116061e-10
189 -1.5833754695043768e-09 -1.1414386189083602e-09 -1.863917914814061e-10
196 -3.4811737458953e-09 -7.011292731728349e-10 -1.236656135189848e-09
222 -2.025796614634442e-09 -5.040885485814492e-10 -5.735746340013946e-10
224 -1.3193910821382863e-09 1.4449027106097638e-09 1.4438939656740323e-09
228 1.189319150176976e-10 -2.7351181544913424e-09 -2.5419642724235037e-10
241 4.6457510493095386e-10 -5.828226226087226e-10 -1.3782904777562354e-09
242 -2.0992336211682073e-09 2.8302247181941155e-09 1.878757827429472e-09
243 -2.2353317852117235e-09 2.1608033344628846e-09 -2.2026935791415497e-09
426 1.6911813618416508e-09 3.0523976122363726e-10 -1.3866911761707568e-09
427 -5.105254961640405e-10 -6.124378668724563e-10 -2.0931591632144257e-09
451 -1.8380902340703918e-09 -1.201957503881138e-09 -2.199452746200897e-09
191 -6.145307250150651e-10 1.5554651758923872e-09 -1.582649839701586e-09
197 1.5554674304620494e-09 -6.145282637171551e-10 -1.5826454587842328e-09
226 -1.0611984022557587e-09 -1.0612012475469355e-09 -3.4637943644054726e-09
232 -1.8729083931362408e-09 -9.943471829587273e-10 2.41718762245232e-09
244 -9.943460345819177e-10 -1.8729047853130156e-09 2.4171889783879817e-09
245 -2.380361000100583e-09 -2.38035745338959e-09 -3.0359811208470306e-09
198 -5.25373262254615e-11 -1.0619442390489297e-09 -2.628584153261317e-10
230 1.906957112018817e-09 -5.267360892609494e-10 -2.1134911415551786e-09
246 -1.5327193709037355e-09 -1.332713571126868e-09 1.6108588229824293e-09
428 -1.0619445809847543e-09 -5.2538578983292083e-11 -2.628580038916552e-10
453 -5.267302454870999e-10 1.906955693984127e-09 -2.1134913748688012e-09
456 -1.3327170233310115e-09 -1.5327205813185248e-09 1.6108575895879807e-09
455 -1.4386782738860105e-09 -1.438679227964891e-09 2.7782487786273086e-09
193 -1.4150744629747127e-09 2.8679908212343095e-09 -1.1544157596774165e-09
199 -2.51846997842505e-09 2.5184740490274237e-09 1.0932992651906839e-10
234 -4.139912027249883e-09 -3.4498764447164533e-10 -2.555507386434791e-10
236 -2.052536563487572e-09 -6.702158378887113e-10 4.258696353822104e-09
247 -7.707309914727947e-10 -5.000693964607145e-10 -1.529114285839996e-09
248 -9.496034347219077e-10 9.49602131922949e-10 5.278946658757603e-09
429 1.647049952592133e-09 -1.6470497948658433e-09 2.5632660992127606e-09
457 5.000702279788999e-10 7.707283988445702e-10 -1.5291137820662684e-09
458 -2.2099298907202628e-10 2.2099192279047888e-10 -2.0287157724272436e-09
250 8.013249959148995e-10 1.8575201228397281e-09 2.875655467507124e-09
249 3.4498690247649315e-10 4.1399134954582365e-09 -2.5555572083088685e-10
240 -1.6822214995794544e-09 1.6822154440594112e-09 2.8375842450004734e-09
195 -1.7005568116959558e-09 1.7005624427775293e-09 2.877800446163036e-09
200 2.029011839927103e-11 1.8012596826091898e-10 8.366486553421379e-10
238 -2.3856195928619405e-10 1.7358759454830822e-09 3.0458894211447404e-10
430 -2.8679964864150244e-09 1.4150698748467953e-09 -1.1544194851731e-09
459 1.33437823720785e-09 4.395522506468279e-09 -4.6298313892684474e-10
460 6.702149339256685e-10 2.0525371485567307e-09 4.258696760149359e-09
251 1.1208772895210317e-09 2.6999071261623735e-11 -1.964882986302172e-16
254 -2.8210786936573213e-09 -7.083255547106756e-10 -1.902593481604667e-09
262 -9.587891245668176e-10 -3.253411239402165e-09 1.5671574271413093e-16
263 -1.8066740654893846e-09 -1.5157985403773128e-09 9.039329491053247e-10
265 8.132301774073865e-10 -9.391433820785937e-10 -3.7130945943540353e-16
268 -8.013204410668167e-10 -1.8575191671111456e-09 -2.87565473260527e-09
312 -4.6457719091246863e-10 5.828250184600013e-10 1.3782895193563618e-09
313 -1.691178431138538e-09 -3.0523894084046896e-10 1.3866914824787994e-09
314 3.481174675504592e-09 7.011275504869055e-10 1.2366578378410944e-09
315 -1.3343764124192399e-09 -4.395525592304534e-09 4.629832588381327e-10
318 -2.0293274381263983e-11 -1.8012651053300597e-10 -8.366508393915709e-10
266 7.808843020229712e-10 -4.100714563025773e-10 -1.3537208069631284e-15
267 -6.702147315011676e-10 -2.05253528438908e-09 -4.258694352630892e-09
269 -9.76170647458174e-10 -1.2520609556707574e-09 -3.0037184020208427e-16
272 9.496027362283508e-10 -9.496034568833191e-10 -5.278943670473326e-09
316 -3.449858698369887e-10 -4.139914193396796e-09 2.555535410909976e-10
317 2.867995599696353e-09 -1.415069984783654e-09 1.154417099804088e-09
319 -5.000733375054716e-10 -7.707304232683366e-10 1.5291136880644168e-09
322 2.518471892631549e-09 -2.518474067281246e-09 -1.093304987689774e-10
270 1.2520650013781826e-09 9.761661436614316e-10 6.286438315691843e-16
271 2.2099450447271795e-10 -2.209888104395734e-10 2.0287138636413698e-09
320 7.707292410888508e-10 5.000681338304693e-10 1.5291121583050648e-09
321 -1.6470493441272143e-09 1.6470536819653614e-09 -2.563260786422938e-09
273 1.0040424834340877e-09 1.0040481632899115e-09 -1.0922612370984883e-16
274 2.7677713913219757e-09 2.767767863640961e-09 -1.4187523677529278e-16
275 1.3327143476377905e-09 1.5327214554243247e-09 -1.6108568447429876e-09
276 1.5327170514901292e-09 1.3327101394082747e-09 -1.6108540888610348e-09
323 1.4386813289556065e-09 1.4386837181083679e-09 -2.7782513418794943e-09
324 2.380356769341686e-09 2.380354447296707e-09 3.0359798513901523e-09
325 1.0619471794493855e-09 5.2539793534935773e-11 2.628566635187397e-10
326 5.2535688872441266e-11 1.0619455549565912e-09 2.6286010120760634e-10
252 1.8066689603553415e-09 1.5158005408775135e-09 9.039324599622489e-10
261 -1.1208725144398407e-09 -2.7001044455293362e-11 1.1872404751070524e-15
264 2.0992403817606878e-09 -2.830223367114455e-09 -1.878758404428343e-09
311 1.8380895407219542e-09 1.201954530437368e-09 2.1994513351655926e-09
277 1.8800429457902075e-09 3.250709074144619e-09 -1.8162947394186076e-15
278 2.0771790764325525e-09 -1.809400578674594e-10 7.156091963707759e-16
279 2.821079585274918e-09 7.083255671767006e-10 -1.902594551308335e-09
280 9.94348021567892e-10 1.872908316759809e-09 -2.417189181999723e-09
327 5.267339425353888e-10 -1.9069505835075014e-09 2.1134927726560195e-09
328 2.2353270247298803e-09 -2.1608058100111585e-09 2.2026916502016498e-09
329 5.105245833523461e-10 6.124396754675239e-10 2.093158882372923e-09
330 -1.5554676549989042e-09 6.145258683110915e-10 1.5826473147379054e-09
281 1.6033284225906917e-09 -1.6017914970550085e-09 -6.507561854180531e-16
282 2.099392469194815e-09 -6.475899112374211e-10 -1.903740101834159e-15
283 1.319387615396099e-09 -1.4449021204213933e-09 -1.4438899231202145e-09
284 -2.9335899355066007e-10 1.3791310140347893e-09 5.362314941363562e-10
285 -2.275945876524875e-10 -3.875548518271573e-09 -8.895396671036178e-16
288 -9.312291302639451e-10 9.312294603167972e-10 -2.8514657297819133e-10
331 2.025802467729984e-09 5.040898112116944e-10 5.735746651664571e-10
332 1.3720377270922146e-09 -6.790907568514167e-10 -4.521771979536321e-09
333 -3.4797952789713483e-10 -2.9546101112252047e-10 -8.630662169332535e-10
334 2.535870825435999e-09 1.399281620993071e-09 1.062971126521722e-09
335 2.3856068626759463e-10 -1.7358777898611603e-09 -3.0458840384932364e-10
338 -4.85592485588669e-10 4.855895535499107e-10 -2.379907201046899e-09
341 1.41507218881646e-09 -2.867990644613738e-09 1.1544165525360838e-09
340 4.395523550405218e-09 1.3343749351326702e-09 4.629852863109528e-10
286 3.875548967642093e-09 2.2759351824562954e-10 6.470460589333437e-16
287 1.682216462911158e-09 -1.6822144000182243e-09 -2.8375854105977376e-09
289 4.1006789636503805e-10 -7.808829895008e-10 -3.8406997486807855e-16
292 1.8575164176106104e-09 8.013184180090472e-10 -2.8756535759362373e-09
336 1.735879278106987e-09 -2.3856135748164936e-10 -3.0458989956362764e-10
337 1.7005587977445326e-09 -1.7005580244064493e-09 -2.8778008617932166e-09
339 4.139915561266066e-09 3.449882351910277e-10 2.5555295984403185e-10
342 1.8012637132906026e-10 2.028930098420392e-11 -8.36649642653172e-10
290 9.391441692630864e-10 -8.132314329141889e-10 -1.4718813790139684e-15
291 2.0525370196354135e-09 6.702157188771289e-10 -4.258694032139157e-09
346 6.12434545698241e-10 5.105197287260435e-10 2.093162327744782e-09
345 6.145274991806658e-10 -1.5554666697145268e-09 1.582650237399319e-09
344 -2.1608040847023983e-09 2.2353262261509557e-09 2.202687823712555e-09
343 -1.906954417798007e-09 5.267351293584746e-10 2.1134901944630746e-09
296 7.083271625791175e-10 2.821077845967622e-09 -1.9025936519736753e-09
295 1.8729100113742834e-09 9.94349199829861e-10 -2.417187788223069e-09
294 -1.8094062454754104e-10 2.0771816589902404e-09 -1.4206491699182354e-15
293 3.250705870077736e-09 1.8800452751003677e-09 -1.3244073294903436e-15
11 1.5158006637569027e-09 1.8066794938496469e-09 9.039340158408915e-10
13 -2.6996918126529746e-11 -1.1208734226788044e-09 -5.342582137981736e-16
15 -2.830222875003278e-09 2.0992394288518018e-09 -1.8787591992858408e-09
63 1.2019529209251775e-09 1.8380905839051744e-09 2.1994501787145293e-09
350 1.1414396961806863e-09 1.583369135279632e-09 1.8639086469181023e-10
349 1.5833724156250646e-09 1.1414439797443206e-09 1.863895551655662e-10
348 -2.070633273562669e-10 -2.0706479419187387e-10 -1.9085395978555586e-09
347 1.0612044384829577e-09 1.0612047574610821e-09 3.4637921750162172e-09
300 2.7351178571770596e-09 -1.1893821665941599e-10 2.5419759282032444e-10
299 -1.189382280668955e-10 2.735118273898466e-09 2.541972526759283e-10
298 -7.480811660338911e-10 -7.480816148107906e-10 6.767270708110199e-16
297 1.3006900711648704e-09 1.300690047568466e-09 2.989471516319558e-15
361 -1.0221215392893518e-09 7.418565876959141e-10 9.117969498236816e-10
362 -1.2888744809163058e-09 1.110469889058523e-09 6.29028007746423e-10
363 1.8090412567830816e-09 4.139976467880277e-10 2.3974837344193043e-15
364 -4.590165530653859e-10 1.3915834023793163e-09 1.3463306987713975e-15
365 3.967985740264759e-09 5.492205575707831e-10 1.7191021965166036e-10
368 4.784349592149321e-09 2.40052920195872e-10 4.796451519432492e-16
406 -1.0221212377302711e-09 7.418574947476372e-10 -9.117964482145809e-10
407 -1.2888767319242466e-09 1.110466842599464e-09 -6.290307704550085e-10
408 3.9679824845545665e-09 5.492174182205916e-10 -1.719125587310474e-10
366 3.152877264077187e-09 -5.395661665059774e-10 -9.046663915440618e-10
367 -1.0838985829076048e-09 2.1406374692419004e-09 7.737839796510214e-16
369 2.4829632516272492e-09 -1.520163934561246e-09 -1.4733683383470161e-09
372 -1.4200015163550032e-09 1.4199958169410882e-09 7.786859842689439e-16
409 3.1528786952025365e-09 -5.395651977177498e-10 9.046652419984719e-10
410 2.4829635672600278e-09 -1.520163262583137e-09 1.4733679799487977e-09
370 1.5201680416712645e-09 -2.482967703296714e-09 -1.4733673573895736e-09
371 6.823431325051157e-09 -6.8234270876035245e-09 -1.4039118618140897e-16
411 1.5201641884323752e-09 -2.482966995701391e-09 1.4733688945691787e-09
373 -1.489403807148081e-09 -1.4893957214653761e-09 7.295460572544515e-09
374 -2.5247839472149036e-09 -2.5247829586888033e-09 2.501602066151579e-09
375 -7.693196911014113e-09 1.9652300666974346e-09 1.3605149760882527e-15
376 1.9652289339331924e-09 -7.69319855736419e-09 -6.539353000496387e-16
412 -1.4894029867952388e-09 -1.4893974310916602e-09 -7.295460301111662e-09
413 -2.524778976617511e-09 -2.524784008209383e-09 -2.501604685500877e-09
377 -1.660236505171692e-09 1.0174212186311888e-09 -2.089730121344055e-09
378 1.3768179074809358e-09 1.7317920009006592e-09 2.2062550698872247e-10
379 1.2542002680276622e-10 6.91932966627439e-10 2.6119290452355154e-17
380 -1.345019521669474e-09 2.4857801726923217e-09 2.3299594323975907e-15
414 -1.6602360991354495e-09 1.0174243695674098e-09 2.0897292441217487e-09
415 1.3768170146760985e-09 1.7317936605144383e-09 -2.2062303797374944e-10
381 3.8524602575011276e-09 1.26284087598352e-09 -9.36618045055088e-10
382 -5.690183164117483e-10 1.6901612058739471e-09 -1.875479323406728e-09
383 2.940017869142116e-10 1.3059116536121608e-09 1.616423269200146e-15
384 2.7115454688282574e-09 3.7514525685321126e-10 1.377198951124181e-16
385 -1.0421359662034173e-09 4.5069951622223397e-10 2.300747360004495e-09
388 -1.0025420828553918e-09 1.0025433733857882e-09 2.2366126500422985e-15
416 3.852460772763494e-09 1.2628354051794108e-09 9.36617110103214e-10
417 -5.690195463928805e-10 1.6901622910117415e-09 1.8754749864172724e-09
418 -1.0421339182135979e-09 4.507041351813024e-10 -2.3007519982005692e-09
103 1.2257993245833605e-09 -1.2257995739038605e-09 9.652265062620336e-16
105 -1.690163646840364e-09 5.69016785826893e-10 -1.875477865567163e-09
153 -1.6901617520045657e-09 5.69016485763457e-10 1.8754790728989876e-09
421 -5.492206326150478e-10 -3.96799031648317e-09 -1.7191151211132256e-10
391 -2.1406346218463442e-09 1.083903730807812e-09 3.6092110443254396e-16
390 -5.492212088208792e-10 -3.967989482446736e-09 1.719088341420259e-10
386 -4.506981031185338e-10 1.0421364050406562e-09 2.3007500937555163e-09
387 2.2985665921106677e-09 -2.298563647436997e-09 1.3899803368640052e-15
389 5.395644716125458e-10 -3.152874046190574e-09 -9.046669730252293e-10
392 -2.400571361041903e-10 -4.78435211074086e-09 1.0720781490216685e-15
419 -4.507013873271357e-10 1.0421356367128813e-09 -2.300751563852111e-09
420 5.395653621310068e-10 -3.1528751057284955e-09 9.046652628493828e-10
423 1.7317917306858429e-09 1.3768182865074574e-09 -2.2062477550018475e-10
422 1.01742297065332e-09 -1.6602340725716105e-09 2.089728699399819e-09
396 6.919337425916976e-10 1.254191363724099e-10 8.215704087740804e-16
395 2.4857794319933947e-09 -1.3450196387761381e-09 4.893274226538146e-16
394 1.7317940980125533e-09 1.3768169814333652e-09 2.2062476451821035e-10
393 1.0174239655162473e-09 -1.660234896275342e-09 -2.0897309436448945e-09
425 2.93158512324864e-09 2.9315904637531072e-09 -3.642054777269816e-09
424 4.289221962928582e-10 4.289178907652752e-10 -4.297277718417795e-09
400 1.6174715019210354e-09 6.891284149385602e-10 2.084794274287984e-15
399 6.891292032662356e-10 1.6174727045956366e-09 1.9375764553747098e-15
398 2.931593242192629e-09 2.93158917173866e-09 3.6420504794592964e-09
397 4.289185633370044e-10 4.289227816024124e-10 4.297277619876835e-09
101 2.399006955341373e-09 2.3990073637520964e-09 -4.3461684865753056e-10
151 2.399016820419291e-09 2.399008344709539e-09 4.3461658034118317e-10
431 -1.6911783860234e-09 -3.0523896933424036e-10 -1.3866923165152331e-09
432 3.4811746796599337e-09 7.011301173008127e-10 -1.2366611407440962e-09
434 -2.0292305231298965e-11 -1.8012776531749317e-10 8.366548717448597e-10
454 -2.8210786889083595e-09 -7.08330265977691e-10 1.9025977711045035e-09
462 -4.6457334365970906e-10 5.828251466819726e-10 -1.3782916278954458e-09
463 -1.8066745949986364e-09 -1.515797081258769e-09 -9.039330844507388e-10
465 -1.3343761987159542e-09 -4.395519595971443e-09 -4.629870215000084e-10
468 -8.013193630524653e-10 -1.857519449971189e-09 2.875653725083322e-09
433 2.867994663469123e-09 -1.4150696380294217e-09 -1.1544141770858631e-09
436 2.5184715163466804e-09 -2.518474684646293e-09 1.0932943856323312e-10
466 -3.449887863859689e-10 -4.139918320562367e-09 -2.555521431246135e-10
467 -6.702138289943495e-10 -2.0525341494732495e-09 4.258695808581915e-09
469 -5.000725898407825e-10 -7.70730739074303e-10 -1.5291135182890289e-09
472 9.496019431517135e-10 -9.496029677402434e-10 5.278942916278815e-09
435 -1.6470487356293697e-09 1.6470516185414157e-09 2.5632627462601524e-09
470 7.707294382237404e-10 5.000712871411711e-10 -1.5291116952812794e-09
471 2.2099399737263e-10 -2.2099093560002382e-10 -2.028715193647512e-09
437 1.06194624739141e-09 5.2537754188551506e-11 -2.628576952307155e-10
438 5.253360244571132e-11 1.0619443867119638e-09 -2.6285776145344e-10
473 1.4386786322774174e-09 1.438678855171382e-09 2.7782492134541325e-09
474 2.3803610928567157e-09 2.3803608172044325e-09 -3.0359803656983203e-09
475 1.3327154212278162e-09 1.5327201185915496e-09 1.6108588609741245e-09
476 1.5327171234044095e-09 1.3327148978680989e-09 1.610856133289133e-09
452 1.8066698721560264e-09 1.5157991921723336e-09 -9.039340425538023e-10
461 1.83808850544826e-09 1.2019529846502694e-09 -2.199450631725611e-09
464 2.099239262044515e-09 -2.8302259084026917e-09 1.878759194536879e-09
439 5.10526404579235e-10 6.124392029458148e-10 -2.0931618418666176e-09
440 -1.5554684528245035e-09 6.145323850740594e-10 -1.5826493231320342e-09
477 5.267347706356201e-10 -1.9069546717700774e-09 -2.1134888686041584e-09
478 2.235326844862948e-09 -2.160804676790125e-09 -2.202691852835715e-09
479 2.8210749728456726e-09 7.083265907263953e-10 1.9025924985695534e-09
480 9.943486579287867e-10 1.872903592469054e-09 2.4171876581765733e-09
441 -3.4798534537546286e-10 -2.95465253132738e-10 8.630671544822162e-10
442 2.535876247563249e-09 1.3992846965395218e-09 -1.0629656604665745e-09
444 -4.85587252826275e-10 4.855948974676942e-10 2.379908280545301e-09
481 2.025802538964413e-09 5.040916538089118e-10 -5.735743849777049e-10
482 1.3720334102858471e-09 -6.790893356503654e-10 4.521773870513588e-09
483 1.3193876913794893e-09 -1.4449002517048853e-09 1.4438930452658539e-09
484 -2.933579196916504e-10 1.3791300143783092e-09 -5.362338496214589e-10
485 2.385619729394595e-10 -1.7358785918421014e-09 3.04588582232205e-10
488 -9.312337088568374e-10 9.312292507688534e-10 2.851491810730527e-10
491 2.05253668890434e-09 6.702145616144759e-10 4.258691563780987e-09
490 4.395522380187167e-09 1.334377115265601e-09 -4.6298472508011947e-10
443 1.7005586493209227e-09 -1.700557102328714e-09 2.877800261764895e-09
446 1.8012442499373823e-10 2.029425833463368e-11 8.366542405155338e-10
486 1.735879075939405e-09 -2.3856263957498625e-10 3.045808973730147e-10
487 1.6822171054586886e-09 -1.6822187611884293e-09 2.8375896221026347e-09
489 4.139917359728158e-09 3.4498779993753916e-10 -2.555513330150694e-10
492 1.8575219061897038e-09 8.0131775048309e-10 2.8756572918505194e-09
445 1.415072989298278e-09 -2.867992842121655e-09 -1.1544188783239429e-09
496 7.083280180400247e-10 2.8210802183709014e-09 1.9025957548733668e-09
495 1.8729055896942165e-09 9.94349129133401e-10 2.417187113182181e-09
494 -2.1608037130059305e-09 2.2353290108729004e-09 -2.2026875458994436e-09
493 -1.9069553764777147e-09 5.267328456364935e-10 -2.1134889461365264e-09
448 6.124390026177936e-10 5.105245631460698e-10 -2.0931624377778582e-09
447 6.14532608706571e-10 -1.5554675083260103e-09 -1.5826486844447095e-09
211 1.515800503246686e-09 1.8066697706469658e-09 -9.039343239297948e-10
213 1.2019538973663121e-09 1.8380902839344916e-09 -2.1994509380336535e-09
215 -2.8302258245862968e-09 2.0992313292004703e-09 1.8787580215432896e-09
500 2.7351143340409495e-09 -1.1893108019384024e-10 -2.5419724495886523e-10
499 -1.1893220578958553e-10 2.7351180411993332e-09 -2.541964652386832e-10
498 -2.0706181006293969e-10 -2.070623573807987e-10 1.9085405306091827e-09
497 1.0611985153495027e-09 1.0611984112734983e-09 -3.4637959188835427e-09
450 1.1414397080530911e-09 1.5833723479523576e-09 -1.863922730161139e-10
449 1.5833700886337334e-09 1.1414372290949792e-09 -1.863915705062727e-10
