LAMMPS data file via write_data, version 29 Aug 2024, timestep = 27, units = metal

500 atoms
3 atom types

0 17.605603523035295 xlo xhi
0 17.605603523035295 ylo yhi
0 17.605603523035295 zlo zhi

Masses

1 55.4442
2 58.71
3 58.71

Atoms # atomic

1 2 0.003883370999560092 0.003883370999560619 6.03552391435854e-17 0 0 0
2 3 1.7566769813039689 1.7566769813039687 3.036156895774975e-16 0 0 0
3 1 1.7557622541211193 0.004798098182410193 1.7507238841850492 0 0 0
4 1 0.004798098182408971 1.7557622541211195 1.7507238841850488 0 0 0
5 1 3.5157706521991154 0.004744644436679614 2.1476406291977078e-16 0 0 0
8 1 3.5154914331280684 1.759916927533635 1.7551862022146514 0 0 0
21 1 0.004744644436678986 3.515770652199116 6.360871917028022e-16 0 0 0
23 1 1.7599169275336348 3.515491433128069 1.7551862022146518 0 0 0
25 1 3.5155339805937347 3.5155339805937347 5.453536960828756e-16 0 0 0
51 1 0.0006886856219319628 0.0006886856219319203 3.519298743243045 0 0 0
52 1 1.7598716666815986 1.7598716666815983 3.519298743243044 0 0 0
53 1 1.76032018638175 0.00024016592178205263 5.2814361161743 0 0 0
54 1 0.00024016592178148377 1.7603201863817493 5.281436116174301 0 0 0
55 1 3.5193489129166533 0.0006611177948376533 3.519023387076302 0 0 0
58 1 3.520483561069291 1.7603452620234699 5.2811181176047235 0 0 0
71 1 0.0006611177948375158 3.519348912916654 3.5190233870763015 0 0 0
73 1 1.7603452620234696 3.5204835610692915 5.2811181176047235 0 0 0
75 1 3.5200492993889503 3.5200492993889507 3.519757720483 0 0 0
6 1 5.280797806137105 1.760376251463797 2.6464736392294745e-16 0 0 0
7 1 5.280696414092105 0.0006517077762504472 1.759682755437062 0 0 0
9 1 7.042231962396058 0.00024258429675666162 8.841983432465847e-17 0 0 0
12 1 7.042120973642615 1.7605218702215575 1.7602758923398971 0 0 0
27 1 5.280397481225781 3.520131657981382 1.7597442424757692 0 0 0
29 1 7.042050769452098 3.520785470494357 7.583239202125666e-19 0 0 0
56 1 5.280194470810699 1.760355427500556 3.5196516328754592 0 0 0
57 1 5.280812604830796 0.00021020169809573446 5.280771862231002 0 0 0
59 1 7.041740445107863 0.0002072936084784272 3.520617901471577 0 0 0
62 1 7.04158914312362 1.7604686905245084 5.2810283167300245 0 0 0
77 1 5.281052942077483 3.5207139617747956 5.281018123305401 0 0 0
79 1 7.041667463161139 3.5207740186637513 3.5206133592720943 0 0 0
11 1 8.802773845357972 5.050844003432792e-05 1.7605059214448597 0 0 0
31 1 8.80277661018759 3.521019780771206 1.7604786685637317 0 0 0
60 1 8.802706453577002 1.7605263472771728 3.520939277260591 0 0 0
61 1 8.802615137846946 8.967272669209759e-05 5.281389485734815 0 0 0
81 1 8.80261989327045 3.5209205499590066 5.281383141300697 0 0 0
10 1 8.802893821504556 1.7605636368947604 1.2592767903848288e-18 0 0 0
14 1 12.323931912942768 1.760317768006775 1.288769287453967e-16 0 0 0
15 1 12.32404290169621 3.8482081972799786e-05 1.7602758923398965 0 0 0
16 1 10.563390029980853 1.7605098438634956 1.7605059214448593 0 0 0
33 1 10.56346063304738 3.5209968531300007 6.688093503867945e-16 0 0 0
35 1 12.324350293123919 3.5206977013816623 1.7603050892666459 0 0 0
63 1 10.563457421761823 3.400502635641391e-05 3.520939277260591 0 0 0
64 1 12.324423430230963 1.7603530586950513 3.520617901471578 0 0 0
65 1 12.324574732215206 9.166177902265751e-05 5.281028316730025 0 0 0
66 1 10.563548737491878 1.760470679576838 5.281389485734816 0 0 0
83 1 10.56353995003853 3.5209406789026163 3.5209214854027153 0 0 0
85 1 12.324365886376253 3.520829618771645 5.281240671619212 0 0 0
17 1 14.085366069201722 0.00018410083973406001 1.4646373938227136e-18 0 0 0
18 1 15.85039322313971 1.7558157078668508 0 0 0 0
19 1 15.850672442210756 0.0006434247698958979 1.755186202214651 0 0 0
20 1 14.085467461246719 1.7599086445272776 1.7596827554370624 0 0 0
37 1 14.08562935440147 3.519829005330973 3.632580222988458e-16 0 0 0
39 1 15.846646866667639 3.5195170086711873 1.7591998276283296 0 0 0
67 1 14.085969404528125 0.0002049248029753794 3.5196516328754597 0 0 0
68 1 15.846814962422172 1.759899234508692 3.5190233870763006 0 0 0
69 1 15.845680314269535 0.00021509028005948713 5.2811181176047235 0 0 0
70 1 14.08535127050803 1.7603501506054335 5.280771862231001 0 0 0
87 1 14.085336735505997 3.5204788102455016 3.520290313613431 0 0 0
89 1 15.845648240393452 3.5205156349453732 5.280818186353752 0 0 0
22 1 1.7603762514637966 5.280797806137105 2.986742147774037e-16 0 0 0
24 1 0.0006517077762513271 5.280696414092104 1.7596827554370622 0 0 0
28 1 3.5201316579813815 5.280397481225781 1.7597442424757697 0 0 0
41 1 0.0002425842967557047 7.042231962396058 9.524338489223763e-19 0 0 0
42 1 1.7605218702215573 7.042120973642615 1.7602758923398967 0 0 0
43 1 3.5207854704943564 7.042050769452098 2.5648132720575136e-19 0 0 0
72 1 1.7603554275005555 5.280194470810699 3.5196516328754597 0 0 0
74 1 0.00021020169809800893 5.280812604830796 5.280771862231001 0 0 0
78 1 3.520713961774796 5.281052942077483 5.281018123305401 0 0 0
91 1 0.00020729360847890208 7.041740445107863 3.5206179014715775 0 0 0
92 1 1.7604686905245073 7.041589143123619 5.2810283167300245 0 0 0
93 1 3.520774018663752 7.041667463161139 3.520613359272094 0 0 0
252 1 5.050844003586595e-05 8.802773845357972 1.7605059214448593 0 0 0
254 1 3.5210197807712063 8.802776610187593 1.7604786685637315 0 0 0
301 1 1.7605263472771726 8.802706453577004 3.5209392772605916 0 0 0
302 1 8.967272669235827e-05 8.802615137846946 5.281389485734815 0 0 0
304 1 3.5209205499590066 8.80261989327045 5.281383141300697 0 0 0
26 1 5.280207532091964 5.280207532091964 1.4947200893050944e-16 0 0 0
32 1 7.041667906462312 5.2811364973146855 1.7602827234987386 0 0 0
44 1 5.2811364973146855 7.041667906462312 1.7602827234987397 0 0 0
45 1 7.041636235455737 7.041636235455737 5.325050755775302e-16 0 0 0
76 1 5.281028009878881 5.281028009878881 3.5205227292031314 0 0 0
82 1 7.04189295906211 5.28135579985187 5.281322991207921 0 0 0
94 1 5.2813557998518705 7.04189295906211 5.281322991207921 0 0 0
95 1 7.041905796380916 7.041905796380917 3.5208334879910375 0 0 0
30 1 8.802708960098567 5.281460782143953 2.1781177713290815e-16 0 0 0
46 1 8.802625262250737 7.0419619749008735 1.7604137400541118 0 0 0
80 1 8.802629501277051 5.281419096128701 3.5208827045108246 0 0 0
96 1 8.802698107307773 7.042040716368771 5.28147007843212 0 0 0
253 1 5.281460782143952 8.802708960098567 3.4840524032828076e-16 0 0 0
256 1 7.0419619749008735 8.802625262250736 1.7604137400541118 0 0 0
303 1 5.281419096128701 8.80262950127705 3.520882704510824 0 0 0
306 1 7.042040716368771 8.802698107307771 5.28147007843212 0 0 0
255 1 8.802639037769236 8.802639037769238 4.776362676022615e-16 0 0 0
305 1 8.80270326167657 8.802703261676568 3.520926306346875 0 0 0
34 1 12.324473884412527 5.281106140589776 5.199427801956382e-16 0 0 0
36 1 10.563545628362228 5.281440249180652 1.760443185023884 0 0 0
47 1 10.563531945289284 7.041971116459177 5.383212142935234e-16 0 0 0
48 1 12.324296526766929 7.041867348571897 1.760391728590342 0 0 0
84 1 12.32435118899865 5.281286401688724 3.520782216284782 0 0 0
86 1 10.563477766997813 5.281436917325655 5.2814404812753395 0 0 0
97 1 10.563468195441835 7.042018230869839 3.5209145608201515 0 0 0
98 1 12.324168880202315 7.041994995136511 5.281430113136055 0 0 0
257 1 12.324192758879647 8.80263193004954 5.816422998304962e-19 0 0 0
258 1 10.563463288694216 8.80270058664461 1.7604308612590587 0 0 0
307 1 12.324145644468986 8.802695679896988 3.520914560820151 0 0 0
308 1 10.563435140585137 8.802728734753689 5.281500032496786 0 0 0
100 1 15.84533425656718 7.041797988962574 5.28124067161921 0 0 0
38 1 15.846334870007853 5.280534520937355 8.102297620876667e-16 0 0 0
40 1 14.085276739799689 5.280887135539139 1.7601464243434493 0 0 0
49 1 14.08505773474905 7.041689990926299 8.722150754939377e-16 0 0 0
50 1 15.845466173957163 7.041813582214907 1.7603050892666463 0 0 0
88 1 15.845685065093324 5.280827139832827 3.52029031361343 0 0 0
90 1 14.08493655177689 5.281227323561936 5.2811817552673945 0 0 0
99 1 14.084877473650101 7.041812686340177 3.520782216284782 0 0 0
259 1 15.845167022208825 8.802703242291445 9.46162902914685e-17 0 0 0
260 1 14.084723626158173 8.802618246976598 1.7604431850238835 0 0 0
309 1 15.845223196436208 8.802623925300294 3.5209214854027158 0 0 0
310 1 14.08472695801317 8.802686108341012 5.2814404812753395 0 0 0
101 1 5.524386727806937e-05 5.524386727831321e-05 7.042282399647699 0 0 0
102 1 1.7605051084362529 1.7605051084362524 7.042282399647699 0 0 0
103 1 1.7605518540713487 8.498232181711251e-06 8.80280176151765 0 0 0
104 1 8.498232181466489e-06 1.760551854071349 8.802801761517648 0 0 0
105 1 3.5209298312145796 5.674122987676298e-05 7.04209498443104 0 0 0
108 1 3.521045354866541 1.7605217922124636 8.802801761517648 0 0 0
121 1 5.674122987673035e-05 3.5209298312145796 7.04209498443104 0 0 0
123 1 1.7605217922124639 3.5210453548665415 8.802801761517648 0 0 0
125 1 3.5209099258495526 3.5209099258495526 7.042012201907906 0 0 0
151 1 5.524386727749505e-05 5.524386727786417e-05 10.563321123387597 0 0 0
152 1 1.7605051084362524 1.7605051084362526 10.563321123387597 0 0 0
153 1 3.5209298312145796 5.6741229876512544e-05 10.563508538604255 0 0 0
161 1 5.67412298764572e-05 3.5209298312145796 10.563508538604253 0 0 0
163 1 3.520909925849552 3.520909925849552 10.563591321127388 0 0 0
106 1 5.281345311095194 1.7604668211769798 7.0419392385073065 0 0 0
107 1 5.281494507535958 4.036279255230914e-05 8.802801761517648 0 0 0
109 1 7.041861513963834 9.140007812904775e-05 7.041876172831099 0 0 0
112 1 7.042013444382633 1.760484428848227 8.802801761517648 0 0 0
127 1 5.281483059107875 3.520964943419367 8.802801761517648 0 0 0
129 1 7.041940948049272 3.5209105092572153 7.041956033273513 0 0 0
154 1 5.281345311095194 1.7604668211769794 10.563664284527988 0 0 0
155 1 7.041861513963833 9.140007813066783e-05 10.563727350204196 0 0 0
165 1 7.041940948049272 3.5209105092572157 10.563647489761781 0 0 0
110 1 8.802626627870282 1.7604855417639116 7.041974293303651 0 0 0
111 1 8.802689350705466 7.454781861138861e-05 8.802801761517648 0 0 0
131 1 8.802699290351418 3.5209394849712137 8.802801761517648 0 0 0
156 1 8.80262662787028 1.7604855417639116 10.563629229731642 0 0 0
113 1 10.563537247468544 7.481053961913454e-05 7.041974293303651 0 0 0
114 1 12.324302361374992 1.7604689522254 7.041876172831099 0 0 0
115 1 12.324150430956191 7.592345530208336e-05 8.802801761517648 0 0 0
116 1 10.56347452463336 1.7604858044849194 8.802801761517648 0 0 0
133 1 10.563474767456025 3.5209277985296348 7.04204183445354 0 0 0
135 1 12.324164997124685 3.5209298224685903 8.802801761517648 0 0 0
157 1 10.563537247468544 7.481053961936309e-05 10.563629229731642 0 0 0
158 1 12.324302361374992 1.7604689522254005 10.563727350204195 0 0 0
167 1 10.563474767456025 3.5209277985296348 10.563561688581755 0 0 0
117 1 14.084818564243632 9.353112655028418e-05 7.041939238507307 0 0 0
118 1 15.845234044124245 1.7605036110736525 7.042094984431041 0 0 0
119 1 15.845118520472283 3.8560091067110196e-05 8.802801761517648 0 0 0
120 1 14.084669367802867 1.7605199895109782 8.802801761517648 0 0 0
137 1 14.084838960023706 3.5208726874504577 7.041861954761049 0 0 0
139 1 15.845151441941349 3.5210124333974764 8.802801761517648 0 0 0
159 1 14.084818564243633 9.353112654947231e-05 10.563664284527988 0 0 0
160 1 15.845234044124245 1.760503611073653 10.563508538604255 0 0 0
169 1 14.084838960023708 3.520872687450457 10.563741568274247 0 0 0
122 1 1.7604668211769798 5.281345311095194 7.0419392385073065 0 0 0
124 1 4.036279255197822e-05 5.281494507535957 8.802801761517648 0 0 0
128 1 3.5209649434193673 5.281483059107874 8.802801761517648 0 0 0
141 1 9.14000781307627e-05 7.041861513963835 7.0418761728311 0 0 0
142 1 1.760484428848227 7.042013444382634 8.802801761517648 0 0 0
143 1 3.5209105092572157 7.041940948049272 7.041956033273514 0 0 0
162 1 1.7604668211769794 5.281345311095193 10.563664284527988 0 0 0
171 1 9.140007813072492e-05 7.041861513963834 10.563727350204196 0 0 0
172 1 3.520910509257216 7.041940948049272 10.563647489761781 0 0 0
351 1 1.7604855417639114 8.80262662787028 7.041974293303652 0 0 0
352 1 7.454781861189636e-05 8.802689350705466 8.802801761517648 0 0 0
354 1 3.520939484971214 8.802699290351416 8.802801761517648 0 0 0
401 1 1.7604855417639118 8.80262662787028 10.563629229731642 0 0 0
126 1 5.281394680348271 5.281394680348271 7.041954350231866 0 0 0
132 1 7.042042169275371 5.281462882353122 8.802801761517648 0 0 0
144 1 5.281462882353122 7.042042169275371 8.802801761517648 0 0 0
145 1 7.042042220980577 7.042042220980577 7.042078451979903 0 0 0
164 1 5.281394680348271 5.281394680348271 10.563649172803428 0 0 0
173 1 7.042042220980578 7.042042220980578 10.563525071055391 0 0 0
130 1 8.802702544717077 5.281460341667323 7.0420788573619975 0 0 0
146 1 8.80273280031392 7.04207871070419 8.802801761517648 0 0 0
166 1 8.802702544717077 5.281460341667323 10.563524665673299 0 0 0
353 1 5.281460341667323 8.802702544717077 7.042078857361997 0 0 0
356 1 7.04207871070419 8.80273280031392 8.802801761517648 0 0 0
402 1 5.281460341667323 8.802702544717077 10.563524665673297 0 0 0
355 1 8.802735465015557 8.802735465015557 7.042130448725481 0 0 0
403 1 8.802735465015557 8.802735465015557 10.563473074309815 0 0 0
134 1 12.324169746677917 5.28142443134564 7.042031862092025 0 0 0
136 1 10.563442817403988 5.281469185234965 8.802801761517648 0 0 0
147 1 10.563435444656912 7.042068140530738 7.042114476993047 0 0 0
148 1 12.324105020704053 7.042058854634772 8.802801761517648 0 0 0
168 1 12.324169746677917 5.28142443134564 10.563571660943271 0 0 0
174 1 10.563435444656912 7.042068140530737 10.56348904604225 0 0 0
357 1 12.324095734808088 8.802728430681912 7.042114476993047 0 0 0
358 1 10.563423433369346 8.80274044196948 8.802801761517648 0 0 0
404 1 12.324095734808088 8.802728430681912 10.563489046042251 0 0 0
138 1 15.845291187888368 5.2813249153151185 7.041861954761049 0 0 0
140 1 14.084730452359354 5.281433422979471 8.802801761517648 0 0 0
149 1 14.084739443993184 7.04199412866091 7.042031862092024 0 0 0
150 1 15.845234052870236 7.041998878214142 8.802801761517648 0 0 0
170 1 15.84529118788837 5.281324915315118 10.563741568274247 0 0 0
175 1 14.084739443993184 7.04199412866091 10.563571660943271 0 0 0
359 1 15.84523607680919 8.8026891078828 7.042041834453539 0 0 0
360 1 14.084694690103863 8.802721057934837 8.802801761517648 0 0 0
405 1 15.84523607680919 8.8026891078828 10.563561688581755 0 0 0
176 1 1.7603201863817493 0.00024016592178133177 12.324167406860997 0 0 0
177 1 0.00024016592178092294 1.7603201863817495 12.324167406860996 0 0 0
179 1 3.5204835610692906 1.7603452620234699 12.324485405430572 0 0 0
186 1 1.7603452620234694 3.5204835610692906 12.324485405430574 0 0 0
201 1 0.0006886856219321665 0.0006886856219302243 14.08630477979225 0 0 0
202 1 1.7598716666815983 1.7598716666815992 14.08630477979225 0 0 0
203 1 1.7557622541211195 0.004798098182409548 15.854879638850246 0 0 0
204 1 0.00479809818240945 1.7557622541211197 15.854879638850248 0 0 0
205 1 3.5193489129166533 0.0006611177948387849 14.086580135958995 0 0 0
208 1 3.515491433128069 1.7599169275336355 15.850417320820645 0 0 0
221 1 0.0006611177948388556 3.5193489129166537 14.086580135958995 0 0 0
223 1 1.759916927533635 3.515491433128069 15.850417320820645 0 0 0
225 1 3.5200492993889507 3.5200492993889503 14.085845802552294 0 0 0
178 1 5.280812604830796 0.00021020169809693942 12.324831660804294 0 0 0
181 1 7.041589143123619 1.7604686905245077 12.324575206305271 0 0 0
188 1 5.281052942077483 3.5207139617747965 12.324585399729896 0 0 0
206 1 5.280194470810699 1.760355427500556 14.085951890159837 0 0 0
207 1 5.280696414092105 0.0006517077762516747 15.845920767598233 0 0 0
209 1 7.0417404451078625 0.00020729360847899654 14.084985621563717 0 0 0
212 1 7.042120973642616 1.7605218702215575 15.8453276306954 0 0 0
227 1 5.280397481225781 3.520131657981381 15.845859280559527 0 0 0
229 1 7.041667463161139 3.520774018663752 14.0849901637632 0 0 0
180 1 8.802615137846946 8.967272669250777e-05 12.32421403730048 0 0 0
190 1 8.80261989327045 3.520920549959007 12.3242203817346 0 0 0
210 1 8.802706453577002 1.7605263472771722 14.084664245774704 0 0 0
211 1 8.802773845357972 5.050844003543022e-05 15.845097601590435 0 0 0
231 1 8.80277661018759 3.5210197807712063 15.845124854471564 0 0 0
182 1 12.324574732215208 9.166177902264033e-05 12.324575206305271 0 0 0
183 1 10.56354873749188 1.7604706795768381 12.32421403730048 0 0 0
192 1 12.32436588637625 3.520829618771645 12.324362851416085 0 0 0
213 1 10.563457421761823 3.400502635876189e-05 14.084664245774704 0 0 0
214 1 12.324423430230961 1.7603530586950513 14.084985621563717 0 0 0
215 1 12.32404290169621 3.8482081972669736e-05 15.8453276306954 0 0 0
216 1 10.563390029980853 1.7605098438634945 15.845097601590435 0 0 0
233 1 10.563539950038532 3.520940678902616 14.084682037632579 0 0 0
235 1 12.324350293123919 3.5206977013816627 15.845298433768649 0 0 0
184 1 15.845680314269533 0.0002150902800608133 12.324485405430572 0 0 0
185 1 14.08535127050803 1.7603501506054329 12.324831660804294 0 0 0
194 1 15.845648240393452 3.5205156349453732 12.324785336681543 0 0 0
217 1 14.085969404528127 0.0002049248029731097 14.085951890159835 0 0 0
218 1 15.846814962422172 1.7598992345086923 14.086580135958995 0 0 0
219 1 15.850672442210756 0.0006434247698959483 15.850417320820645 0 0 0
220 1 14.085467461246719 1.759908644527279 15.845920767598233 0 0 0
237 1 14.085336735505997 3.520478810245503 14.085313209421866 0 0 0
239 1 15.846646866667639 3.519517008671187 15.846403695406964 0 0 0
187 1 0.00021020169809829312 5.280812604830797 12.324831660804293 0 0 0
189 1 3.5207139617747965 5.281052942077484 12.324585399729896 0 0 0
196 1 1.7604686905245075 7.041589143123619 12.324575206305271 0 0 0
222 1 1.7603554275005557 5.280194470810699 14.085951890159837 0 0 0
224 1 0.0006517077762517313 5.280696414092105 15.845920767598233 0 0 0
228 1 3.520131657981381 5.280397481225781 15.845859280559527 0 0 0
241 1 0.00020729360847933945 7.041740445107863 14.084985621563717 0 0 0
242 1 1.7605218702215568 7.042120973642615 15.8453276306954 0 0 0
243 1 3.5207740186637526 7.041667463161139 14.0849901637632 0 0 0
426 1 8.967272669242739e-05 8.802615137846946 12.32421403730048 0 0 0
427 1 3.5209205499590066 8.80261989327045 12.3242203817346 0 0 0
451 1 1.7605263472771726 8.802706453577002 14.084664245774704 0 0 0
452 1 5.0508440035126235e-05 8.802773845357972 15.845097601590435 0 0 0
454 1 3.5210197807712063 8.802776610187593 15.845124854471564 0 0 0
191 1 7.04189295906211 5.2813557998518705 12.324280531827375 0 0 0
197 1 5.2813557998518705 7.04189295906211 12.324280531827375 0 0 0
226 1 5.28102800987888 5.28102800987888 14.085080793832164 0 0 0
232 1 7.041667906462312 5.2811364973146855 15.845320799536557 0 0 0
244 1 5.2811364973146855 7.041667906462312 15.845320799536555 0 0 0
245 1 7.041905796380916 7.041905796380916 14.084770035044258 0 0 0
198 1 8.802698107307771 7.04204071636877 12.324133444603174 0 0 0
230 1 8.80262950127705 5.281419096128701 14.08472081852447 0 0 0
246 1 8.802625262250736 7.0419619749008735 15.845189782981183 0 0 0
428 1 7.04204071636877 8.802698107307773 12.324133444603174 0 0 0
453 1 5.281419096128701 8.802629501277051 14.08472081852447 0 0 0
456 1 7.0419619749008735 8.802625262250737 15.845189782981183 0 0 0
455 1 8.802703261676568 8.80270326167657 14.084677216688421 0 0 0
193 1 10.563477766997813 5.281436917325655 12.324163041759956 0 0 0
199 1 12.324168880202315 7.041994995136511 12.324173409899242 0 0 0
234 1 12.32435118899865 5.281286401688725 14.084821306750515 0 0 0
236 1 10.563545628362228 5.281440249180653 15.845160338011413 0 0 0
247 1 10.563468195441837 7.04201823086984 14.084688962215147 0 0 0
248 1 12.324296526766927 7.0418673485718974 15.845211794444953 0 0 0
429 1 10.563435140585137 8.802728734753689 12.32410349053851 0 0 0
457 1 12.324145644468986 8.802695679896988 14.084688962215145 0 0 0
458 1 10.563463288694217 8.802700586644608 15.845172661776237 0 0 0
195 1 14.08493655177689 5.281227323561937 12.324421767767904 0 0 0
200 1 15.845334256567181 7.041797988962573 12.324362851416085 0 0 0
238 1 15.845685065093324 5.280827139832827 14.085313209421866 0 0 0
240 1 14.085276739799689 5.280887135539138 15.845457098691845 0 0 0
249 1 14.084877473650101 7.041812686340175 14.084821306750515 0 0 0
250 1 15.845466173957165 7.041813582214907 15.845298433768649 0 0 0
430 1 14.08472695801317 8.802686108341012 12.324163041759956 0 0 0
459 1 15.845223196436208 8.802623925300294 14.084682037632579 0 0 0
460 1 14.084723626158173 8.802618246976598 15.84516033801141 0 0 0
251 1 1.7605636368947608 8.802893821504556 1.9939225268248162e-19 0 0 0
262 1 1.7603177680067752 12.323931912942768 7.421738882965647e-19 0 0 0
263 1 1.7605098438634958 10.563390029980853 1.7605059214448595 0 0 0
264 1 3.848208197216088e-05 12.32404290169621 1.7602758923398965 0 0 0
265 1 3.52099685313 10.56346063304738 1.5214892317993723e-19 0 0 0
268 1 3.5206977013816623 12.324350293123919 1.7603050892666467 0 0 0
311 1 3.400502635870322e-05 10.563457421761823 3.5209392772605916 0 0 0
312 1 1.760353058695051 12.324423430230961 3.5206179014715784 0 0 0
313 1 1.7604706795768381 10.56354873749188 5.281389485734815 0 0 0
314 1 9.166177902271206e-05 12.324574732215206 5.2810283167300245 0 0 0
315 1 3.520940678902616 10.563539950038532 3.5209214854027153 0 0 0
318 1 3.5208296187716446 12.32436588637625 5.281240671619211 0 0 0
266 1 5.281106140589777 12.324473884412528 4.933234275226306e-16 0 0 0
267 1 5.281440249180652 10.563545628362228 1.760443185023884 0 0 0
269 1 7.041971116459177 10.563531945289284 4.0754952486646076e-16 0 0 0
272 1 7.041867348571897 12.324296526766929 1.7603917285903417 0 0 0
316 1 5.281286401688725 12.32435118899865 3.5207822162847817 0 0 0
317 1 5.281436917325655 10.563477766997813 5.2814404812753395 0 0 0
319 1 7.042018230869839 10.563468195441837 3.5209145608201515 0 0 0
322 1 7.041994995136511 12.324168880202315 5.281430113136054 0 0 0
270 1 8.80263193004954 12.324192758879649 3.2948340120785906e-16 0 0 0
271 1 8.80270058664461 10.563463288694216 1.7604308612590587 0 0 0
320 1 8.802695679896988 12.324145644468988 3.5209145608201515 0 0 0
321 1 8.802728734753689 10.563435140585137 5.281500032496786 0 0 0
273 1 10.563524837569588 10.563524837569588 0 0 0 0
274 1 12.324527639883089 12.324527639883089 3.3157171474367697e-16 0 0 0
275 1 12.324201900437952 10.563538613088088 1.7604137400541116 0 0 0
276 1 10.563538613088088 12.324201900437952 1.7604137400541122 0 0 0
323 1 10.563460613662256 10.563460613662258 3.5209263063468748 0 0 0
324 1 12.324258078957907 12.324258078957909 3.5208334879910375 0 0 0
325 1 12.324123158970055 10.563465768031055 5.28147007843212 0 0 0
326 1 10.563465768031055 12.324123158970055 5.28147007843212 0 0 0
261 1 17.605600238444065 10.56327005383427 7.87908825891411e-19 -1 0 0
277 1 14.084703093194872 10.563454915240259 1.1175529577597666e-16 0 0 0
278 1 15.845378404844471 12.324113105886726 0 0 0 0
279 1 15.845144094567619 10.563387265151235 1.7604786685637306 0 0 0
280 1 14.085027378024138 12.324495968876512 1.7602827234987397 0 0 0
327 1 14.084744779210123 10.563534374061774 3.5208827045108237 0 0 0
328 1 15.845389856675073 12.324496412177687 3.5206133592720934 0 0 0
329 1 15.845243325379817 10.563543982068376 5.281383141300697 0 0 0
330 1 14.084808075486954 12.324270916276715 5.281322991207921 0 0 0
281 1 0.00018410083973191584 14.08536606920172 4.959901153025243e-19 0 0 0
282 1 1.7558157078668513 15.85039322313971 5.200397907907022e-16 0 0 0
283 1 1.759908644527279 14.08546746124672 1.759682755437062 0 0 0
284 1 0.0006434247698952016 15.850672442210756 1.7551862022146514 0 0 0
285 1 3.5198290053309726 14.08562935440147 0 0 0 0
288 1 3.519517008671187 15.846646866667639 1.7591998276283292 0 0 0
331 1 0.0002049248029731425 14.085969404528125 3.519651632875459 0 0 0
332 1 1.7598992345086928 15.846814962422172 3.5190233870763 0 0 0
333 1 1.7603501506054335 14.08535127050803 5.280771862231002 0 0 0
334 1 0.0002150902800587091 15.845680314269535 5.2811181176047235 0 0 0
335 1 3.520478810245502 14.085336735505997 3.52029031361343 0 0 0
338 1 3.520515634945374 15.845648240393452 5.280818186353752 0 0 0
341 1 8.802686108341012 14.084726958013169 5.2814404812753395 0 0 0
340 1 8.802623925300294 15.84522319643621 3.5209214854027158 0 0 0
291 1 8.802618246976598 14.084723626158173 1.760443185023883 0 0 0
286 1 5.280534520937355 15.846334870007853 0 0 0 0
287 1 5.280887135539139 14.085276739799689 1.76014642434345 0 0 0
289 1 7.041689990926298 14.085057734749048 8.991261346273258e-17 0 0 0
292 1 7.041813582214906 15.845466173957165 1.7603050892666463 0 0 0
336 1 5.2808271398328275 15.845685065093324 3.520290313613431 0 0 0
337 1 5.281227323561937 14.08493655177689 5.2811817552673945 0 0 0
339 1 7.041812686340176 14.084877473650101 3.520782216284782 0 0 0
342 1 7.041797988962572 15.845334256567181 5.281240671619211 0 0 0
290 1 8.802703242291445 15.845167022208825 1.2060633391310374e-16 0 0 0
346 1 10.563543982068376 15.845243325379819 5.281383141300696 0 0 0
345 1 12.324270916276715 14.084808075486954 5.281322991207921 0 0 0
344 1 12.324496412177686 15.845389856675073 3.520613359272093 0 0 0
343 1 10.563534374061774 14.084744779210123 3.5208827045108246 0 0 0
296 1 10.563387265151235 15.84514409456762 1.7604786685637308 0 0 0
295 1 12.324495968876514 14.08502737802414 1.7602827234987397 0 0 0
294 1 12.324113105886727 15.84537840484447 3.4577985952241837e-17 0 0 0
293 1 10.563454915240259 14.084703093194872 1.1915151691231576e-18 0 0 0
13 1 10.56327005383427 17.605600238444065 1.2002779661855365e-18 0 -1 0
350 1 14.08511093326134 15.845449913564028 5.281018123305402 0 0 0
349 1 15.84544991356403 14.085110933261342 5.281018123305402 0 0 0
348 1 15.846114575949876 15.846114575949874 3.519757720483001 0 0 0
347 1 14.085135865459945 14.085135865459945 3.520522729203131 0 0 0
300 1 14.085766394113046 15.846032217357443 1.7597442424757688 0 0 0
299 1 15.846032217357445 14.085766394113044 1.7597442424757694 0 0 0
298 1 15.850629894745092 15.850629894745092 2.6807012926880195e-19 0 0 0
297 1 14.08595634324686 14.085956343246862 3.8401992387795954e-16 0 0 0
361 1 7.481053961886044e-05 10.563537247468544 7.041974293303652 0 0 0
362 1 1.7604689522254007 12.324302361374992 7.041876172831099 0 0 0
363 1 1.760485804484919 10.563474524633358 8.802801761517648 0 0 0
364 1 7.59234553017163e-05 12.324150430956191 8.802801761517648 0 0 0
365 1 3.5209277985296348 10.563474767456025 7.04204183445354 0 0 0
368 1 3.5209298224685908 12.324164997124683 8.802801761517648 0 0 0
406 1 7.481053961843465e-05 10.563537247468545 10.563629229731642 0 0 0
407 1 1.7604689522254 12.32430236137499 10.563727350204196 0 0 0
408 1 3.5209277985296348 10.563474767456025 10.563561688581755 0 0 0
366 1 5.28142443134564 12.324169746677917 7.042031862092025 0 0 0
367 1 5.281469185234965 10.563442817403986 8.802801761517648 0 0 0
369 1 7.042068140530737 10.563435444656912 7.042114476993046 0 0 0
372 1 7.042058854634773 12.324105020704055 8.802801761517648 0 0 0
409 1 5.28142443134564 12.324169746677917 10.563571660943271 0 0 0
410 1 7.042068140530738 10.563435444656912 10.56348904604225 0 0 0
370 1 8.802728430681913 12.32409573480809 7.042114476993047 0 0 0
371 1 8.80274044196948 10.563423433369346 8.802801761517648 0 0 0
411 1 8.802728430681912 12.324095734808088 10.56348904604225 0 0 0
373 1 10.563428410323269 10.563428410323269 7.042130448725482 0 0 0
374 1 12.324121654358247 12.324121654358247 7.042078451979903 0 0 0
375 1 12.324085164634635 10.563431075024907 8.802801761517648 0 0 0
376 1 10.563431075024905 12.324085164634635 8.802801761517648 0 0 0
412 1 10.563428410323269 10.563428410323269 10.563473074309815 0 0 0
413 1 12.324121654358247 12.324121654358247 10.563525071055391 0 0 0
377 1 14.084703533671503 10.563461330621749 7.0420788573619975 0 0 0
378 1 15.84525336608161 12.324222927289552 7.041956033273514 0 0 0
379 1 15.84522439036761 10.56346458498741 8.802801761517648 0 0 0
380 1 14.084700992985704 12.324121706063455 8.802801761517648 0 0 0
414 1 14.084703533671503 10.563461330621749 10.563524665673297 0 0 0
415 1 15.84525336608161 12.324222927289552 10.563647489761781 0 0 0
381 1 9.353112654924094e-05 14.084818564243633 7.0419392385073065 0 0 0
382 1 1.760503611073653 15.845234044124245 7.042094984431041 0 0 0
383 1 1.760519989510978 14.084669367802869 8.802801761517648 0 0 0
384 1 3.856009106760577e-05 15.845118520472282 8.802801761517648 0 0 0
385 1 3.520872687450457 14.084838960023706 7.041861954761049 0 0 0
388 1 3.5210124333974755 15.845151441941349 8.802801761517648 0 0 0
416 1 9.353112655112477e-05 14.084818564243633 10.563664284527988 0 0 0
417 1 1.7605036110736523 15.845234044124245 10.563508538604253 0 0 0
418 1 3.5208726874504563 14.084838960023706 10.563741568274247 0 0 0
421 1 8.8026891078828 15.84523607680919 10.563561688581755 0 0 0
391 1 8.802721057934837 14.084694690103861 8.802801761517648 0 0 0
390 1 8.8026891078828 15.845236076809192 7.042041834453541 0 0 0
386 1 5.281324915315119 15.84529118788837 7.041861954761048 0 0 0
387 1 5.281433422979471 14.084730452359352 8.802801761517648 0 0 0
389 1 7.041994128660909 14.084739443993184 7.042031862092026 0 0 0
392 1 7.041998878214143 15.845234052870236 8.802801761517646 0 0 0
419 1 5.2813249153151185 15.84529118788837 10.563741568274247 0 0 0
420 1 7.041994128660909 14.084739443993184 10.563571660943271 0 0 0
423 1 12.324222927289552 15.84525336608161 10.563647489761781 0 0 0
422 1 10.563461330621749 14.084703533671503 10.563524665673297 0 0 0
396 1 10.563464584987408 15.845224390367612 8.802801761517648 0 0 0
395 1 12.324121706063455 14.084700992985704 8.802801761517648 0 0 0
394 1 12.324222927289552 15.84525336608161 7.041956033273514 0 0 0
393 1 10.563461330621749 14.084703533671503 7.0420788573619975 0 0 0
425 1 15.845253949489273 15.845253949489274 10.563591321127388 0 0 0
424 1 14.084769194990555 14.084769194990555 10.563649172803427 0 0 0
400 1 14.08468081623095 15.845198931919459 8.80280176151765 0 0 0
399 1 15.845198931919459 14.08468081623095 8.802801761517648 0 0 0
398 1 15.845253949489274 15.845253949489273 7.042012201907904 0 0 0
397 1 14.084769194990555 14.084769194990555 7.041954350231866 0 0 0
431 1 1.7604706795768377 10.56354873749188 12.324214037300479 0 0 0
432 1 9.166177902280502e-05 12.324574732215204 12.324575206305271 0 0 0
434 1 3.5208296187716446 12.32436588637625 12.324362851416085 0 0 0
461 1 3.400502635618253e-05 10.563457421761823 14.084664245774704 0 0 0
462 1 1.7603530586950504 12.324423430230961 14.084985621563717 0 0 0
463 1 1.760509843863495 10.563390029980853 15.845097601590435 0 0 0
464 1 3.848208197314085e-05 12.32404290169621 15.8453276306954 0 0 0
465 1 3.520940678902616 10.56353995003853 14.084682037632579 0 0 0
468 1 3.5206977013816614 12.324350293123919 15.845298433768649 0 0 0
433 1 5.281436917325655 10.563477766997813 12.324163041759956 0 0 0
436 1 7.041994995136511 12.324168880202315 12.324173409899242 0 0 0
466 1 5.281286401688724 12.32435118899865 14.084821306750515 0 0 0
467 1 5.281440249180652 10.563545628362228 15.84516033801141 0 0 0
469 1 7.04201823086984 10.563468195441837 14.084688962215145 0 0 0
472 1 7.0418673485718974 12.324296526766929 15.845211794444953 0 0 0
435 1 8.802728734753689 10.563435140585137 12.32410349053851 0 0 0
470 1 8.802695679896988 12.324145644468986 14.084688962215145 0 0 0
471 1 8.802700586644608 10.563463288694216 15.845172661776237 0 0 0
437 1 12.324123158970053 10.563465768031055 12.324133444603175 0 0 0
438 1 10.563465768031055 12.324123158970055 12.324133444603174 0 0 0
473 1 10.563460613662258 10.563460613662256 14.084677216688421 0 0 0
474 1 12.324258078957909 12.324258078957909 14.084770035044256 0 0 0
475 1 12.32420190043795 10.563538613088088 15.845189782981183 0 0 0
476 1 10.56353861308809 12.324201900437952 15.845189782981183 0 0 0
439 1 15.845243325379819 10.563543982068376 12.3242203817346 0 0 0
440 1 14.084808075486954 12.324270916276715 12.324280531827375 0 0 0
477 1 14.084744779210123 10.563534374061776 14.084720818524472 0 0 0
478 1 15.845389856675073 12.324496412177686 14.084990163763202 0 0 0
479 1 15.845144094567619 10.563387265151235 15.845124854471564 0 0 0
480 1 14.08502737802414 12.324495968876514 15.845320799536555 0 0 0
441 1 1.7603501506054329 14.08535127050803 12.324831660804294 0 0 0
442 1 0.0002150902800611408 15.845680314269535 12.324485405430572 0 0 0
444 1 3.5205156349453732 15.845648240393452 12.324785336681543 0 0 0
481 1 0.0002049248029751773 14.085969404528125 14.085951890159837 0 0 0
482 1 1.7598992345086915 15.846814962422172 14.086580135958995 0 0 0
483 1 1.7599086445272782 14.08546746124672 15.845920767598233 0 0 0
484 1 0.0006434247698956819 15.850672442210756 15.850417320820645 0 0 0
485 1 3.5204788102455016 14.085336735505997 14.085313209421866 0 0 0
488 1 3.5195170086711864 15.846646866667639 15.846403695406966 0 0 0
491 1 8.802618246976598 14.084723626158173 15.84516033801141 0 0 0
490 1 8.802623925300294 15.845223196436208 14.084682037632579 0 0 0
445 1 8.802686108341012 14.08472695801317 12.324163041759956 0 0 0
443 1 5.281227323561937 14.08493655177689 12.324421767767902 0 0 0
446 1 7.041797988962573 15.84533425656718 12.324362851416085 0 0 0
486 1 5.2808271398328275 15.845685065093324 14.085313209421866 0 0 0
487 1 5.280887135539139 14.085276739799687 15.845457098691845 0 0 0
489 1 7.041812686340176 14.084877473650101 14.084821306750515 0 0 0
492 1 7.041813582214906 15.845466173957165 15.845298433768649 0 0 0
496 1 10.563387265151235 15.845144094567619 15.845124854471566 0 0 0
495 1 12.324495968876514 14.08502737802414 15.845320799536557 0 0 0
494 1 12.324496412177687 15.845389856675071 14.0849901637632 0 0 0
493 1 10.563534374061774 14.084744779210125 14.08472081852447 0 0 0
448 1 10.563543982068376 15.845243325379817 12.3242203817346 0 0 0
447 1 12.324270916276715 14.084808075486956 12.324280531827375 0 0 0
500 1 14.085766394113046 15.846032217357443 15.845859280559525 0 0 0
499 1 15.846032217357445 14.085766394113046 15.845859280559527 0 0 0
498 1 15.846114575949876 15.846114575949876 14.085845802552294 0 0 0
497 1 14.085135865459945 14.085135865459945 14.085080793832164 0 0 0
450 1 14.08511093326134 15.845449913564028 12.324585399729894 0 0 0
449 1 15.845449913564028 14.08511093326134 12.324585399729894 0 0 0

Velocities

1 -7.559429388885154e-09 -7.559431245380611e-09 -1.9043903035544127e-16
2 7.559431335468535e-09 7.559432698190938e-09 -2.388664828486289e-16
3 2.1593680495486737e-09 -2.159365740641858e-09 -2.555402237197029e-09
4 -2.159364813386753e-09 2.159368519577042e-09 -2.5554006423608885e-09
5 6.685787307068893e-09 -1.8189010519917691e-09 -6.242864397963815e-16
8 -5.3067649382524425e-09 3.458145180510153e-09 2.5623588028128006e-11
21 -1.8189005585747157e-09 6.685786532867342e-09 -1.0010366538911566e-15
23 3.458145525319319e-09 -5.3067666254358e-09 2.562228906580777e-11
25 -4.971578436626812e-09 -4.971577879608431e-09 6.182583153847859e-16
51 -3.304640411273907e-09 -3.3046406292318275e-09 -3.755894241984867e-09
52 3.304639894454018e-09 3.3046420643730375e-09 -3.755894409924917e-09
53 -7.89470394770557e-12 7.889084135175764e-12 5.604990335540758e-09
54 7.890815723308068e-12 -7.892840739554841e-12 5.6049879546070766e-09
55 2.9208289810920994e-09 -7.813840341568066e-09 -1.119845425708762e-08
58 1.728597420330976e-09 -5.2372116658788705e-09 2.5068443863547535e-09
71 -7.813840488157126e-09 2.920825601234929e-09 -1.119845254037537e-08
73 -5.2372109592865394e-09 1.7285959111818068e-09 2.506844330352332e-09
75 5.356393126088026e-09 5.35639264229814e-09 -2.494727225698838e-10
6 1.6140687584774313e-08 -6.30808253840305e-10 1.0168476595448205e-15
7 8.179309146952713e-09 -5.08917529216383e-09 2.778657382763434e-09
9 5.015277283535212e-09 1.811757122371809e-09 4.3712336394282115e-16
12 5.641198449865712e-09 -5.590736122106718e-09 -3.4506066886945486e-10
27 -2.55572879904618e-09 4.341522707152489e-09 5.348661415720995e-09
29 2.839838272155108e-09 1.3383274329292312e-09 7.583239202125666e-16
56 -3.31552029672219e-09 -3.765600068781699e-09 1.980267227266209e-11
57 2.707686381764093e-09 1.338581909970909e-09 -1.4674836501914945e-09
59 -1.7089325340010264e-09 2.3727517541093756e-09 2.5074804683161063e-09
62 4.161737817883254e-09 -3.527898174750403e-09 6.782305955876301e-09
77 -7.086588845287367e-09 -2.786158456117212e-09 -1.0544657114235269e-09
79 1.6019829499367238e-09 -4.649434034096434e-09 5.042355763388642e-09
11 3.589035226525161e-09 6.638569725333313e-09 1.135992725378154e-09
31 -3.495997236473571e-09 -5.444653738924502e-09 2.3462804288321243e-09
60 -1.1153843462003401e-09 -7.252092995951785e-11 5.35384014197645e-09
61 2.6670805751572003e-09 -1.241301081004103e-09 5.1259795543061335e-09
81 1.139660354603629e-09 3.861751909724773e-09 5.878812605101941e-09
10 -1.7766451954082406e-09 -1.0189919042079174e-09 1.2592767903848286e-15
14 -5.015278063648202e-09 -1.811759067427627e-09 -4.262833677113694e-16
15 -5.641198847564154e-09 5.5907372227551844e-09 -3.4506023072042596e-10
16 -3.5890351976625286e-09 -6.638569614241187e-09 1.1359941671607413e-09
33 -5.576128881176403e-09 1.9179196556916414e-09 -5.523327424377593e-16
35 -2.2378695401693225e-09 -1.905231450293562e-09 -6.480290494507809e-09
63 1.1153846346875154e-09 7.252442211633697e-11 5.3538409211307325e-09
64 1.7089271270144438e-09 -2.3727500128610584e-09 2.5074790422313193e-09
65 -4.161739095897289e-09 3.5278934222366263e-09 6.782304790405424e-09
66 -2.6670772098887724e-09 1.2412996464666545e-09 5.12597632508747e-09
83 -7.753900495446534e-09 2.021117194516604e-09 2.7507378078581057e-10
85 -1.180402673995746e-09 6.331341441465048e-09 -4.237828738653177e-09
17 -1.6140689109592983e-08 6.308053485397148e-10 -7.815693295911353e-16
18 -6.685788474564494e-09 1.8189020857895626e-09 -1.835435119317923e-16
19 5.306764179031724e-09 -3.458149394223347e-09 2.5625269836592004e-11
20 -8.179308754847321e-09 5.089180711527524e-09 2.7786560976569696e-09
37 -8.908433038759528e-09 2.598782253723622e-09 -1.7963792938965814e-16
39 -2.972114498464431e-09 2.9721113467536577e-09 6.353607703272843e-09
67 3.315522505043746e-09 3.765593816528942e-09 1.980183766665363e-11
68 -2.920828373406097e-09 7.813842786375476e-09 -1.1198450203969104e-08
69 -1.7285986432028315e-09 5.23721596084724e-09 2.5068437534581687e-09
70 -2.7076821270564336e-09 -1.3385772745915906e-09 -1.4674799146999023e-09
87 -3.717249211987652e-09 -4.95638346053578e-10 -2.3465511662726224e-09
89 1.3650621442026876e-09 -1.3650639386386239e-09 -7.90762386773104e-09
22 -6.308077177000464e-10 1.614068728767646e-08 5.876746088565491e-16
24 -5.089177030997101e-09 8.179312863142804e-09 2.7786570072237483e-09
28 4.341523174185634e-09 -2.555728686293194e-09 5.348660314462282e-09
41 1.8117569195079275e-09 5.015276964824582e-09 9.524338489223762e-16
42 -5.590734277011414e-09 5.641199572862199e-09 -3.450588965274178e-10
43 1.338329175526578e-09 2.8398386571269836e-09 2.5648132720575137e-16
72 -3.765597726186875e-09 -3.3155199393543122e-09 1.980119920767951e-11
74 1.3385720855629284e-09 2.7076868350003435e-09 -1.4674801251296707e-09
78 -2.7861590352707645e-09 -7.08658804840271e-09 -1.0544652218825754e-09
91 2.3727497955068997e-09 -1.7089318517882073e-09 2.507478565259693e-09
92 -3.5278931466241945e-09 4.1617400583969744e-09 6.782305645693803e-09
93 -4.649438024993313e-09 1.60198360063134e-09 5.042356561062603e-09
252 6.638565747752206e-09 3.5890354148987653e-09 1.1359945771148354e-09
254 -5.444655764619981e-09 -3.4960005710993315e-09 2.3462818263060426e-09
301 -7.251830238924178e-11 -1.115388427779375e-09 5.353839898056782e-09
302 -1.2413019745712006e-09 2.6670815623073386e-09 5.1259795669851265e-09
304 3.861750487012561e-09 1.139660382669029e-09 5.878812441596355e-09
26 -2.1820723311410087e-09 -2.18207060690388e-09 -6.021177172430403e-16
32 -3.938256994957702e-09 -5.35087319077942e-09 -3.905868193799824e-10
44 -5.350874466915507e-09 -3.938258472664101e-09 -3.9059011471053547e-10
45 7.140641447283201e-11 7.140759456252129e-11 -4.0316177661991547e-16
76 -4.076361397515831e-09 -4.076362695636712e-09 1.0045369961457356e-08
82 -4.632614409433317e-09 6.2314230442119944e-09 3.764116449306629e-09
94 6.2314209739820255e-09 -4.6326160166956936e-09 3.764117476441819e-09
95 -6.18599776011664e-09 -6.186002067679134e-09 1.0428226815809344e-08
30 -6.1129114910238825e-09 -7.766763642154529e-09 7.829665021857579e-16
46 -2.4579221711809998e-09 6.377372919009055e-10 -3.480585734405281e-09
80 1.9921641504215465e-09 -3.73469791590769e-09 6.419158892548969e-09
96 -1.9227450950090564e-09 1.781757324470878e-09 7.436558041216248e-10
253 -7.766762034936264e-09 -6.112911682648012e-09 -4.54028687410223e-16
256 6.377385370002073e-10 -2.4579183090136817e-09 -3.4805841610026756e-09
303 -3.73469804096435e-09 1.9921707764952725e-09 6.41916020602633e-09
306 1.7817586233558119e-09 -1.9227408341753394e-09 7.436544541107936e-10
255 -4.0581907033393325e-09 -4.058195806179854e-09 -1.0674504246559499e-15
305 -3.114406772271264e-09 -3.1144017460861735e-09 -8.615070738025176e-09
34 -5.953399804975466e-09 1.0836399871738782e-09 -6.9806568715005e-16
36 -6.783137662662756e-09 -4.627132105343095e-09 2.8366224334612547e-10
47 -5.552983250535091e-09 1.9273119832268355e-09 1.190693251541072e-15
48 -6.7256037039000395e-09 6.7256015854220275e-09 -4.176950205685656e-09
84 -7.08205251391982e-09 -3.781888821987338e-09 6.697742679764965e-10
86 5.51966341181977e-10 8.75381248891912e-09 2.788855858737433e-10
97 -1.1658358423422668e-09 -1.770416039230906e-09 3.020420079917966e-09
98 -1.4120709324767176e-09 1.4120691514262256e-09 -2.4918920737525095e-09
257 -1.927308083719644e-09 5.5529840239986876e-09 5.816422998304962e-16
258 1.268594850923175e-10 -1.2686014066279464e-10 -3.937504759986896e-09
307 1.7704150654505998e-09 1.1658409426596388e-09 3.020421626362383e-09
308 -2.130950091254984e-09 2.1309521618174933e-09 -5.7343952762989855e-09
100 -6.331336709229651e-09 1.18039544020241e-09 -4.237824158703768e-09
38 -2.5987831522717525e-09 8.908433456562521e-09 -1.5504596665817192e-15
40 -2.134220149519227e-09 2.1342174802328013e-09 -9.46991556900007e-09
49 -1.0836398758618276e-09 5.953402229094608e-09 -2.3314629697174727e-15
50 1.9052342610677342e-09 2.237870451849267e-09 -6.480292288283382e-09
88 4.956371611290794e-10 3.717252258882008e-09 -2.3465470482733227e-09
90 -2.311531251922248e-09 2.3115338245502228e-09 -9.328743273623999e-09
99 3.781889255396153e-09 7.082049208339471e-09 6.697740997930749e-10
259 -1.9179207859332678e-09 5.5761272872117065e-09 4.830092419257692e-18
260 4.627133220906948e-09 6.7831375396396044e-09 2.836612950772879e-10
309 -2.0211166676686134e-09 7.753907250037525e-09 2.7507164045936186e-10
310 -8.753816150644493e-09 -5.519636625856868e-10 2.788840843211209e-10
101 8.833446146171143e-09 8.83344382289669e-09 -7.263268960393312e-09
102 -8.833445436147558e-09 -8.833445295169236e-09 -7.263269552607925e-09
103 8.919195723588339e-10 -8.919181128784863e-10 -3.094881717639366e-15
104 -8.919185628695182e-10 8.919199657094853e-10 6.190065316054936e-16
105 -4.313305599308836e-09 1.9636326426372726e-09 -3.732947497308035e-09
108 4.593608891813222e-10 -3.432503672553467e-09 2.7215790157626207e-16
121 1.963631997510389e-09 -4.313304607040875e-09 -3.73294843150345e-09
123 -3.4325039605621893e-09 4.5935939023006305e-10 -1.0765068479420581e-15
125 -5.440282233198516e-09 -5.440282375989302e-09 4.912850649786569e-09
151 8.833444813065635e-09 8.833444875856836e-09 7.263269475703797e-09
152 -8.83344570180264e-09 -8.833445853950551e-09 7.2632694391762235e-09
153 -4.313305555210658e-09 1.963633448474397e-09 3.732947151610989e-09
161 1.963633386765721e-09 -4.313305377440616e-09 3.732950493952913e-09
163 -5.440280475684013e-09 -5.440280685481129e-09 -4.912849078704672e-09
106 -6.056798626899862e-09 -4.01642500996011e-09 2.909846732940901e-09
107 -6.488001543497691e-09 -4.94837722389574e-09 -1.6724195001679759e-16
109 3.020060328771489e-09 -3.2316125244742487e-09 7.2633149549483745e-09
112 -1.925462489704318e-09 -1.8739388289500503e-09 -1.80253011471173e-15
127 -6.18430383095013e-09 3.3219452932453997e-09 -5.3128068557379497e-17
129 -1.518723804647442e-09 -8.616809126521954e-11 4.424103859123139e-09
154 -6.056799543909299e-09 -4.016422532122699e-09 -2.9098449826361603e-09
155 3.0200621294714516e-09 -3.2316211848299563e-09 -7.263314951325805e-09
165 -1.5187245907243239e-09 -8.61682167910198e-11 -4.424100668456774e-09
110 -3.135762824420118e-10 6.417108109004397e-10 6.825672778099809e-09
111 -3.9803846648671174e-09 -4.169314369333638e-09 4.0995409408449663e-16
131 -1.040506280971413e-11 -5.675233422617612e-09 -2.7015005927486397e-16
156 -3.135711143787337e-10 6.41711656166613e-10 -6.825668578636331e-09
113 3.135741842196768e-10 -6.417135809584422e-10 6.825671184773071e-09
114 -3.0200604184377447e-09 3.2316170599310303e-09 7.263316032191057e-09
115 1.9254654935943346e-09 1.8739427783854917e-09 -5.43845293661488e-17
116 3.9803834539981185e-09 4.169314277561881e-09 -6.801373887867238e-16
133 2.808455009977731e-09 3.3542538097627215e-09 2.675044334125509e-09
135 -3.950326644900092e-10 6.504094859763176e-09 3.299321039549002e-16
157 3.1357353111948504e-10 -6.417140374021758e-10 -6.825667279945231e-09
158 -3.020059451174003e-09 3.2316160118009755e-09 -7.2633119264804275e-09
167 2.8084539600560188e-09 3.3542528389990493e-09 -2.6750440164826647e-09
117 6.056799830649457e-09 4.016423343578225e-09 2.9098463869855314e-09
118 4.313303599966606e-09 -1.963629142020127e-09 -3.7329524519516276e-09
119 -4.593588006569071e-10 3.4324986426304356e-09 -9.780937148996827e-16
120 6.487999912487743e-09 4.948377057257551e-09 3.045977031894382e-16
137 3.0689419139957166e-09 2.9759990574579776e-09 4.3344048223035704e-09
139 -2.265044137015824e-09 2.2650414970990957e-09 -1.4973286499698845e-16
159 6.056794775052098e-09 4.016425877754136e-09 -2.9098466121885903e-09
160 4.313304907336778e-09 -1.963630744403287e-09 3.732947557860484e-09
169 3.068937691287419e-09 2.9760016121568528e-09 -4.3344051501460936e-09
122 -4.0164243289170784e-09 -6.056798168253342e-09 2.9098477827501678e-09
124 -4.948376344818919e-09 -6.487998639529622e-09 -6.72729517551915e-16
128 3.3219450101755695e-09 -6.1843021285063765e-09 1.1618577413047175e-16
141 -3.2316215108611947e-09 3.020057016535613e-09 7.2633128755935884e-09
142 -1.87393838941164e-09 -1.925466919016399e-09 4.0301083623181366e-16
143 -8.616862125465725e-11 -1.5187249303856338e-09 4.4241011376950635e-09
162 -4.0164218317592975e-09 -6.056796994660575e-09 -2.9098461708388955e-09
171 -3.2316201850008255e-09 3.0200602080191786e-09 -7.263316246092454e-09
172 -8.616997864269991e-11 -1.518725507220394e-09 -4.424100738720704e-09
351 6.417129071605496e-10 -3.1357105613107377e-10 6.825668851234672e-09
352 -4.169318991732083e-09 -3.9803830390410286e-09 9.81716284214126e-16
354 -5.675234342537958e-09 -1.0402400016673036e-11 -6.496462511683775e-16
401 6.417109075022881e-10 -3.135708616821188e-10 -6.825668340452398e-09
126 -4.44091449225241e-10 -4.4409164176857355e-10 5.349720644603132e-09
132 -1.3920932001050264e-09 7.549158214770754e-09 5.561551898442593e-16
144 7.549159229322763e-09 -1.392094300416222e-09 -8.784730587524928e-17
145 5.106673559538902e-09 5.106673099823482e-09 2.685396407268978e-09
164 -4.4409082998972847e-10 -4.440914337485447e-10 -5.349720220187062e-09
173 5.106670402489978e-09 5.106671037374019e-09 -2.6853969044666166e-09
130 -3.843364334547496e-10 8.636797591261728e-09 9.921251430378111e-10
146 2.858641817292907e-09 6.3326664708040076e-09 4.356139600618031e-16
166 -3.843366783390202e-10 8.636796532057205e-09 -9.92129518719475e-10
353 8.636797349442254e-09 -3.8433676144821296e-10 9.921263701831662e-10
356 6.33266744498875e-09 2.8586415037609405e-09 -7.245138628886538e-16
402 8.636797099438025e-09 -3.8433706142336677e-10 -9.921245637286015e-10
355 5.073550743322529e-09 5.073551037203464e-09 4.626419330530455e-09
403 5.073551984024539e-09 5.073551563306187e-09 -4.626418963443431e-09
134 4.8914830549881526e-11 9.095104354691523e-09 -5.838591992789764e-09
136 6.253699077401346e-10 -8.162447108254755e-10 7.692617918519282e-16
147 -3.993579001628083e-09 4.323756080864333e-09 1.3764528400628973e-10
148 -1.1969043691498353e-10 1.1969385891636016e-10 5.097934958722559e-16
168 4.891635846046919e-11 9.095103085169654e-09 5.83859091810678e-09
174 -3.993578978966991e-09 4.323758309650104e-09 -1.376451360847094e-10
357 -4.3237571237114746e-09 3.9935837352066975e-09 1.3764609606557772e-10
358 -7.081867061578926e-09 7.08186756305386e-09 1.1326566723159287e-15
404 -4.323757619634595e-09 3.993583490966282e-09 -1.376500162893375e-10
138 -2.9759979718811455e-09 -3.068936815833168e-09 4.334402825060355e-09
140 -5.421131674568886e-09 5.4211339278070005e-09 1.524497919828209e-15
149 -9.095102920988963e-09 -4.891866765501478e-11 -5.838590061060933e-09
150 -6.504093897860331e-09 3.9503219735309246e-10 6.448173379709019e-16
170 -2.9760028937453207e-09 -3.0689349707378642e-09 -4.334405682060021e-09
175 -9.095101905462032e-09 -4.8919907479362644e-11 5.838590956137434e-09
359 -3.3542491563460265e-09 -2.808453807962708e-09 2.675046205993275e-09
360 8.162395370559432e-10 -6.253703871184223e-10 5.608944821862995e-16
405 -3.3542490069150423e-09 -2.8084544804021366e-09 -2.6750437634759148e-09
176 -7.89300858526641e-12 7.891422201787461e-12 -5.6049907328158595e-09
177 7.890921985341292e-12 -7.893921170852874e-12 -5.60498601532497e-09
179 1.7285994678797925e-09 -5.237212568582796e-09 -2.5068440979465862e-09
186 -5.237211287732823e-09 1.728599590806588e-09 -2.5068482695945804e-09
201 -3.3046412565400802e-09 -3.304636462673354e-09 3.755893535583851e-09
202 3.3046398558132788e-09 3.3046387826271192e-09 3.755895764671502e-09
203 2.159367571369524e-09 -2.159364353018569e-09 2.555404626734313e-09
204 -2.1593645235812075e-09 2.1593668788550235e-09 2.555400431044345e-09
205 2.9208284619703693e-09 -7.813845607235531e-09 1.1198450497087229e-08
208 -5.306766941608744e-09 3.45814506545938e-09 -2.562343956528487e-11
221 -7.813845568206829e-09 2.920827257956629e-09 1.1198449503454763e-08
223 3.45814590689662e-09 -5.306766506230628e-09 -2.5622868978778856e-11
225 5.356392202639449e-09 5.3563934996678454e-09 2.494753543547353e-10
178 2.707685322653125e-09 1.3385753144797107e-09 1.4674827481717352e-09
181 4.16173891037976e-09 -3.527894499050072e-09 -6.782306004724384e-09
188 -7.086588741808362e-09 -2.786161012066274e-09 1.0544622194323883e-09
206 -3.315519843195851e-09 -3.765598329948428e-09 -1.9802383618037395e-11
207 8.179309352042966e-09 -5.089176214711482e-09 -2.778654980094336e-09
209 -1.7089302565369804e-09 2.3727500370115204e-09 -2.507479697312604e-09
212 5.641197214238804e-09 -5.5907349580544455e-09 3.4505704179079634e-10
227 -2.555728511047534e-09 4.3415249015097e-09 -5.348662012265121e-09
229 1.6019824753104957e-09 -4.649437770592723e-09 -5.042353926235985e-09
180 2.6670807776342974e-09 -1.241302831912605e-09 -5.125982501870033e-09
190 1.1396600293789876e-09 3.861749431514728e-09 -5.878814642943404e-09
210 -1.1153851299813004e-09 -7.251693064299471e-11 -5.353838664571931e-09
211 3.5890354390079546e-09 6.638566088273721e-09 -1.135994761262109e-09
231 -3.4959954402884617e-09 -5.44465535144897e-09 -2.3462825500887878e-09
182 -4.161742902299025e-09 3.527893049916806e-09 -6.7823079101493875e-09
183 -2.667081116676479e-09 1.2412993808115715e-09 -5.125983546434121e-09
192 -1.1803964132501565e-09 6.331341439149538e-09 4.2378268934370025e-09
213 1.1153859795828825e-09 7.251329841349542e-11 -5.3538386256293105e-09
214 1.7089349925546236e-09 -2.3727508315989896e-09 -2.507479201682741e-09
215 -5.641198070551337e-09 5.590735271397847e-09 3.450571636125758e-10
216 -3.589035607599229e-09 -6.638565532813093e-09 -1.1359934991929213e-09
233 -7.753905948285197e-09 2.021120380561599e-09 -2.7506940790185025e-10
235 -2.23787102290982e-09 -1.9052319746934885e-09 6.480292722935097e-09
184 -1.7285932262541832e-09 5.237210251678e-09 -2.5068446415914124e-09
185 -2.707685495744015e-09 -1.3385743285370956e-09 1.4674823447297828e-09
194 1.3650636619318743e-09 -1.365063379558964e-09 7.907629092029047e-09
217 3.315517601594298e-09 3.765602046100782e-09 -1.9798489657905143e-11
218 -2.9208270937334865e-09 7.813842826223737e-09 1.1198449053048644e-08
219 5.306763913376641e-09 -3.458148278471998e-09 -2.5623552134975406e-11
220 -8.179309593472117e-09 5.089176973035992e-09 -2.7786569069993305e-09
237 -3.717250746459319e-09 -4.956418277760532e-10 2.346546129819929e-09
239 -2.972112313545711e-09 2.9721133075093927e-09 -6.3536048607634536e-09
187 1.3385732061443696e-09 2.707682888777102e-09 1.4674865542845617e-09
189 -2.7861618133616254e-09 -7.086590546536288e-09 1.0544626010096894e-09
196 -3.5278931997552113e-09 4.161739449503449e-09 -6.7823063554155085e-09
222 -3.765597465361884e-09 -3.3155194775616286e-09 -1.9802349505509683e-11
224 -5.089177038242239e-09 8.179310284703624e-09 -2.778655091186462e-09
228 4.341524460400566e-09 -2.5557290834683198e-09 -5.348661996563783e-09
241 2.3727497955068997e-09 -1.7089326372442517e-09 -2.5074797057652657e-09
242 -5.590733064658217e-09 5.641200192623432e-09 3.4505745104679113e-10
243 -4.649438516346728e-09 1.6019836841743942e-09 -5.042353471570436e-09
426 -1.2413011800209975e-09 2.6670815236665993e-09 -5.125983035595245e-09
427 3.861750748198393e-09 1.1396597835742468e-09 -5.878815369616422e-09
451 -7.251930704846498e-11 -1.1153845229515347e-09 -5.35383883543645e-09
452 6.6385670271229355e-09 3.589035861682314e-09 -1.1359945028521644e-09
454 -5.444655858441225e-09 -3.4960007333142593e-09 -2.3462820804961417e-09
191 -4.632616665777097e-09 6.2314212041661174e-09 -3.76411921557697e-09
197 6.231422716720879e-09 -4.632614487367681e-09 -3.7641191769362315e-09
226 -4.076360281464984e-09 -4.0763610453718414e-09 -1.004536800062438e-08
232 -3.9382586082575075e-09 -5.3508740662529896e-09 3.9058787210900235e-10
244 -5.35087373040988e-09 -3.938257265442878e-09 3.905912138584416e-10
245 -6.1859997451931375e-09 -6.185998068508245e-09 -1.0428228631773153e-08
198 -1.9227407327433987e-09 1.7817617373640646e-09 -7.436509571238821e-10
230 1.9921713719414655e-09 -3.734697543418594e-09 -6.41915783580352e-09
246 -2.457919205968407e-09 6.377392209190655e-10 3.4805853347151333e-09
428 1.7817602140846244e-09 -1.9227445419681914e-09 -7.436522945300116e-10
453 -3.7346969088652025e-09 1.992166628837366e-09 -6.419159106318294e-09
456 6.377360751443468e-10 -2.457922193219291e-09 3.4805850799277585e-09
455 -3.114402654394723e-09 -3.1144075739381895e-09 8.615069816581276e-09
193 5.519654037207986e-10 8.753814306907652e-09 -2.7888253748402363e-10
199 -1.4120711309727618e-09 1.4120689957700318e-09 2.4918917531757613e-09
234 -7.082053926618081e-09 -3.781890384401366e-09 -6.697757044197044e-10
236 -6.783139046949075e-09 -4.627134919536919e-09 -2.8366521732930917e-10
247 -1.1658429913226726e-09 -1.77041815724412e-09 -3.020425418250257e-09
248 -6.725596542095429e-09 6.725599388333738e-09 4.176951479320651e-09
429 -2.1309528731933243e-09 2.130949146828641e-09 5.734394750058294e-09
457 1.7704189709319134e-09 1.1658406834264732e-09 -3.0204217949975834e-09
458 1.2685275594237353e-10 -1.2685584303146197e-10 3.937506584554307e-09
195 -2.3115311746407693e-09 2.3115313645237776e-09 9.328739450153028e-09
200 -6.331341314119011e-09 1.1803979952080945e-09 4.237826443488422e-09
238 4.956403972910003e-10 3.717251693761195e-09 2.3465455998493586e-09
240 -2.1342202337439635e-09 2.1342208287509737e-09 9.46991969057831e-09
249 3.781890341827332e-09 7.0820542757101805e-09 -6.697754588391034e-10
250 1.9052299339464232e-09 2.237870447038042e-09 6.480292376734449e-09
430 -8.753814125796678e-09 -5.519638474180881e-10 -2.7888183033184305e-10
459 -2.0211194127365478e-09 7.753904884438442e-09 -2.7507060681132957e-10
460 4.627133124908861e-09 6.7831369966838305e-09 -2.83660948216276e-10
251 -1.0189926166465493e-09 -1.7766460720700147e-09 1.993922526824816e-16
262 -1.811760440645301e-09 -5.015277066181053e-09 7.421738882965647e-16
263 -6.638569896801594e-09 -3.589033433957112e-09 1.135991976713829e-09
264 5.590740290476476e-09 -5.641200647557763e-09 -3.4505892128164144e-10
265 1.91792154908787e-09 -5.576126171468613e-09 1.5214892317993722e-16
268 -1.9052310285661174e-09 -2.237869505754914e-09 -6.480293334904032e-09
311 7.251428375234896e-11 1.115384362049081e-09 5.35383924750371e-09
312 -2.3727500659920752e-09 1.7089351181004706e-09 2.507476179646859e-09
313 1.241299743068503e-09 -2.6670822729346857e-09 5.125981738715431e-09
314 3.527892598408705e-09 -4.161739214640205e-09 6.782307556297236e-09
315 2.0211208134633492e-09 -7.753905636717082e-09 2.7507393232996026e-10
318 6.3313431977276984e-09 -1.1803978943917075e-09 -4.237827053368367e-09
266 1.0836361550727726e-09 -5.953405343978285e-09 -1.3421106706221431e-16
267 -4.627131537979403e-09 -6.783136907960815e-09 2.8366212365039774e-10
269 1.9273094843615416e-09 -5.552980960877358e-09 2.1252406644733844e-16
272 6.725602220861899e-09 -6.725603059203977e-09 -4.176949515888083e-09
316 -3.7818905964216095e-09 -7.0820520749993215e-09 6.69774992565377e-10
317 8.753812796619356e-09 5.519647377340712e-10 2.788835831990324e-10
319 -1.7704146257211928e-09 -1.1658425009104237e-09 3.0204195711215024e-09
322 1.4120693805537842e-09 -1.4120706020776418e-09 -2.491888445166216e-09
270 5.552984939310748e-09 -1.9273124997448433e-09 -7.638096599426416e-16
271 -1.268611422277399e-10 1.2685975948171205e-10 -3.937503724535834e-09
320 1.1658399210523452e-09 1.7704127098055135e-09 3.0204199533780354e-09
321 2.130951038263234e-09 -2.130950432644407e-09 -5.734395255469212e-09
273 4.058193286786668e-09 4.058195059930575e-09 -2.1252406644733844e-16
274 -7.14071231414918e-11 -7.14072387615982e-11 2.767209002618865e-16
275 -6.377401516151401e-10 2.4579216079102015e-09 -3.4805857625080617e-09
276 2.457921996297066e-09 -6.37738137167079e-10 -3.480587612103709e-09
323 3.1144055477780974e-09 3.1144023912490237e-09 -8.6150692587056e-09
324 6.186002358905641e-09 6.185999180033263e-09 1.0428225365819373e-08
325 -1.7817586133367015e-09 1.9227386759070316e-09 7.436552236184532e-10
326 1.9227396920212886e-09 -1.7817592586210112e-09 7.436562213208575e-10
261 1.0189945667963635e-09 1.7766459102619187e-09 7.87908825891411e-16
277 7.766761509725327e-09 6.112910391805813e-09 -1.8396614501847734e-15
278 -1.3383339209508734e-09 -2.8398368602587178e-09 -8.235307574834365e-16
279 5.4446562560064146e-09 3.4959947719189143e-09 2.3462848035373926e-09
280 5.350874405760512e-09 3.938261880294303e-09 -3.905902514625271e-10
327 3.7346989502584815e-09 -1.9921664081625185e-09 6.419160906282422e-09
328 4.649433817379055e-09 -1.6019867157820192e-09 5.0423602974521725e-09
329 -3.861746608504951e-09 -1.1396595769798972e-09 5.87881125525738e-09
330 -6.231418472597914e-09 4.632615935791645e-09 3.764116044583562e-09
281 6.308142576451821e-10 -1.6140684553608307e-08 4.959901153025243e-16
282 1.8188977619512049e-09 -6.685787890123311e-09 -3.6467197765395573e-16
283 5.089175040999024e-09 -8.179313418339286e-09 2.7786569824695248e-09
284 -3.4581480900983936e-09 5.30676399065812e-09 2.5623015994716866e-11
285 2.598784542130846e-09 -8.908434111945686e-09 -2.409032178540415e-16
288 2.972115398993654e-09 -2.9721121941542222e-09 6.353608601385251e-09
331 3.765604309602842e-09 3.3155215091390655e-09 1.9804161393928456e-11
332 7.813840090882025e-09 -2.920829392857478e-09 -1.1198447661076385e-08
333 -1.3385776884701346e-09 -2.707682384862616e-09 -1.4674843910069194e-09
334 5.237220358646387e-09 -1.7285968270880818e-09 2.5068432155066253e-09
335 -4.956393961081229e-10 -3.71724984644022e-09 -2.346547234632227e-09
338 -1.3650666822348896e-09 1.3650601545342032e-09 -7.90762385819939e-09
341 -5.519658850548214e-10 -8.753807188507063e-09 2.788854052547014e-10
340 7.753904253686214e-09 -2.0211229532644545e-09 2.7507227070269783e-10
291 6.783136520100777e-09 4.627135711583726e-09 2.836636164434763e-10
286 8.908433109852451e-09 -2.598783702902288e-09 -8.863219589337865e-16
287 2.1342178880319413e-09 -2.1342188365265262e-09 -9.469917368684135e-09
289 5.95340415281609e-09 -1.083633761295007e-09 -3.423044988921198e-17
292 2.237872238699859e-09 1.90522889234454e-09 -6.480292911667185e-09
336 3.717249691075704e-09 4.956371944745234e-10 -2.3465507453977554e-09
337 2.3115306674635243e-09 -2.3115322069126496e-09 -9.328741990776335e-09
339 7.08205254164209e-09 3.781891552156985e-09 6.697732438136716e-10
342 1.180403173142638e-09 -6.331343843276154e-09 -4.237826532694192e-09
290 5.5761254350906e-09 -1.917921254452232e-09 -2.149391126569673e-16
346 -1.1396610172530804e-09 -3.861751540029311e-09 5.8788152111030715e-09
345 4.6326142188093545e-09 -6.231418545188449e-09 3.76411682720122e-09
344 -1.6019802724870151e-09 4.64943482255006e-09 5.042360667832763e-09
343 -1.992167122500287e-09 3.734700906021392e-09 6.4191583581073795e-09
296 3.49599547960086e-09 5.4446508086244105e-09 2.346281348511909e-09
295 3.938256425414807e-09 5.35087079782652e-09 -3.905892470146571e-10
294 -2.8398392716634907e-09 -1.3383260500465358e-09 7.949546760391318e-17
293 6.112911091893812e-09 7.766762673631378e-09 1.1915151691231576e-15
13 1.7766468186424001e-09 1.0189943820453286e-09 1.2002779661855365e-15
350 7.086587473216134e-09 2.7861597645675507e-09 -1.054467850181021e-09
349 2.7861551065471737e-09 7.0865829745888075e-09 -1.054467525055425e-09
348 -5.35639645993668e-09 -5.356389602865789e-09 -2.4947738463793936e-10
347 4.0763622525140576e-09 4.076361765655836e-09 1.0045371324010389e-08
300 2.5557313781092047e-09 -4.341520687735187e-09 5.348663209978869e-09
299 -4.341527964873178e-09 2.555732347750258e-09 5.348659237529735e-09
298 4.971576107069464e-09 4.971577612850776e-09 2.6807012926880193e-16
297 2.1820753198783505e-09 2.1820669457056186e-09 -3.3418201925739156e-16
361 -6.417135495628414e-10 3.135734687622372e-10 6.825668755236585e-09
362 3.2316144323607543e-09 -3.020060169076559e-09 7.263317856022634e-09
363 4.169315238750273e-09 3.980386758815953e-09 -3.9501099566241814e-16
364 1.8739444221970716e-09 1.9254675855691526e-09 -8.265495652454726e-16
365 3.3542532479342958e-09 2.8084533163940844e-09 2.6750447733313788e-09
368 6.504092067698692e-09 -3.950309471179851e-10 5.836192651480952e-16
406 -6.417102940805508e-10 3.1356756638930086e-10 -6.825670525163576e-09
407 3.2316166493731748e-09 -3.0200556142994074e-09 -7.26331766795091e-09
408 3.354253709613774e-09 2.8084527230120424e-09 -2.6750445142870128e-09
366 9.095103865705985e-09 4.8913853260395885e-11 -5.838593039303466e-09
367 -8.162433532511158e-10 6.253739458399527e-10 -1.5395919586383894e-16
369 4.3237592785553225e-09 -3.993577646422382e-09 1.3764742554851612e-10
372 1.1969164569867641e-10 -1.1969676623459981e-10 -2.7308948678407787e-16
409 9.095104012349289e-09 4.8913780809009594e-11 5.838590742405845e-09
410 4.323756291682066e-09 -3.993578117356393e-09 -1.3764557320807334e-10
370 3.993578837794865e-09 -4.323761747468384e-09 1.3764540268316987e-10
371 7.081866154557166e-09 -7.081867275663361e-09 -8.274552075740833e-16
411 3.9935823259962056e-09 -4.32375734725419e-09 -1.376445664356847e-10
373 -5.0735515062424655e-09 -5.073551510552521e-09 4.626416309307646e-09
374 -5.106671231030537e-09 -5.106670563119319e-09 2.685397615263772e-09
375 -6.332664567629672e-09 -2.858648503703984e-09 9.756432920365924e-16
376 -2.8586433287172e-09 -6.3326644243542256e-09 1.0082187041547039e-15
412 -5.073552079060059e-09 -5.073552063598103e-09 -4.626418998461601e-09
413 -5.106670668986314e-09 -5.106669959357767e-09 -2.6853961926317463e-09
377 -8.63680037701753e-09 3.8433558547164925e-10 9.921252547336983e-10
378 8.616962851760216e-11 1.5187260555362232e-09 4.4240997164144265e-09
379 5.675237502210837e-09 1.03989353988098e-11 -1.0746955632848364e-15
380 -7.549160195935281e-09 1.3920969853438454e-09 -4.738396133485847e-16
414 -8.636800229699712e-09 3.8433608478245307e-10 -9.921233109233802e-10
415 8.616786742062398e-11 1.5187267717483648e-09 -4.424099521097564e-09
381 4.016426287519555e-09 6.056794125272594e-09 2.9098476005462518e-09
382 -1.963630133698477e-09 4.31330558875716e-09 -3.732953176767371e-09
383 4.948378431418845e-09 6.487992894061577e-09 -4.1629300077388133e-16
384 3.432497268469142e-09 -4.593542241443399e-10 -5.017258500503928e-16
385 2.976001831992896e-09 3.0689422470671785e-09 4.334404455106289e-09
388 2.265046108193521e-09 -2.2650439315505792e-09 -6.986594253173099e-17
416 4.0164221022444734e-09 6.05679384646683e-09 -2.9098450067866227e-09
417 -1.9636281630207696e-09 4.313305488966695e-09 3.732953618720827e-09
418 2.9760012537166843e-09 3.0689406222203896e-09 -4.334406334672605e-09
421 -2.8084552854718826e-09 -3.3542492434763655e-09 -2.6750442679186917e-09
391 -6.253699707030773e-10 8.162452948657229e-10 6.273082529510928e-16
390 -2.8084528102467423e-09 -3.3542553005254645e-09 2.6750405780299643e-09
386 -3.0689412967249996e-09 -2.9760055181458484e-09 4.334407597493546e-09
387 5.421131764730705e-09 -5.421125852609442e-09 1.235901076999344e-15
389 -4.891591687750382e-11 -9.095102150542053e-09 -5.8385947417247256e-09
392 3.950303636927803e-10 -6.5040955454625195e-09 5.9087702145004956e-15
419 -3.068937627366818e-09 -2.9760040345716416e-09 -4.334407105126e-09
420 -4.8916617995110216e-11 -9.09510153171948e-09 5.8385890950165056e-09
423 1.51872434085885e-09 8.616999496312937e-11 -4.424099799129759e-09
422 3.8433612482698224e-10 -8.636799175032052e-09 -9.92125212078888e-10
396 1.0402702422202933e-11 5.675234249143593e-09 3.1395600725174997e-16
395 1.392095194230956e-09 -7.5491598122796e-09 -4.917903169257698e-16
394 1.518724661148918e-09 8.616859110431473e-11 4.424100855410595e-09
393 3.843358802831895e-10 -8.636797842435967e-09 9.921248347615255e-10
425 5.4402862581159435e-09 5.4402816129255e-09 -4.9128495832547574e-09
424 4.44089613525976e-10 4.44089023330191e-10 -5.349717530401045e-09
400 6.184304322338761e-09 -3.321945650997704e-09 -5.492871663412709e-15
399 -3.321945811296396e-09 6.184303460167264e-09 -1.8837360435105e-16
398 5.440279584890445e-09 5.4402856653730395e-09 4.9128574590223285e-09
397 4.440907058438296e-10 4.4409105149731834e-10 5.349722072499203e-09
431 1.2413000280439556e-09 -2.667083590342393e-09 -5.125978159616948e-09
432 3.5278928610449804e-09 -4.161733500640874e-09 -6.78230670197464e-09
434 6.33134220236546e-09 -1.1803978138249168e-09 4.237828390786878e-09
461 7.252273158399024e-11 1.1153830881122053e-09 -5.353837876964985e-09
462 -2.3727485976439796e-09 1.7089323776267841e-09 -2.5074795342969848e-09
463 -6.63856828113568e-09 -3.5890356032723696e-09 -1.1359943116106926e-09
464 5.590734671871469e-09 -5.64120080212072e-09 3.450578248506623e-10
465 2.0211182497644417e-09 -7.753901326048863e-09 -2.7507163953897924e-10
468 -1.9052305242837147e-09 -2.237870592776293e-09 6.480291992740922e-09
433 8.753813085292848e-09 5.519661553661962e-10 -2.788844526156679e-10
436 1.4120695820602342e-09 -1.4120702881216347e-09 2.4918904421830207e-09
466 -3.781889174391614e-09 -7.082052939585864e-09 -6.697764610832804e-10
467 -4.627131463074056e-09 -6.78313619789626e-09 -2.8366089236833247e-10
469 -1.7704186414832903e-09 -1.1658400882792602e-09 -3.0204212181830174e-09
472 6.725600287331152e-09 -6.725604213596065e-09 4.1769499437286124e-09
435 2.1309518425997984e-09 -2.1309505075108394e-09 5.734393788630521e-09
470 1.1658431504542298e-09 1.7704168008937926e-09 -3.0204204933672737e-09
471 -1.2685388805155527e-10 1.2686010966341244e-10 3.937505661402894e-09
437 -1.7817537068094847e-09 1.922739755090123e-09 -7.436566136941214e-10
438 1.9227393064322012e-09 -1.7817568967058182e-09 -7.436530777419972e-10
473 3.1144007910285564e-09 3.1144068059534947e-09 8.615071457001414e-09
474 6.185997820541488e-09 6.186000442227944e-09 -1.042822302302585e-08
475 -6.377342417270234e-10 2.4579225834225996e-09 3.480585973221227e-09
476 2.4579174911894732e-09 -6.377385911957663e-10 3.4805840151565255e-09
439 -3.861753696665576e-09 -1.1396600165183073e-09 -5.878814027126667e-09
440 -6.231419397258732e-09 4.632614387747025e-09 -3.764119804720337e-09
477 3.734697963429092e-09 -1.992170836451625e-09 -6.419162719529304e-09
478 4.64943631242367e-09 -1.601979746543552e-09 -5.042358602240674e-09
479 5.4446562415161376e-09 3.4959954674522227e-09 -2.3462808431634893e-09
480 5.3508704692351904e-09 3.938259324571652e-09 3.905927667331544e-10
441 -1.338575780583629e-09 -2.7076849596037566e-09 1.4674820864490739e-09
442 5.237208654728693e-09 -1.7285975057160666e-09 -2.5068448378139168e-09
444 -1.365064008840055e-09 1.3650627011621067e-09 7.907628180659828e-09
481 3.765595610606396e-09 3.31552084975598e-09 -1.9804135432181702e-11
482 7.813845645488306e-09 -2.9208277249661896e-09 1.1198449092595026e-08
483 5.0891773546132925e-09 -8.179312813936237e-09 -2.7786545768004867e-09
484 -3.458148468958768e-09 5.30676437948056e-09 -2.562311138904215e-11
485 -4.956387560831422e-10 -3.7172495022698237e-09 2.3465468818692285e-09
488 2.972115627071656e-09 -2.9721124253441906e-09 -6.3536094924276344e-09
491 6.7831374504112265e-09 4.627134528376174e-09 -2.8366082803942577e-10
490 7.753904855654818e-09 -2.0211166450935913e-09 -2.7506980018589556e-10
445 -5.519652800114457e-10 -8.753815630324674e-09 -2.7888421796114626e-10
443 2.311530036661258e-09 -2.3115315247469996e-09 9.328744350268816e-09
446 1.1803982573496015e-09 -6.3313369699638416e-09 4.237826720026544e-09
486 3.7172477699242993e-09 4.956377914561401e-10 2.346546754241447e-09
487 2.134216815027511e-09 -2.134215468117241e-09 9.469918302117182e-09
489 7.08205177609328e-09 3.781889436024629e-09 -6.697760896914049e-10
492 2.237872489039799e-09 1.905228888325752e-09 6.480293635879167e-09
496 3.495995886760641e-09 5.44465630313755e-09 -2.3462865773888334e-09
495 3.938257746417962e-09 5.35087015707219e-09 3.905866737967182e-10
494 -1.6019866947682869e-09 4.649440194916547e-09 -5.04235444497211e-09
493 -1.992166355269359e-09 3.7346948021053016e-09 -6.41915780445273e-09
448 -1.13965986506286e-09 -3.861744209364674e-09 -5.878815047134641e-09
447 4.6326151557317195e-09 -6.231424611039259e-09 -3.76412114757175e-09
500 2.5557309530610717e-09 -4.341521527869387e-09 -5.348658015818233e-09
499 -4.341525740615619e-09 2.5557292347556937e-09 -5.348662776478074e-09
498 -5.35639228703871e-09 -5.356396146282553e-09 2.4947333883177665e-10
497 4.076364431866851e-09 4.076361684148026e-09 -1.0045369521933096e-08
450 7.086590316329284e-09 2.7861591650323292e-09 1.0544649840989233e-09
449 2.786161482269167e-09 7.0865888093404495e-09 1.0544674097369686e-09
