LAMMPS data file via write_data, version 12 Jun 2025, timestep = 84, units = metal

500 atoms
3 atom types

-0.04922600881015669 17.29422600881016 xlo xhi
-0.05147255848687461 17.296472558486865 ylo yhi
-0.05673269002228885 17.301732690022344 zlo zhi
1.0622552729642923e-15 1.0628994532890903e-15 1.0628994532890903e-15 xy xz yz

Masses

1 58.6934
2 55.845
3 51.9961

Atoms # atomic

10 1 1.7068760024406762 3.441210163585441 5.13279938643683 0 0 0
13 1 1.7067769679511753 3.4145530119362046 1.670438072031847 0 0 0
109 1 3.424937126354825 5.149851565318986 1.678892062269862 0 0 0
121 1 3.429095201246946 5.173657493671992 5.159818966711621 0 0 0
284 2 3.4191477055869584 1.679788781585755 1.6468046271070937 0 0 0
300 2 5.136997053857363 3.4174960306286524 1.65421476137081 0 0 0
304 2 5.174938076520796 3.445879191301697 5.1667422862502725 0 0 0
305 2 5.178236480248785 5.131080010500351 3.436126138945235 0 0 0
311 2 -0.02776170732924248 3.4616056518939087 3.403704349828473 0 0 0
324 2 1.661554958869774 5.174556874344674 3.4250555235310225 0 0 0
375 3 5.1433688058963005 1.779813285846462 -0.04222597161762741 0 0 0
376 3 3.5356248742660266 1.711798358985687 5.196865481412535 0 0 0
377 3 5.060865656013045 1.6352310926442462 3.394764507032627 0 0 0
385 3 5.155256318541223 5.156008052441484 -0.005155735974326371 0 0 0
428 3 3.467270254380401 3.4714516736929815 3.4075189009037645 0 0 0
467 3 1.6553118638251423 1.6581327475711665 3.4083220145486486 0 0 0
478 3 -0.03621382953971348 5.122737049312796 1.7351500252872376 0 0 0
480 3 1.6437424423466034 5.193303538189368 -0.04048042058462998 0 0 0
482 3 -0.023169620179240475 5.144559239852012 5.1400854978465365 0 0 0
61 1 8.651894760217386 -0.04290995616779173 5.118630107916289 0 0 0
63 1 6.901518340552619 -0.04254734634018411 3.4015092316628674 0 0 0
66 1 6.879203061580008 1.699841282683206 1.6695994258474447 0 0 0
72 1 10.376867736586608 1.73090199477605 5.130793330596296 0 0 0
85 1 8.665959534616233 3.448153997341069 5.108419261218669 0 0 0
96 1 8.62341555089467 5.166274136444009 3.386362166137275 0 0 0
98 1 8.65633431676092 5.141835289185264 -0.043732083934061146 0 0 0
100 1 6.899056520025431 5.1513290988467935 1.6744577226985253 0 0 0
136 1 10.375749167838293 5.164835369158968 5.126147127085213 0 0 0
229 2 10.356625170620186 1.69740112151588 1.665920560582165 0 0 0
244 2 10.34420030903155 3.412076356372819 -0.05228191487700463 0 0 0
245 2 10.322777127340915 5.127562147181865 1.6647249894250373 0 0 0
321 2 6.87642434384378 5.165516910074841 5.171948889936447 0 0 0
323 2 8.64591939909903 3.407716949281325 1.6918897271411777 0 0 0
332 2 6.884364497423734 3.4088856305690123 -0.040501187937095895 0 0 0
401 3 6.8403040171868525 3.492662960794441 3.4147834988009693 0 0 0
404 3 8.660840604865207 1.6888540841211728 3.323653716146498 0 0 0
418 3 10.411804347278853 3.476204721513475 3.3587540186431997 0 0 0
431 3 10.400039890611364 -0.03828905272495952 3.398804540707266 0 0 0
437 3 8.670217503535705 1.7050052673293925 -0.00694167710654351 0 0 0
438 3 6.84151535199033 1.7120125046927275 5.145232834729421 0 0 0
1 1 17.28920825362728 1.7195540612019524 5.169954536320761 -1 0 0
463 3 17.275948092458382 1.7182152792745062 1.6286340381115578 -1 0 0
465 3 17.258433288250394 -0.04474495145752685 3.424538041712687 -1 0 0
2 1 13.813543287502318 5.150688376142516 1.6536837537471776 0 0 0
3 1 15.552159385837705 3.430276655237196 1.6684846990378905 0 0 0
4 1 15.586459156310614 5.1661458252978125 -0.051816698810977974 0 0 0
5 1 13.81066143715352 3.433027388767086 3.410900977053554 0 0 0
6 1 13.774681070824657 1.6822895912312437 5.1192943130771225 0 0 0
60 1 12.068411820794381 -0.040302766480341146 5.136241526393203 0 0 0
71 1 12.075862805295396 1.6631845546776571 -0.05458244390128291 0 0 0
84 1 12.099327164120877 3.414514892511521 1.639646125718667 0 0 0
133 1 13.82786234063891 -0.04644549160502274 -0.05236808830371553 0 0 0
137 1 12.065990697317021 3.429673384297879 5.155036793711956 0 0 0
146 1 13.839421405471587 1.6741857609633346 1.6836589706729572 0 0 0
167 2 13.823648270882837 5.141070593940329 5.1542569488198415 0 0 0
188 2 15.597022440406917 1.6763924643785852 3.4007560127335608 0 0 0
232 2 12.068068773124125 1.646219766276846 3.3393580090541115 0 0 0
234 2 15.562911563140723 5.183702558763679 3.41506049835835 0 0 0
247 2 12.082923903724511 5.115512954538586 3.3777742417300347 0 0 0
372 3 15.542280623434438 0.01905598131658784 5.187855045990599 0 0 0
484 3 15.535536631283813 3.4137572574817323 5.090774202441669 0 0 0
41 1 1.7155364365461039 8.59857051498016 3.4314102496581005 0 0 0
122 1 3.431207116372316 6.876394527427439 3.414801176642947 0 0 0
253 2 3.4525495472316114 8.58140034649038 1.68658416893838 0 0 0
254 2 5.1136075302189745 6.866729735309445 1.6848031685883091 0 0 0
255 2 3.4818893576960517 8.631428949186585 5.156068597269981 0 0 0
256 2 5.132968310004574 8.643842056971163 3.4109459919781937 0 0 0
262 2 5.177900914536947 10.351549950825676 1.6931220159700664 0 0 0
263 2 1.6657375973359039 10.331840331830938 5.112109269756545 0 0 0
265 2 5.1583881034252554 10.387771325606982 5.13914841227553 0 0 0
266 2 3.4326706877596678 6.886597075638586 -0.04232906367817358 0 0 0
335 2 -0.017622631659008132 8.609112291043914 5.13785161235726 0 0 0
339 2 1.691133134512984 6.874318242034121 1.6610009414809879 0 0 0
344 2 1.7057432541776107 6.896365331904234 5.157693708658727 0 0 0
350 3 5.141400106357839 8.517969921030804 -0.009336323080551573 0 0 0
352 3 5.197307488014144 6.872953339111163 5.104565380430093 0 0 0
361 3 3.452444641474037 10.319878329214601 0.053728854340310085 0 0 0
364 3 3.4271236889501724 10.319291067090326 3.4237680145495926 0 0 0
447 3 -0.03968832463840573 8.49882540654576 1.6494317017868243 0 0 0
459 3 1.6806990780183622 10.353925762792384 1.6164547735579329 0 0 0
460 3 -0.0183023634676698 10.333460359899952 3.4823660449595946 0 0 0
86 1 8.622575739385086 6.878315530999516 5.166356693086277 0 0 0
87 1 6.89173575007259 6.899357749704545 3.3780609996829094 0 0 0
88 1 6.874642792739215 8.582047290227285 1.6673421712253693 0 0 0
89 1 6.921980225516981 6.882076738714687 -0.036539500317931344 0 0 0
93 1 6.873098772372768 10.334582737304732 -0.056015852746863076 0 0 0
147 1 10.407619875160316 8.627285301484394 1.640092005441791 0 0 0
150 1 10.404165455351784 6.902272794100712 3.3747463194931124 0 0 0
151 1 10.361025769337127 8.605324536259035 5.179641837862934 0 0 0
191 2 8.604620202252395 10.334331078144396 5.175611731899448 0 0 0
334 2 8.707464148842563 6.919121045243997 1.655794684442071 0 0 0
340 2 8.664222097127396 8.614374837635474 -0.04906386473670339 0 0 0
346 3 10.40164224177344 10.326037246249902 3.451256099658932 0 0 0
405 3 6.923167929970125 10.30544028549346 3.4525974123757885 0 0 0
407 3 8.615252506101122 10.337994934245577 1.6650990560346772 0 0 0
413 3 6.858839729207153 8.60012278813743 5.215961389463516 0 0 0
414 3 8.657762819583628 8.596780841354166 3.3589341326064712 0 0 0
450 3 17.27325242197258 6.923114944558508 3.51892054255445 -1 0 0
24 1 13.785113295336133 8.649606578122754 1.6914792314514688 0 0 0
27 1 13.801555339605239 6.879358825644287 3.427368705744214 0 0 0
28 1 13.775757442488485 8.614698383047402 5.132625653646201 0 0 0
30 1 15.56194788009077 8.622100502262283 3.4409948589059263 0 0 0
36 1 15.574879093804272 10.37364940131588 5.163158348207956 0 0 0
38 1 13.821984125314328 10.362344554672674 3.416699602780276 0 0 0
148 1 12.090374339427173 6.851973853673809 1.6700368999622397 0 0 0
152 1 12.076094477209672 6.88135251909445 5.127826425883431 0 0 0
210 2 12.06099029521442 8.686035827603309 3.4194565202681564 0 0 0
211 2 12.059788999532328 10.378424977579623 5.146653730965472 0 0 0
217 2 15.542593183343376 6.823863505903223 5.138595048526493 0 0 0
225 2 12.061648200941658 10.38513683368314 1.6907553825079333 0 0 0
461 3 15.494945453134507 6.9042766264048385 1.6672460997990521 0 0 0
473 3 15.551018462110664 10.301949707804487 1.641458955339836 0 0 0
282 2 3.4290160334938022 17.28538714000992 3.416886460023755 0 -1 0
283 2 5.159264996994171 17.265958567053797 5.135930707645725 0 -1 0
374 3 5.126623190677385 17.26261341295185 1.6142729317225382 0 -1 0
464 3 1.7089208915314473 17.26431709182643 1.6344480367933063 0 -1 0
466 3 1.7140293404793172 17.27088283681968 5.131260874275992 0 -1 0
12 1 1.7069584100063515 15.517390238286572 3.3802210189730832 0 0 0
29 1 -0.04405307517013181 12.106001444353383 1.6466863263186116 0 0 0
44 1 -0.04748287885169193 15.525044548366584 1.646172502538493 0 0 0
59 1 1.662203153870849 12.102442178751112 3.4210900453093753 0 0 0
77 1 3.4356909736076418 13.819209014955051 3.3999163952771965 0 0 0
78 1 5.173364058964109 13.830018774710739 1.666523850176911 0 0 0
143 1 3.4112902408124475 12.104155363796501 5.146530464524163 0 0 0
145 1 5.178494410563549 12.086854648951478 -0.023066993258521365 0 0 0
252 2 1.698414316771524 13.818743634416757 1.6192955605361272 0 0 0
264 2 -0.0250971848349131 12.094951557395511 5.119912629683289 0 0 0
274 2 3.404423177389602 15.560665940209539 1.6335293405902191 0 0 0
302 2 1.649248441727371 13.833378747990936 5.172761360683264 0 0 0
306 2 0.03675687744970656 15.568619289592593 5.12037537697638 0 0 0
307 2 -0.018372436526019848 13.826511870370386 3.4643276289527734 0 0 0
362 3 3.363441867911088 12.116168020732724 1.6742766201589994 0 0 0
367 3 5.193654321222451 12.085991604941304 3.40164085093515 0 0 0
416 3 5.171718339941046 15.525073922335425 3.375274393975541 0 0 0
426 3 3.433058057046882 15.549601418489383 5.17751621149493 0 0 0
427 3 5.190831141337239 13.817576915408262 5.2059851692570245 0 0 0
228 2 10.30907547634031 17.26010329980627 -0.03299483968386042 0 -1 0
314 2 8.619774357215007 17.267213227418512 1.680908310542546 0 -1 0
94 1 6.917174721516537 12.089991067046688 5.178090095889537 0 0 0
95 1 8.613748309649985 12.098493042041051 3.4517043653680997 0 0 0
103 1 6.900301441401081 13.857648878422891 -0.055386188712642594 0 0 0
105 1 8.590685989834533 13.825414125080218 1.6775903453868397 0 0 0
111 1 10.341458501132777 12.088063698262566 1.671159605186404 0 0 0
124 1 10.352899702699286 13.827408721816953 3.4118552184316084 0 0 0
159 2 8.616815076333978 13.863386199590636 5.155468705753443 0 0 0
161 2 6.883308201150677 13.821603937017663 3.411960224168461 0 0 0
162 2 6.910862766023539 15.569378141854543 1.7108054910054566 0 0 0
166 2 8.6312911066665 15.546182265957418 3.4165130094782614 0 0 0
173 2 10.321294993135027 15.485791322190774 5.143303383984589 0 0 0
177 2 6.894552252920831 12.042442677401485 1.7157951108906717 0 0 0
357 3 10.335285686302957 12.137673418938855 5.215686419936636 0 0 0
383 3 10.356315965624315 15.597096543448018 1.654669194898813 0 0 0
396 3 6.931083279597533 15.552309403939807 5.134705668637424 0 0 0
192 2 15.602811559646064 17.2548384151231 1.6850135491211258 0 -1 0
230 2 12.058783188524327 17.282620044220245 1.7050850916265936 0 -1 0
373 3 13.843393877563768 17.26350923017166 3.3726277031992047 0 -1 0
46 1 13.865308387730183 12.065952251269728 1.6561786777708762 0 0 0
51 1 15.578060884668602 13.818083162691668 1.6544955965114565 0 0 0
126 1 12.071502054583371 15.543622368667315 3.4110556352880614 0 0 0
164 2 13.812252208211953 15.551647562575466 1.6590543217929297 0 0 0
172 2 12.071814861765377 13.83119893826099 5.162282830704068 0 0 0
174 2 12.110543313198141 13.823029808712814 1.650586227288896 0 0 0
175 2 15.562796942439705 15.596528698057117 -0.04893141666126447 0 0 0
246 2 13.764622537675296 12.063953688550578 5.1514782820783225 0 0 0
349 3 12.075253493075838 12.001944524803118 -0.03118907404223147 0 0 0
391 3 12.119576266230032 12.092133840944951 3.356510258367791 0 0 0
440 3 13.833062915731961 13.873669997109124 3.4165180456375497 0 0 0
441 3 13.883075297974303 13.87901116511592 -0.05198086741138725 0 0 0
448 3 15.600121868690914 12.155269918936252 3.4699849577965787 0 0 0
451 3 13.795380233353805 15.595723038933054 5.186605336078499 0 0 0
481 3 15.56690515526216 15.514213719672215 3.3847013628273355 0 0 0
483 3 15.584659426057508 13.79554847924886 5.207141284954172 0 0 0
15 1 1.7360547901657837 1.6877000892782124 6.867318462826933 0 0 0
43 1 1.6705956016785009 3.4498323765023007 8.61853284402287 0 0 0
112 1 5.149848976916143 5.152691818207642 10.362533537604921 0 0 0
116 1 5.164668447992307 5.182021690733814 6.894491992431236 0 0 0
117 1 3.4284564465996317 5.152967646969299 8.66149578998468 0 0 0
118 1 3.425470185410139 3.4509998137777567 6.913996080010256 0 0 0
286 2 3.425967945858013 1.682159516194016 8.668764571185058 0 0 0
287 2 5.143719466209188 1.698496351332782 6.910074448557286 0 0 0
288 2 3.4147688471789137 -0.028189910951904283 10.376358995166735 0 0 0
293 2 5.148669469838006 1.704377847196432 10.402752803017126 0 0 0
327 2 -0.04751581405136037 5.179096632172512 8.6347504179331 0 0 0
328 2 -0.031061690754061996 3.4497686744653793 10.372266269622317 0 0 0
329 2 1.6768566019608864 5.227256422319147 6.91240599941415 0 0 0
380 3 5.108823614204009 0.021773016381162788 8.736673806917954 0 0 0
389 3 5.1975785941224055 3.4295521012984365 8.635119392944784 0 0 0
390 3 3.423869887114536 3.271837346415369 10.362372859816034 0 0 0
444 3 1.6573909759240097 5.233860307125814 10.327116381122595 0 0 0
468 3 -0.04214121273616147 -0.027972676457895272 6.915988340288102 0 0 0
470 3 1.7134961047809751 -0.02535862868041382 8.657738437490481 0 0 0
474 3 1.62503188064055 1.710978622528158 10.381419113036232 0 0 0
73 1 6.878711257534333 1.6881857194438068 8.677663243230699 0 0 0
91 1 8.584983124179846 5.1603834957023365 10.378519161368047 0 0 0
106 1 8.59797699612443 1.678526385125121 10.396078575541347 0 0 0
233 2 10.341076471566064 1.7035390614258146 8.608154463378067 0 0 0
250 2 10.318742316294642 3.382692406605653 10.34392525863097 0 0 0
316 2 8.60202289922133 5.162552700880281 6.919076567911461 0 0 0
318 2 6.910305071192634 5.125460912263927 8.591750826057384 0 0 0
322 2 6.848181283617034 3.4331023324140513 10.384227225917261 0 0 0
381 3 10.343217856414864 5.241682423058544 8.66448261823469 0 0 0
392 3 8.595279702097198 3.431744835624272 8.715924466615062 0 0 0
393 3 6.8376677486892925 0.04564858602300777 6.873511893141665 0 0 0
394 3 8.685013376128529 -0.0035440188337259593 8.618940316370018 0 0 0
395 3 8.654966395916105 1.6827534100417365 6.88397575595235 0 0 0
403 3 6.905568504901479 3.421992604128848 6.842575714658471 0 0 0
417 3 10.315510316370728 3.525655536375158 6.926811825417528 0 0 0
8 1 17.270923567056535 3.4476274084193976 6.879719258001665 -1 0 0
469 3 17.261716973576384 1.6887799597816207 8.591984933411414 -1 0 0
47 1 13.820558255757069 5.166308744175482 8.621630661484613 0 0 0
76 1 12.072822211421672 -0.0493739403251363 8.636809111640304 0 0 0
79 1 12.046236507879241 1.7130123804040467 10.329899767873542 0 0 0
139 1 12.109276347916405 3.441849665404753 8.62712624121861 0 0 0
176 2 15.481541972677888 1.6925965950360713 6.879333466230732 0 0 0
187 2 13.835321485846924 -0.04871185055790356 6.928740622673133 0 0 0
201 2 15.585566756626616 5.150727491339215 10.355190777295897 0 0 0
208 2 13.872800485809536 3.438133524372568 10.36227196350621 0 0 0
214 2 15.55386616687329 5.174119548979374 6.867043356499897 0 0 0
366 3 12.065784815467488 5.115346315786129 10.36694494990994 0 0 0
368 3 12.054202210542876 5.209412372525956 6.886370129599354 0 0 0
371 3 13.863385567743123 1.7112447398428914 8.6894192065749 0 0 0
429 3 12.066714221221316 1.635553315034446 6.912095228132013 0 0 0
488 3 15.622742227126423 1.703745407764 10.356644410574608 0 0 0
496 3 13.85731589406961 3.435820947189248 6.8653512289581275 0 0 0
498 3 15.602224205302592 3.5158453260305382 8.646087920209762 0 0 0
35 1 1.6831765983272282 8.60377902188707 10.363545689620059 0 0 0
37 1 1.6990841790230358 8.64601660632886 6.8536080329008655 0 0 0
56 1 1.6946021516924228 10.33192947357759 8.64177148905815 0 0 0
58 1 -0.04811798345906044 10.379343213234865 6.896359096052745 0 0 0
138 1 3.4393594161206797 10.373157441976916 10.336037912720887 0 0 0
140 1 3.4430146831647725 10.383650301512779 6.889559026016922 0 0 0
156 1 5.180999921035365 6.881244297721502 8.62994871029325 0 0 0
257 2 3.456623759413295 8.575059008395147 8.650380127935554 0 0 0
258 2 3.3870357778984865 6.90803636548179 10.32971987368544 0 0 0
260 2 5.224675304256555 8.591097539508208 10.305502203346986 0 0 0
268 2 5.1404438144964795 10.341935276175285 8.63591849897988 0 0 0
277 2 1.6872065072324238 6.915111768744135 8.631129808101031 0 0 0
354 3 3.321540995908669 6.886952742929739 6.936344045873257 0 0 0
356 3 5.088271360056862 8.650902630119155 6.891455524399944 0 0 0
452 3 -0.03268815135817526 6.865242408025439 6.806568955134679 0 0 0
453 3 -0.04843466766102272 8.548739707407968 8.5827837747403 0 0 0
115 1 10.349729221067003 10.353905690853749 6.8756176311446335 0 0 0
179 2 8.589489150990275 6.889029259648042 8.580064665827267 0 0 0
181 2 8.58385031880123 8.639339233433702 6.879335438510059 0 0 0
184 2 8.588226005348785 8.59255205648347 10.381436921615437 0 0 0
193 2 6.8735199819775685 10.377752704632394 6.891932601159519 0 0 0
195 2 8.635816527371102 10.356770260146133 8.592588333718314 0 0 0
212 2 10.360605466473933 6.890231535574647 6.910887876349375 0 0 0
303 2 6.911484141408169 6.912479967092441 6.9024717968304055 0 0 0
355 3 10.295200026615237 6.951808725967422 10.438215363689249 0 0 0
358 3 10.289149817313092 8.598150923282308 8.574421231113796 0 0 0
387 3 10.282711455824534 10.3363775011497 10.342220239236129 0 0 0
400 3 6.89468781349107 10.346187453084418 10.421692055041609 0 0 0
412 3 6.905886696813134 6.893626919005381 10.39503592491989 0 0 0
415 3 6.9161912478990395 8.676307592932698 8.56309713307253 0 0 0
454 3 17.255121171107437 6.909439279361107 10.380724473184666 -1 0 0
486 3 17.258834476205813 10.338869047446435 10.395444947073386 -1 0 0
23 1 13.79780128239389 10.364279840188207 6.859009378065311 0 0 0
26 1 15.57419625348753 10.345680900793344 8.596144536480338 0 0 0
31 1 13.828625400356675 6.895434388882566 6.880306038478449 0 0 0
34 1 15.570532619652363 8.598949550559817 6.866230565012212 0 0 0
157 1 12.088371211317641 8.687223676084614 10.378200979575727 0 0 0
207 2 15.538490135156893 8.658664579779696 10.299765466178586 0 0 0
213 2 15.590861426810957 6.8639218750843485 8.62344392720311 0 0 0
215 2 12.086845730965052 8.621590208291213 6.923895372989141 0 0 0
216 2 13.8285898008929 8.648294332134109 8.641389678608538 0 0 0
240 2 13.879218322288772 10.36405346045222 10.312453452106299 0 0 0
345 3 12.1063727291359 6.9771997672647545 8.671078480655714 0 0 0
388 3 12.100973853338886 10.336014441196866 8.571138681343182 0 0 0
457 3 13.921626192194221 6.915796531322062 10.333813511764214 0 0 0
131 1 3.461587538249325 17.29644074933941 6.9142735125371315 0 -1 0
17 1 -0.04795708220188021 13.823511852116296 10.365739037352016 0 0 0
55 1 1.6878656144945612 12.07548644134641 6.892017008427946 0 0 0
74 1 5.159343640690448 15.568207643732357 6.920506904047538 0 0 0
267 2 3.4894638770002335 12.15101658726625 8.645003601799871 0 0 0
269 2 5.1702585162467924 12.109205302898129 6.884525186360035 0 0 0
273 2 5.150526423363286 12.141167719254591 10.31743171098221 0 0 0
279 2 3.4027890779813745 13.803888813452863 6.919299441241348 0 0 0
280 2 5.146103486822444 13.812628224429028 8.622055839006578 0 0 0
294 2 1.7055205287768502 15.525672456209094 10.36220216286047 0 0 0
299 2 1.6904362892986033 13.803658460535027 8.630942848765491 0 0 0
301 2 0.0003850043253697949 15.52777747156162 8.678423438013779 0 0 0
336 2 5.139989357994074 15.549006678006842 10.374620685838982 0 0 0
338 2 3.4243227181274483 13.815966441448978 10.374279312594814 0 0 0
430 3 3.442202678802314 15.466963254244462 8.683950132839353 0 0 0
487 3 1.6752321916690192 15.53107137072977 6.887152489512074 0 0 0
491 3 1.7197070009119648 12.081901349035018 10.301028745011333 0 0 0
492 3 -0.030735482170684295 13.733420564826979 6.941641107292047 0 0 0
238 2 10.349878135392878 17.295314090738607 10.350933765438235 0 -1 0
75 1 10.341168086685265 17.281797580617187 6.8550131290595475 0 -1 0
108 1 6.890834651042602 17.279780676115518 10.373168778849006 0 -1 0
62 1 6.8927309833903285 15.593198510975547 8.630901340878038 0 0 0
64 1 8.606364403624786 15.554219252083293 6.900371248664816 0 0 0
101 1 8.611734132333076 12.088354994229846 10.336213713970803 0 0 0
127 1 10.332302888898216 15.537788520057449 8.615135997830832 0 0 0
168 2 10.350315935721252 13.789379267389464 10.376271755145916 0 0 0
169 2 6.918068099830025 13.800698377437415 6.911756789266415 0 0 0
170 2 10.338939786527506 13.790193693187273 6.870538094080109 0 0 0
171 2 8.631545684013963 13.81278436284534 8.65173431975676 0 0 0
197 2 8.64982851523247 12.110186756550286 6.904144521820022 0 0 0
204 2 10.318637936642311 12.106581114326152 8.61210125925156 0 0 0
402 3 6.868787428498394 12.079698683607607 8.545816749701743 0 0 0
433 3 8.689751382580884 15.5216395530985 10.38769195503562 0 0 0
436 3 6.832790470724373 13.816299740573141 10.294066237944698 0 0 0
16 1 17.289772266187907 17.22286531625361 10.396663999798022 -1 -1 0
370 3 15.584003302152553 17.201126818735297 8.599874388133822 0 -1 0
499 3 13.849518242813366 17.26619822599524 10.36234662941711 0 -1 0
261 2 17.267884446965535 12.103090060921991 8.67680136898748 -1 0 0
22 1 13.808457836472497 13.821728608880562 10.355297475386237 0 0 0
119 1 12.073855004713197 12.072954897343925 10.352425767372688 0 0 0
128 1 12.074776574147384 13.796753784665238 8.61743828863584 0 0 0
129 1 12.066474986051874 15.5501825133763 6.884438241191362 0 0 0
160 2 13.831911753123467 15.56496208898575 8.624214931231082 0 0 0
189 2 15.52660840295216 13.819620885864026 8.629492990181593 0 0 0
190 2 15.541657683803157 15.500145696853634 10.341246848477926 0 0 0
236 2 15.572512090008543 12.055651958659178 10.345586172372306 0 0 0
241 2 15.561178349485102 12.101319400725682 6.8745534206204475 0 0 0
248 2 12.046597185103872 12.094532855773897 6.879017435045951 0 0 0
379 3 12.00006453432486 15.522534911635823 10.334119151305142 0 0 0
446 3 13.887024957872576 12.09869889112216 8.627274502032735 0 0 0
475 3 15.602740565571114 15.500229418321483 6.880281726628653 0 0 0
479 3 13.767766945252953 13.780882209304037 6.843401439726605 0 0 0
296 2 1.7022727151547694 1.6939412193355683 17.278560916833623 0 0 -1
298 2 3.398853270274218 3.381448644095245 17.273614711893245 0 0 -1
320 2 -0.027537610964797975 3.4080401939946254 17.272763754964192 0 0 -1
25 1 1.663975596594242 5.1487507106375405 13.819646114512123 0 0 0
50 1 1.6879786647356494 3.4345575001253654 12.09217822074974 0 0 0
113 1 5.130686068839457 3.4289183513075754 12.123383823435676 0 0 0
114 1 3.40902948665537 5.1439714644996775 12.082049558060067 0 0 0
281 2 3.393846459007573 1.702331043602075 15.581474213962668 0 0 0
289 2 3.4226668544752488 1.6575796428948042 12.09165575651953 0 0 0
292 2 5.14747459629148 0.0016262845292396855 12.105821794347168 0 0 0
297 2 5.114221634044664 1.6890102683414667 13.831844341868148 0 0 0
309 2 3.411048367170705 3.3904174511087843 13.854935396765725 0 0 0
310 2 5.199962486979073 5.190472144858691 13.836486790411252 0 0 0
315 2 1.6881947934803476 3.377600553378021 15.589389642299034 0 0 0
319 2 1.6683991786423977 -0.03528241051172324 15.58505047021029 0 0 0
347 3 3.3894966643036146 5.136302907965916 15.549880812940962 0 0 0
348 3 5.127561032823104 3.4093737643886817 15.51175507769847 0 0 0
476 3 -0.004276624202820219 1.608322858396281 15.588726745503385 0 0 0
477 3 1.73509228027971 1.7168417835040226 13.854336639376942 0 0 0
57 1 -0.04917952505955909 5.167358287726364 15.556061637877228 0 0 0
326 2 -0.047478723354996394 5.212599429940293 12.062135847323217 0 0 0
80 1 10.348527541170329 -0.0128236062651488 13.851779446738416 0 0 0
81 1 10.360907883065073 1.6758442373311921 15.58279091326705 0 0 0
90 1 6.913805251878384 5.132083353251462 15.568203290165947 0 0 0
104 1 6.9041038877277305 1.678253895185369 15.56499733732464 0 0 0
107 1 8.630762949548748 -0.03851394289514126 12.122776775296249 0 0 0
141 1 10.32490172579733 5.1423724153771 12.098536661643523 0 0 0
144 1 10.353750455575417 5.150050413861976 15.566762981111758 0 0 0
226 2 10.331077517033329 1.7033546228140792 12.090869846735295 0 0 0
312 2 8.598393117511328 3.4272321643237245 12.09953433091075 0 0 0
313 2 6.905164243856113 5.152934439796111 12.125858733480863 0 0 0
325 2 6.848195929505894 1.7056837510212461 12.12259875676701 0 0 0
331 2 8.636265330560764 1.7256158706103168 13.82347101135775 0 0 0
341 2 8.602206454364728 5.161551368808712 13.79301685178001 0 0 0
365 3 10.259738707651476 3.412069062535268 13.803736200726576 0 0 0
409 3 6.918631839831536 3.373156108049744 13.768853715731671 0 0 0
411 3 8.644591913127595 3.4155751661997935 15.606725755536768 0 0 0
7 1 15.5645036492491 1.6630102295998945 17.293122918707528 0 0 -1
97 1 12.049995000420182 5.177900850611015 17.282160284580915 0 0 -1
500 3 13.82178016719136 3.398817210211523 17.228499545382846 0 0 -1
20 1 17.293636754937463 1.6667344945053202 12.136609251463353 -1 0 0
42 1 17.277658379046972 3.4178870604184812 13.847246362143412 -1 0 0
53 1 13.84776900133677 5.124075845686243 12.109586501133041 0 0 0
54 1 15.600557104846875 3.4537432240591692 12.117355778991712 0 0 0
142 1 12.075129196601385 3.422834914258849 12.085659064020788 0 0 0
163 2 15.524940299321882 1.6544499360833533 13.879774037279086 0 0 0
178 2 15.52881695495827 5.218487925807285 13.86547610241009 0 0 0
198 2 13.8173227722284 1.732499729909339 15.530214358055236 0 0 0
205 2 12.10174762901844 3.411517683767348 15.56117827655977 0 0 0
219 2 13.849491217093444 3.402945903540163 13.858108238788118 0 0 0
363 3 12.138131471222561 5.144085043793613 13.87283608208362 0 0 0
419 3 12.12273032347395 1.723198578268748 13.860247848239583 0 0 0
424 3 12.136246472664357 -0.03811224160802449 15.558184224867775 0 0 0
425 3 12.068180897674203 -0.0066812919550848435 12.09517225312481 0 0 0
493 3 13.853611595689259 1.7465058695083573 12.057992807653838 0 0 0
494 3 13.828363235504924 5.2259800686571785 15.606319733295377 0 0 0
495 3 15.542330359632226 3.429277308291639 15.544785170696208 0 0 0
449 3 1.6900441772537893 8.538764340691761 17.216311965358088 0 0 -1
49 1 -0.038182007656595914 10.364881363428733 13.838442528984883 0 0 0
82 1 3.3561389383014744 10.317617161260337 13.80106956400475 0 0 0
83 1 5.171620277288349 10.348217221211462 12.065259906869214 0 0 0
134 1 5.150685325360069 8.597808419891413 13.797870059436702 0 0 0
153 1 3.409796444550385 8.587431234685532 15.533901061022501 0 0 0
154 1 5.152039670362509 6.8788264393926735 12.07561167198003 0 0 0
155 1 3.416837337036758 8.6142674882555 12.043503656021981 0 0 0
259 2 1.6375659985306072 10.343451261576506 12.024507931987772 0 0 0
270 2 1.6903925654812748 6.874278431438355 15.549518656153994 0 0 0
271 2 -0.047492488700384285 8.59986957127967 15.580847555908862 0 0 0
272 2 -0.033003648229495516 6.886631332449874 13.849681880329037 0 0 0
275 2 1.6907209851335139 6.880395216508683 12.106138512060905 0 0 0
276 2 -0.04780421106331285 8.594496997632541 12.10108571106182 0 0 0
359 3 3.3791063542419812 6.87825682164788 13.790828070637666 0 0 0
360 3 5.181814404762272 6.854439168349135 15.520822503602528 0 0 0
421 3 5.0921945306048855 10.327020461913163 15.524374057452716 0 0 0
458 3 1.6079144736567073 8.600248826532097 13.792740738786295 0 0 0
490 3 1.6975439792524216 10.39278649749626 15.636764888274016 0 0 0
209 2 10.311613112600337 6.928838265516125 17.267387826811206 0 0 -1
224 2 10.325490618286576 10.379612316317127 17.287206584203755 0 0 -1
92 1 8.635167642425877 8.623615574482773 13.817471190125774 0 0 0
102 1 6.909450018334137 10.327397731218849 13.801838748255708 0 0 0
120 1 10.372028550320488 10.333949723042508 13.859816325622571 0 0 0
182 2 6.908470873481797 8.57930621902832 12.063968921559056 0 0 0
183 2 8.571730558320706 6.902809940187725 12.119286501843602 0 0 0
185 2 6.891679596987857 6.88690724200049 13.852150530977818 0 0 0
199 2 8.655003304264408 10.340328319713539 12.064782628910805 0 0 0
200 2 8.628527039242693 10.394113184399329 15.587162367977085 0 0 0
218 2 10.322166369151933 8.613159860020444 12.078893642063955 0 0 0
221 2 10.325726829213888 8.627382203344096 15.618622696428796 0 0 0
351 3 10.34327486554307 6.906743814384895 13.821066165222932 0 0 0
408 3 8.655728326336856 6.885660111264843 15.57094986268673 0 0 0
410 3 6.954254011301059 8.638782419335644 15.564938360451428 0 0 0
32 1 17.273307749575515 10.332767872128818 17.29150601801043 -1 0 -1
343 2 17.274796705241002 6.930423908414629 17.274829538794798 -1 0 -1
149 1 12.102330994949165 8.616247941114954 17.247164401993064 0 0 -1
220 2 15.528370249195666 8.60864127379098 17.276556659453373 0 0 -1
222 2 13.873888914704274 6.90930485094164 17.271864965622335 0 0 -1
249 2 13.81953960743828 10.314919711835028 17.25615720314932 0 0 -1
9 1 12.078706329191773 10.35515877143833 12.096728093580243 0 0 0
40 1 15.583079818354909 8.612474900254183 13.855650018528875 0 0 0
110 1 12.101424213042115 8.6186211667582 13.854023624270898 0 0 0
202 2 15.565652975414562 6.895334781417663 15.566746748734612 0 0 0
203 2 13.843504179326215 8.58706418729502 15.562711178969945 0 0 0
206 2 13.819727354512407 6.899055390875309 13.827696282901814 0 0 0
223 2 12.053826709379692 6.912621865079714 15.548704500279488 0 0 0
237 2 12.101476802519903 10.382783101010325 15.572199453560199 0 0 0
353 3 12.13455964902917 6.894307902684373 12.067158661979368 0 0 0
442 3 15.528366846758345 10.339488946989595 15.580672748552097 0 0 0
443 3 13.805028429467091 10.407236533543742 13.894612087713547 0 0 0
445 3 15.560420784869082 10.391933195486176 12.122005997183573 0 0 0
455 3 15.545830498761955 6.860237542686105 12.160819935049487 0 0 0
456 3 13.86703891204688 8.659929333967797 12.06402025716762 0 0 0
180 2 -0.009811720351935192 17.264194292412714 17.277979509292987 0 -1 -1
285 2 3.4040894122909173 17.291871970513505 17.28232734206952 0 -1 -1
251 2 1.7113492018726197 12.079887971324936 17.248965530581653 0 0 -1
278 2 5.139376010814723 15.593582361122301 17.292116521563344 0 0 -1
308 2 1.665427876793426 15.545384291506192 17.280545223788714 0 0 -1
423 3 3.426670721620304 13.876510466014837 17.282908141187345 0 0 -1
125 1 3.417683247463886 17.293848004813153 13.83017887144778 0 -1 0
382 3 5.124028458608782 17.27967759109148 15.573076549461694 0 -1 0
462 3 1.6506416270806412 17.20071150365224 12.123976007303876 0 -1 0
18 1 1.6921106215137798 13.829026355307853 15.548524807508457 0 0 0
45 1 1.7061776154140216 12.079951634456718 13.806583392473167 0 0 0
52 1 -0.03879188363782801 12.119522827835473 12.101221948088154 0 0 0
69 1 3.3972798995965428 15.555751582693524 15.538859485843755 0 0 0
70 1 3.451797104113835 15.59213790000646 12.097672639576045 0 0 0
135 1 3.413678815051093 12.076575324491753 12.097060377263443 0 0 0
290 2 1.6410690364089158 15.572703623691872 13.811155909077861 0 0 0
291 2 -0.04853728617438311 15.587387803465594 15.555008210045719 0 0 0
333 2 5.174081782420897 15.574754119372438 13.870485538562969 0 0 0
337 2 3.4709335744548078 13.843769736870938 13.80493701971099 0 0 0
342 2 5.183227772681351 13.863540070435654 15.561795421221447 0 0 0
420 3 3.4820377435980254 12.126304121415666 15.514433799290254 0 0 0
422 3 5.183000513172657 12.041286764773583 13.843181718375458 0 0 0
432 3 5.113453020553464 13.851030189561202 12.125853749622518 0 0 0
439 3 1.723196649911812 13.897475977247408 12.131610168375152 0 0 0
434 3 6.945813635246978 17.209098022058967 17.271062806865775 0 -1 -1
158 2 8.655105695280525 15.568026667769619 17.29866033368842 0 0 -1
384 3 10.346051721126143 13.807906950897578 17.256231500694547 0 0 -1
406 3 8.620346474525414 12.048235190533013 17.259839337462385 0 0 -1
330 2 8.622083175454216 17.27963492436397 15.595124098149675 0 -1 0
397 3 6.901720301564025 17.294875339759482 13.826551797025768 0 -1 0
65 1 6.853535661668195 15.585219737690505 12.095349698407047 0 0 0
67 1 6.90090670051847 13.854098253642317 13.817471761097107 0 0 0
68 1 8.604214648120273 13.815887551880069 15.550651241460809 0 0 0
99 1 6.899956712804877 12.114252968711824 12.08536222896502 0 0 0
130 1 10.356427758228907 13.821250131589377 13.880890858883944 0 0 0
227 2 8.615860633464228 15.594588068148234 13.836937155726263 0 0 0
239 2 6.890623099308742 15.578529824996647 15.548699191649876 0 0 0
243 2 10.399150837990188 12.059508782604592 15.59131904754456 0 0 0
369 3 10.422745670180785 15.566213316376329 12.200352195162262 0 0 0
378 3 10.29975167204429 15.612375030303763 15.5441314691187 0 0 0
386 3 10.370751480569073 12.118942767256014 12.130904850015389 0 0 0
398 3 8.635854958931612 12.020080269269501 13.857823559683366 0 0 0
399 3 6.759943192207142 12.099694216114758 15.546896390906593 0 0 0
435 3 8.645863824995104 13.896915620686615 12.066938782538866 0 0 0
489 3 17.284459513084666 13.853729322782911 17.222900204731708 -1 0 -1
39 1 15.557752636435936 12.07741458634682 17.283173349170607 0 0 -1
123 1 12.099733893952546 15.575581840335762 17.290643186723976 0 0 -1
317 2 17.268848753348177 17.248101170007896 13.81861751606675 -1 -1 0
194 2 13.852702070077582 17.285253816643063 13.843870621039784 0 -1 0
485 3 15.582150371794805 17.262144000438152 12.148176403701145 0 -1 0
497 3 15.559957867787519 17.25267964717597 15.55994322029945 0 -1 0
19 1 17.266394265426328 12.09504021301565 15.553844674538189 -1 0 0
21 1 17.269323928713934 13.834153026150663 13.822439896166387 -1 0 0
295 2 17.244913600336236 15.527504580075396 12.119889969520967 -1 0 0
11 1 13.842726395195918 15.551038853081703 15.564834398887303 0 0 0
14 1 13.806205674219818 13.803046129421501 13.823337481985638 0 0 0
33 1 13.796240738183439 12.095329118678999 12.092609425053533 0 0 0
48 1 13.83935874170943 12.104279360056967 15.613269873717414 0 0 0
132 1 12.088549351578035 13.8270180338345 15.591567587611479 0 0 0
165 2 12.053535374905481 13.843114325302087 12.137083096985714 0 0 0
186 2 15.561889671358305 13.868668715947882 15.5785668117072 0 0 0
196 2 12.08653351437059 15.595931638207972 13.85170596927115 0 0 0
231 2 15.518622210419588 12.083408683865986 13.843362786586583 0 0 0
235 2 12.055175592253809 12.082818331941647 13.85410359659907 0 0 0
242 2 15.565556063001496 15.542245911570499 13.83611290998196 0 0 0
471 3 15.545853157597238 13.790029513742494 12.076573178562684 0 0 0
472 3 13.779500057899675 15.561776987925214 12.146183088918947 0 0 0

Velocities

10 0 0 0
13 0 0 0
109 0 0 0
121 0 0 0
284 0 0 0
300 0 0 0
304 0 0 0
305 0 0 0
311 0 0 0
324 0 0 0
375 0 0 0
376 0 0 0
377 0 0 0
385 0 0 0
428 0 0 0
467 0 0 0
478 0 0 0
480 0 0 0
482 0 0 0
61 0 0 0
63 0 0 0
66 0 0 0
72 0 0 0
85 0 0 0
96 0 0 0
98 0 0 0
100 0 0 0
136 0 0 0
229 0 0 0
244 0 0 0
245 0 0 0
321 0 0 0
323 0 0 0
332 0 0 0
401 0 0 0
404 0 0 0
418 0 0 0
431 0 0 0
437 0 0 0
438 0 0 0
1 0 0 0
463 0 0 0
465 0 0 0
2 0 0 0
3 0 0 0
4 0 0 0
5 0 0 0
6 0 0 0
60 0 0 0
71 0 0 0
84 0 0 0
133 0 0 0
137 0 0 0
146 0 0 0
167 0 0 0
188 0 0 0
232 0 0 0
234 0 0 0
247 0 0 0
372 0 0 0
484 0 0 0
41 0 0 0
122 0 0 0
253 0 0 0
254 0 0 0
255 0 0 0
256 0 0 0
262 0 0 0
263 0 0 0
265 0 0 0
266 0 0 0
335 0 0 0
339 0 0 0
344 0 0 0
350 0 0 0
352 0 0 0
361 0 0 0
364 0 0 0
447 0 0 0
459 0 0 0
460 0 0 0
86 0 0 0
87 0 0 0
88 0 0 0
89 0 0 0
93 0 0 0
147 0 0 0
150 0 0 0
151 0 0 0
191 0 0 0
334 0 0 0
340 0 0 0
346 0 0 0
405 0 0 0
407 0 0 0
413 0 0 0
414 0 0 0
450 0 0 0
24 0 0 0
27 0 0 0
28 0 0 0
30 0 0 0
36 0 0 0
38 0 0 0
148 0 0 0
152 0 0 0
210 0 0 0
211 0 0 0
217 0 0 0
225 0 0 0
461 0 0 0
473 0 0 0
282 0 0 0
283 0 0 0
374 0 0 0
464 0 0 0
466 0 0 0
12 0 0 0
29 0 0 0
44 0 0 0
59 0 0 0
77 0 0 0
78 0 0 0
143 0 0 0
145 0 0 0
252 0 0 0
264 0 0 0
274 0 0 0
302 0 0 0
306 0 0 0
307 0 0 0
362 0 0 0
367 0 0 0
416 0 0 0
426 0 0 0
427 0 0 0
228 0 0 0
314 0 0 0
94 0 0 0
95 0 0 0
103 0 0 0
105 0 0 0
111 0 0 0
124 0 0 0
159 0 0 0
161 0 0 0
162 0 0 0
166 0 0 0
173 0 0 0
177 0 0 0
357 0 0 0
383 0 0 0
396 0 0 0
192 0 0 0
230 0 0 0
373 0 0 0
46 0 0 0
51 0 0 0
126 0 0 0
164 0 0 0
172 0 0 0
174 0 0 0
175 0 0 0
246 0 0 0
349 0 0 0
391 0 0 0
440 0 0 0
441 0 0 0
448 0 0 0
451 0 0 0
481 0 0 0
483 0 0 0
15 0 0 0
43 0 0 0
112 0 0 0
116 0 0 0
117 0 0 0
118 0 0 0
286 0 0 0
287 0 0 0
288 0 0 0
293 0 0 0
327 0 0 0
328 0 0 0
329 0 0 0
380 0 0 0
389 0 0 0
390 0 0 0
444 0 0 0
468 0 0 0
470 0 0 0
474 0 0 0
73 0 0 0
91 0 0 0
106 0 0 0
233 0 0 0
250 0 0 0
316 0 0 0
318 0 0 0
322 0 0 0
381 0 0 0
392 0 0 0
393 0 0 0
394 0 0 0
395 0 0 0
403 0 0 0
417 0 0 0
8 0 0 0
469 0 0 0
47 0 0 0
76 0 0 0
79 0 0 0
139 0 0 0
176 0 0 0
187 0 0 0
201 0 0 0
208 0 0 0
214 0 0 0
366 0 0 0
368 0 0 0
371 0 0 0
429 0 0 0
488 0 0 0
496 0 0 0
498 0 0 0
35 0 0 0
37 0 0 0
56 0 0 0
58 0 0 0
138 0 0 0
140 0 0 0
156 0 0 0
257 0 0 0
258 0 0 0
260 0 0 0
268 0 0 0
277 0 0 0
354 0 0 0
356 0 0 0
452 0 0 0
453 0 0 0
115 0 0 0
179 0 0 0
181 0 0 0
184 0 0 0
193 0 0 0
195 0 0 0
212 0 0 0
303 0 0 0
355 0 0 0
358 0 0 0
387 0 0 0
400 0 0 0
412 0 0 0
415 0 0 0
454 0 0 0
486 0 0 0
23 0 0 0
26 0 0 0
31 0 0 0
34 0 0 0
157 0 0 0
207 0 0 0
213 0 0 0
215 0 0 0
216 0 0 0
240 0 0 0
345 0 0 0
388 0 0 0
457 0 0 0
131 0 0 0
17 0 0 0
55 0 0 0
74 0 0 0
267 0 0 0
269 0 0 0
273 0 0 0
279 0 0 0
280 0 0 0
294 0 0 0
299 0 0 0
301 0 0 0
336 0 0 0
338 0 0 0
430 0 0 0
487 0 0 0
491 0 0 0
492 0 0 0
238 0 0 0
75 0 0 0
108 0 0 0
62 0 0 0
64 0 0 0
101 0 0 0
127 0 0 0
168 0 0 0
169 0 0 0
170 0 0 0
171 0 0 0
197 0 0 0
204 0 0 0
402 0 0 0
433 0 0 0
436 0 0 0
16 0 0 0
370 0 0 0
499 0 0 0
261 0 0 0
22 0 0 0
119 0 0 0
128 0 0 0
129 0 0 0
160 0 0 0
189 0 0 0
190 0 0 0
236 0 0 0
241 0 0 0
248 0 0 0
379 0 0 0
446 0 0 0
475 0 0 0
479 0 0 0
296 0 0 0
298 0 0 0
320 0 0 0
25 0 0 0
50 0 0 0
113 0 0 0
114 0 0 0
281 0 0 0
289 0 0 0
292 0 0 0
297 0 0 0
309 0 0 0
310 0 0 0
315 0 0 0
319 0 0 0
347 0 0 0
348 0 0 0
476 0 0 0
477 0 0 0
57 0 0 0
326 0 0 0
80 0 0 0
81 0 0 0
90 0 0 0
104 0 0 0
107 0 0 0
141 0 0 0
144 0 0 0
226 0 0 0
312 0 0 0
313 0 0 0
325 0 0 0
331 0 0 0
341 0 0 0
365 0 0 0
409 0 0 0
411 0 0 0
7 0 0 0
97 0 0 0
500 0 0 0
20 0 0 0
42 0 0 0
53 0 0 0
54 0 0 0
142 0 0 0
163 0 0 0
178 0 0 0
198 0 0 0
205 0 0 0
219 0 0 0
363 0 0 0
419 0 0 0
424 0 0 0
425 0 0 0
493 0 0 0
494 0 0 0
495 0 0 0
449 0 0 0
49 0 0 0
82 0 0 0
83 0 0 0
134 0 0 0
153 0 0 0
154 0 0 0
155 0 0 0
259 0 0 0
270 0 0 0
271 0 0 0
272 0 0 0
275 0 0 0
276 0 0 0
359 0 0 0
360 0 0 0
421 0 0 0
458 0 0 0
490 0 0 0
209 0 0 0
224 0 0 0
92 0 0 0
102 0 0 0
120 0 0 0
182 0 0 0
183 0 0 0
185 0 0 0
199 0 0 0
200 0 0 0
218 0 0 0
221 0 0 0
351 0 0 0
408 0 0 0
410 0 0 0
32 0 0 0
343 0 0 0
149 0 0 0
220 0 0 0
222 0 0 0
249 0 0 0
9 0 0 0
40 0 0 0
110 0 0 0
202 0 0 0
203 0 0 0
206 0 0 0
223 0 0 0
237 0 0 0
353 0 0 0
442 0 0 0
443 0 0 0
445 0 0 0
455 0 0 0
456 0 0 0
180 0 0 0
285 0 0 0
251 0 0 0
278 0 0 0
308 0 0 0
423 0 0 0
125 0 0 0
382 0 0 0
462 0 0 0
18 0 0 0
45 0 0 0
52 0 0 0
69 0 0 0
70 0 0 0
135 0 0 0
290 0 0 0
291 0 0 0
333 0 0 0
337 0 0 0
342 0 0 0
420 0 0 0
422 0 0 0
432 0 0 0
439 0 0 0
434 0 0 0
158 0 0 0
384 0 0 0
406 0 0 0
330 0 0 0
397 0 0 0
65 0 0 0
67 0 0 0
68 0 0 0
99 0 0 0
130 0 0 0
227 0 0 0
239 0 0 0
243 0 0 0
369 0 0 0
378 0 0 0
386 0 0 0
398 0 0 0
399 0 0 0
435 0 0 0
489 0 0 0
39 0 0 0
123 0 0 0
317 0 0 0
194 0 0 0
485 0 0 0
497 0 0 0
19 0 0 0
21 0 0 0
295 0 0 0
11 0 0 0
14 0 0 0
33 0 0 0
48 0 0 0
132 0 0 0
165 0 0 0
186 0 0 0
196 0 0 0
231 0 0 0
235 0 0 0
242 0 0 0
471 0 0 0
472 0 0 0
