LAMMPS data file via write_data, version 29 Aug 2024, timestep = 32, units = metal

500 atoms
3 atom types

0 17.66474715044911 xlo xhi
0 17.66474715044911 ylo yhi
0 17.66474715044911 zlo zhi

Masses

1 55.1829
2 55.845
3 55.845

Atoms # atomic

1 2 0.001333073596672456 0.0013330735966715856 3.336568058991064e-19 0 0 0
2 3 1.7651416414482393 1.7651416414482404 1.019992648162298e-16 0 0 0
3 1 1.7629666865610674 0.003508028483844009 1.7591565695586167 0 0 0
4 1 0.003508028483843374 1.7629666865610683 1.7591565695586178 0 0 0
5 1 3.5262577067827463 0.0034795782039962683 5.190253657512185e-16 0 0 0
8 1 3.53117208205765 1.7675561097958556 1.76453558240616 0 0 0
21 1 0.003479578203998018 3.5262577067827454 0 0 0 0
23 1 1.7675561097958556 3.5311720820576493 1.7645355824061602 0 0 0
25 1 3.5266013227314383 3.5266013227314374 0 0 0 0
52 1 1.7673167100169567 1.7673167100169573 3.5300509228330035 0 0 0
53 1 1.7658878866710404 0.0005868283738717969 5.298306465142918 0 0 0
54 1 0.0005868283738724066 1.7658878866710404 5.298306465142918 0 0 0
58 1 3.5323133639346795 1.7660325543314663 5.298481625130494 0 0 0
73 1 1.766032554331467 3.532313363934679 5.298481625130493 0 0 0
75 1 3.5345335177196686 3.5345335177196677 3.5346500167939987 0 0 0
6 1 5.295246715173761 1.766028039911045 8.152979002332903e-19 0 0 0
9 1 7.065439587350229 0.0005965460105363477 1.4715205832785902e-16 0 0 0
12 1 7.065133637791723 1.7664259382307121 1.7658483706170192 0 0 0
27 1 5.3001876457737795 3.533896583304853 1.7670001476619044 0 0 0
29 1 7.065270395496837 3.532140979813773 4.3101962025525983e-16 0 0 0
56 1 5.295617433499922 1.76605691514417 3.529438919325014 0 0 0
57 1 5.298121458333927 0.00042768321410115216 5.297828522037221 0 0 0
59 1 7.065493699039175 0.00042514691683942594 3.532622793619476 0 0 0
62 1 7.0645965601057705 1.7662625865408506 5.298121775960821 0 0 0
77 1 5.299525772295289 3.5324405909227 5.299248213618481 0 0 0
79 1 7.065303064437949 3.532357962554017 3.53277615719552 0 0 0
11 1 8.832135930878936 9.126516285569777e-05 1.7663376543232452 0 0 0
31 1 8.832142019540504 3.53273042035472 1.7663785351864538 0 0 0
60 1 8.83226641393331 1.7664587289533542 3.5325068980593635 0 0 0
61 1 8.832232032829575 0.00019749834684082497 5.299047515563183 0 0 0
81 1 8.832241886477343 3.532573369646237 5.299134050324227 0 0 0
10 1 8.832449866710233 1.7664372065686018 4.242728388024561e-16 0 0 0
13 1 10.598771998783787 3.750847630834225e-05 0 0 0 0
14 1 12.365782278143792 1.7658781690343763 4.63305171709983e-16 0 0 0
15 1 12.366088227702297 4.8776814197668794e-05 1.7658483706170196 0 0 0
16 1 10.599085934615085 1.7663834498820554 1.7663376543232465 0 0 0
33 1 10.59896168833177 3.532589353134483 9.906784882503728e-17 0 0 0
35 1 12.365882678092783 3.53281831521622 1.7659464665156042 0 0 0
63 1 10.59895545156071 1.598609155619101e-05 3.532506898059363 0 0 0
64 1 12.365728166454845 1.7660495681280728 3.532622793619476 0 0 0
65 1 12.36662530538825 0.00021212850406184105 5.298121775960822 0 0 0
66 1 10.598989832664447 1.766277216698069 5.299047515563182 0 0 0
83 1 10.599165796495281 3.532741545931686 3.532611354127754 0 0 0
85 1 12.36541554270817 3.532632328159259 5.299338031676848 0 0 0
71 1 17.663887028227364 3.530059030331317 3.530136109323254 -1 0 0
17 1 14.13597515032026 0.00044667513386547974 3.282707152881593e-16 0 0 0
18 1 15.904964158711275 1.7629951368409142 1.2811824146523132e-18 0 0 0
20 1 14.131292884401503 1.7673065782643238 1.7668241874724193 0 0 0
37 1 14.135988863755864 3.5286894617866387 1.0047389539128226e-17 0 0 0
39 1 15.896591981804153 3.5346298836898677 1.7680517044435469 0 0 0
67 1 14.135604431994098 0.00041779990074016876 3.5294389193250146 0 0 0
68 1 15.901162835162703 1.7673348372666564 3.530136109323254 0 0 0
69 1 15.89890850155934 0.0004421607134446183 5.298481625130493 0 0 0
70 1 14.133100407160093 1.7660470318308084 5.297828522037222 0 0 0
87 1 14.131570482093856 3.533099458029425 3.5334624959140664 0 0 0
89 1 15.898783477916057 3.5324383875779626 5.298713323005875 0 0 0
22 1 1.7660280399110453 5.2952467151737626 7.196809790997009e-19 0 0 0
28 1 3.5338965833048532 5.30018764577378 1.767000147661904 0 0 0
41 1 0.0005965460105362135 7.065439587350229 6.094574854381582e-17 0 0 0
42 1 1.7664259382307124 7.065133637791722 1.7658483706170192 0 0 0
43 1 3.5321409798137733 7.065270395496836 5.582758368706715e-16 0 0 0
72 1 1.76605691514417 5.295617433499923 3.5294389193250155 0 0 0
74 1 0.00042768321410295866 5.298121458333928 5.297828522037221 0 0 0
78 1 3.5324405909226995 5.299525772295289 5.299248213618481 0 0 0
91 1 0.0004251469168394259 7.065493699039175 3.5326227936194763 0 0 0
92 1 1.7662625865408499 7.0645965601057705 5.298121775960821 0 0 0
93 1 3.5323579625540176 7.06530306443795 3.5327761571955194 0 0 0
252 1 9.126516285683315e-05 8.832135930878938 1.766337654323246 0 0 0
254 1 3.5327304203547207 8.832142019540504 1.766378535186455 0 0 0
301 1 1.7664587289533542 8.83226641393331 3.532506898059363 0 0 0
302 1 0.00019749834684047976 8.832232032829575 5.299047515563182 0 0 0
304 1 3.532573369646238 8.832241886477343 5.299134050324227 0 0 0
26 1 5.29478891618587 5.29478891618587 5.143416216217721e-16 0 0 0
32 1 7.065485693787335 5.29929228586209 1.7658797908514876 0 0 0
44 1 5.29929228586209 7.065485693787335 1.7658797908514874 0 0 0
45 1 7.064354144015548 7.064354144015548 1.7438099962623877e-16 0 0 0
76 1 5.30020373756997 5.300203737569969 3.5335393812612415 0 0 0
82 1 7.066035945028241 5.299270654791836 5.299495316773739 0 0 0
94 1 5.299270654791837 7.066035945028241 5.29949531677374 0 0 0
95 1 7.066044449514933 7.066044449514932 3.5327207416051367 0 0 0
30 1 8.832275619233817 5.298904787880838 2.0823882997195858e-17 0 0 0
46 1 8.832252589383144 7.065667108217961 1.76607862491651 0 0 0
80 1 8.832079941889116 5.299084269946551 3.5326102639410895 0 0 0
253 1 5.298904787880838 8.832275619233819 6.30885279942427e-19 0 0 0
256 1 7.065667108217962 8.832252589383144 1.7660786249165088 0 0 0
303 1 5.29908426994655 8.832079941889116 3.532610263941089 0 0 0
255 1 8.831973150596601 8.831973150596601 4.072476572459552e-16 0 0 0
34 1 12.366659905005472 5.297895252463479 0 0 0 0
36 1 10.59900591780324 5.299119587408017 1.7662514688581532 0 0 0
47 1 10.599288452804258 7.065235955800855 1.255704355270023e-18 0 0 0
48 1 12.365661824897076 7.065560040596943 1.7660645397045804 0 0 0
84 1 12.365581180629754 5.29930142842274 3.5326368221807947 0 0 0
86 1 10.59887028518833 5.299160793506116 5.299189805441949 0 0 0
96 1 8.832407800154394 7.06579664329399 5.299272864390961 0 0 0
97 1 10.598860339039007 7.065736489252425 3.532611115522491 0 0 0
98 1 12.365415783085522 7.065806082408497 5.299271669630194 0 0 0
257 1 12.365985909693165 8.831933412689763 8.971304969449857e-19 0 0 0
258 1 10.598957749767647 8.832264115726373 1.766064517208567 0 0 0
307 1 12.365485376241596 8.832361526455015 3.5326111155224904 0 0 0
308 1 10.598893422783402 8.832328442710619 5.299234996890359 0 0 0
100 1 15.898589537334763 7.065806322785849 5.2993380316768475 0 0 0
99 1 14.131920437071283 7.065640684864268 3.532636822180794 0 0 0
90 1 14.131838108300595 5.299383757193427 5.299584391657539 0 0 0
88 1 15.898122407464594 5.299651383400166 3.5334624959140664 0 0 0
24 1 17.663915287229695 5.299928981092517 1.7668241874724195 -1 0 0
38 1 15.902532403707381 5.295233001738158 0 0 0 0
40 1 14.132232924370623 5.2989889411233975 1.765571784152322 0 0 0
49 1 14.133326613030542 7.064561960488547 8.322832731548172e-19 0 0 0
50 1 15.8984035502778 7.065339187401237 1.7659464665156044 0 0 0
259 1 15.898632512359539 8.832260177162253 7.830374198926667e-16 0 0 0
260 1 14.132102278086005 8.832215947690782 1.766251468858153 0 0 0
309 1 15.898480319562333 8.83205606899874 3.5326113541277544 0 0 0
310 1 14.132061071987906 8.832351580305692 5.299189805441949 0 0 0
101 1 8.559315127492468e-05 8.559315127333903e-05 7.065725594183158 0 0 0
102 1 1.766389121893638 1.766389121893637 7.065725594183158 0 0 0
103 1 1.7664151514029798 5.956364193073624e-05 8.832373575224555 0 0 0
104 1 5.956364193083526e-05 1.7664151514029804 8.832373575224556 0 0 0
105 1 3.5325337143705267 9.915955678580736e-05 7.065521553691615 0 0 0
108 1 3.532736870338975 1.7664537727460923 8.832373575224555 0 0 0
121 1 9.915955678538757e-05 3.5325337143705267 7.065521553691615 0 0 0
123 1 1.7664537727460923 3.5327368703389745 8.832373575224555 0 0 0
125 1 3.5326555099731642 3.532655509973163 7.065307021537946 0 0 0
151 1 8.559315127428955e-05 8.559315127327944e-05 10.599021556265951 0 0 0
152 1 1.766389121893637 1.766389121893637 10.599021556265951 0 0 0
153 1 3.5325337143705267 9.915955678562076e-05 10.599225596757496 0 0 0
161 1 9.915955678625065e-05 3.532533714370526 10.599225596757496 0 0 0
163 1 3.5326555099731642 3.5326555099731634 10.599440128911162 0 0 0
106 1 5.298931998309833 1.7662591655836146 7.065600615205901 0 0 0
107 1 5.299003212209681 2.8835477920695394e-05 8.832373575224555 0 0 0
109 1 7.065277539907362 0.00020078414921254355 7.065305071684354 0 0 0
112 1 7.065528494388104 1.7662511591601076 8.832373575224555 0 0 0
127 1 5.299085011982216 3.5327319630961624 8.832373575224555 0 0 0
129 1 7.0657647615121935 3.5325691426750128 7.06579232204148 0 0 0
154 1 5.298931998309832 1.7662591655836142 10.599146535243209 0 0 0
155 1 7.065277539907363 0.00020078414921251403 10.599442078764756 0 0 0
165 1 7.065764761512194 3.5325691426750123 10.59895482840763 0 0 0
110 1 8.831960182988995 1.7662572175580336 7.065409789571891 0 0 0
111 1 8.832236637518161 0.00021316258570661567 8.832373575224555 0 0 0
131 1 8.83229811809734 3.5325400105441553 8.832373575224555 0 0 0
156 1 8.831960182988995 1.766257217558033 10.599337360877218 0 0 0
113 1 10.599261682505025 0.00021749748687859883 7.065409789571892 0 0 0
114 1 12.365944325586659 1.766273930895699 7.065305071684353 0 0 0
115 1 12.365693371105918 0.00022355588480354758 8.832373575224555 0 0 0
116 1 10.598985227975861 1.7662615524592038 8.832373575224555 0 0 0
133 1 10.59887100900266 3.532556252821983 7.065815197808031 0 0 0
135 1 12.36563240200665 3.532543847242897 8.832373575224555 0 0 0
157 1 10.599261682505025 0.00021749748687926933 10.599337360877218 0 0 0
158 1 12.365944325586657 1.7662739308956985 10.599442078764756 0 0 0
167 1 10.59887100900266 3.5325562528219825 10.598931952641077 0 0 0
117 1 14.132289867184188 0.00021554946129783778 7.0656006152059 0 0 0
118 1 15.898688151123494 1.766375555488126 7.065521553691615 0 0 0
119 1 15.898484995155046 2.0942298818046544e-05 8.832373575224555 0 0 0
120 1 14.132218653284342 1.7664458795669902 8.832373575224555 0 0 0
137 1 14.132187718866094 3.5325301933624322 7.065403503487457 0 0 0
139 1 15.89846838115885 3.53275348433517 8.832373575224555 0 0 0
159 1 14.13228986718419 0.00021554946129678944 10.599146535243207 0 0 0
160 1 15.898688151123494 1.7663755554881255 10.599225596757496 0 0 0
169 1 14.132187718866094 3.532530193362433 10.599343646961652 0 0 0
122 1 1.7662591655836144 5.2989319983098335 7.065600615205901 0 0 0
124 1 2.8835477922733677e-05 5.299003212209681 8.832373575224555 0 0 0
128 1 3.532731963096161 5.299085011982215 8.832373575224555 0 0 0
141 1 0.00020078414921258933 7.065277539907361 7.065305071684354 0 0 0
142 1 1.7662511591601073 7.065528494388102 8.832373575224555 0 0 0
143 1 3.5325691426750128 7.065764761512193 7.065792322041479 0 0 0
162 1 1.766259165583614 5.298931998309833 10.599146535243207 0 0 0
171 1 0.00020078414921301 7.0652775399073615 10.599442078764756 0 0 0
172 1 3.5325691426750128 7.0657647615121935 10.59895482840763 0 0 0
351 1 1.7662572175580333 8.831960182988997 7.065409789571891 0 0 0
352 1 0.00021316258570771006 8.832236637518161 8.832373575224555 0 0 0
354 1 3.532540010544156 8.83229811809734 8.832373575224555 0 0 0
401 1 1.7662572175580333 8.831960182988995 10.599337360877216 0 0 0
126 1 5.299162996756564 5.299162996756564 7.065622686202761 0 0 0
132 1 7.065710822216926 5.299142178898986 8.832373575224555 0 0 0
144 1 5.299142178898987 7.065710822216926 8.832373575224555 0 0 0
145 1 7.065799043541518 7.065799043541518 7.065893613487913 0 0 0
164 1 5.299162996756564 5.299162996756564 10.599124464246348 0 0 0
173 1 7.065799043541517 7.065799043541518 10.598853536961196 0 0 0
146 1 8.832358700407394 7.065746709499642 8.832373575224555 0 0 0
356 1 7.065746709499642 8.832358700407394 8.832373575224555 0 0 0
355 1 8.83234139304613 8.832341393046132 7.0658255240595444 0 0 0
403 1 8.83234139304613 8.832341393046132 10.598921626389565 0 0 0
130 1 8.832413800438482 5.2991454049682085 7.065894715163394 0 0 0
134 1 12.365423683057589 5.2991509919493875 7.065913895168725 0 0 0
136 1 10.598918706747398 5.299116530010729 8.832373575224555 0 0 0
147 1 10.598913587500395 7.0657424981526775 7.065832830102655 0 0 0
148 1 12.365490153451079 7.065731712042943 8.832373575224555 0 0 0
166 1 8.832413800438482 5.2991454049682085 10.598852435285714 0 0 0
168 1 12.36542368305759 5.2991509919493875 10.598833255280384 0 0 0
174 1 10.598913587500395 7.0657424981526775 10.598914320346454 0 0 0
357 1 12.365479367341345 8.832308277993627 7.065832830102657 0 0 0
358 1 10.59890801654744 8.83231384894658 8.832373575224555 0 0 0
404 1 12.365479367341344 8.832308277993626 10.598914320346454 0 0 0
138 1 15.898691672131587 5.299034146627928 7.065403503487457 0 0 0
140 1 14.132176420020615 5.299045445473404 8.832373575224556 0 0 0
149 1 14.132070873544635 7.065798182436431 7.065913895168726 0 0 0
150 1 15.898678018251124 7.06558946348737 8.832373575224555 0 0 0
170 1 15.898691672131587 5.299034146627928 10.599343646961652 0 0 0
175 1 14.132070873544635 7.065798182436431 10.598833255280384 0 0 0
359 1 15.898665612672037 8.832350856491361 7.065815197808031 0 0 0
360 1 14.132105335483292 8.832303158746623 8.832373575224555 0 0 0
405 1 15.898665612672037 8.832350856491361 10.59893195264108 0 0 0
176 1 1.7658878866710404 0.0005868283738700122 12.366440685306191 0 0 0
177 1 0.0005868283738704033 1.7658878866710401 12.366440685306193 0 0 0
179 1 3.5323133639346804 1.7660325543314657 12.366265525318616 0 0 0
186 1 1.766032554331466 3.532313363934679 12.366265525318616 0 0 0
202 1 1.7673167100169567 1.7673167100169567 14.134696227616107 0 0 0
203 1 1.7629666865610674 0.003508028483843575 15.905590580890493 0 0 0
204 1 0.00350802848384397 1.7629666865610683 15.905590580890493 0 0 0
208 1 3.531172082057651 1.7675561097958559 15.90021156804295 0 0 0
223 1 1.7675561097958554 3.5311720820576498 15.90021156804295 0 0 0
225 1 3.534533517719669 3.5345335177196677 14.130097133655111 0 0 0
178 1 5.298121458333927 0.0004276832141028064 12.366918628411888 0 0 0
181 1 7.0645965601057705 1.7662625865408499 12.366625374488288 0 0 0
188 1 5.299525772295288 3.5324405909227 12.365498936830628 0 0 0
206 1 5.295617433499922 1.7660569151441694 14.135308231124096 0 0 0
209 1 7.065493699039176 0.00042514691683928613 14.132124356829634 0 0 0
212 1 7.065133637791723 1.7664259382307124 15.89889877983209 0 0 0
227 1 5.3001876457737795 3.533896583304853 15.897747002787204 0 0 0
229 1 7.06530306443795 3.532357962554017 14.13197099325359 0 0 0
180 1 8.832232032829573 0.00019749834684032935 12.365699634885926 0 0 0
190 1 8.832241886477343 3.5325733696462374 12.365613100124882 0 0 0
210 1 8.832266413933308 1.7664587289533549 14.132240252389746 0 0 0
211 1 8.832135930878936 9.126516285574938e-05 15.898409496125865 0 0 0
231 1 8.832142019540504 3.5327304203547203 15.898368615262655 0 0 0
182 1 12.36662530538825 0.000212128504061639 12.366625374488288 0 0 0
183 1 10.598989832664447 1.7662772166980705 12.365699634885926 0 0 0
192 1 12.36541554270817 3.532632328159259 12.365409118772261 0 0 0
213 1 10.59895545156071 1.5986091554951773e-05 14.132240252389748 0 0 0
214 1 12.365728166454845 1.766049568128073 14.132124356829634 0 0 0
215 1 12.366088227702297 4.877681419816072e-05 15.89889877983209 0 0 0
216 1 10.599085934615086 1.7663834498820552 15.898409496125863 0 0 0
233 1 10.599165796495281 3.532741545931686 14.132135796321355 0 0 0
235 1 12.365882678092783 3.532818315216219 15.898800683933505 0 0 0
221 1 17.663887028227368 3.5300590303313184 14.134611041125853 -1 0 0
184 1 15.89890850155934 0.0004421607134448549 12.366265525318617 0 0 0
185 1 14.133100407160095 1.7660470318308088 12.36691862841189 0 0 0
194 1 15.898783477916057 3.5324383875779617 12.366033827443237 0 0 0
217 1 14.135604431994098 0.0004177999007397005 14.135308231124094 0 0 0
218 1 15.901162835162701 1.7673348372666557 14.134611041125853 0 0 0
220 1 14.131292884401505 1.7673065782643242 15.89792296297669 0 0 0
237 1 14.131570482093856 3.533099458029425 14.131284654535044 0 0 0
239 1 15.896591981804152 3.5346298836898673 15.896695446005563 0 0 0
187 1 0.00042768321410255057 5.298121458333928 12.36691862841189 0 0 0
189 1 3.532440590922701 5.299525772295289 12.36549893683063 0 0 0
196 1 1.7662625865408494 7.06459656010577 12.366625374488288 0 0 0
222 1 1.7660569151441698 5.295617433499922 14.135308231124096 0 0 0
228 1 3.5338965833048532 5.30018764577378 15.897747002787204 0 0 0
241 1 0.0004251469168399009 7.065493699039175 14.132124356829634 0 0 0
242 1 1.7664259382307121 7.065133637791723 15.89889877983209 0 0 0
243 1 3.5323579625540176 7.065303064437949 14.13197099325359 0 0 0
426 1 0.00019749834684086514 8.832232032829575 12.365699634885926 0 0 0
427 1 3.532573369646237 8.832241886477343 12.365613100124882 0 0 0
451 1 1.7664587289533549 8.83226641393331 14.132240252389746 0 0 0
452 1 9.126516285707445e-05 8.832135930878936 15.898409496125865 0 0 0
454 1 3.5327304203547207 8.832142019540504 15.898368615262655 0 0 0
191 1 7.066035945028242 5.299270654791837 12.36525183367537 0 0 0
197 1 5.299270654791837 7.066035945028241 12.36525183367537 0 0 0
226 1 5.300203737569969 5.30020373756997 14.131207769187867 0 0 0
232 1 7.065485693787336 5.29929228586209 15.898867359597622 0 0 0
244 1 5.29929228586209 7.065485693787335 15.89886735959762 0 0 0
245 1 7.066044449514932 7.066044449514932 14.132026408843974 0 0 0
230 1 8.832079941889114 5.29908426994655 14.13213688650802 0 0 0
246 1 8.832252589383144 7.065667108217961 15.898668525532601 0 0 0
453 1 5.299084269946551 8.832079941889116 14.13213688650802 0 0 0
456 1 7.065667108217961 8.832252589383144 15.898668525532601 0 0 0
193 1 10.59887028518833 5.299160793506115 12.36555734500716 0 0 0
198 1 8.832407800154394 7.065796643293989 12.365474286058149 0 0 0
199 1 12.365415783085522 7.065806082408499 12.365475480818917 0 0 0
234 1 12.365581180629752 5.29930142842274 14.132110328268315 0 0 0
236 1 10.59900591780324 5.299119587408017 15.898495681590957 0 0 0
247 1 10.598860339039007 7.065736489252425 14.132136034926617 0 0 0
248 1 12.365661824897076 7.065560040596943 15.89868261074453 0 0 0
429 1 10.598893422783402 8.832328442710619 12.36551215355875 0 0 0
457 1 12.365485376241596 8.832361526455013 14.132136034926617 0 0 0
458 1 10.598957749767647 8.832264115726373 15.898682633240544 0 0 0
250 1 15.8984035502778 7.0653391874012375 15.898800683933507 0 0 0
249 1 14.131920437071281 7.065640684864268 14.132110328268315 0 0 0
240 1 14.132232924370623 5.298988941123398 15.899175366296786 0 0 0
238 1 15.898122407464594 5.299651383400165 14.131284654535042 0 0 0
224 1 17.6639152872297 5.299928981092518 15.89792296297669 -1 0 0
195 1 14.131838108300595 5.299383757193427 12.365162758791572 0 0 0
200 1 15.898589537334763 7.06580632278585 12.365409118772261 0 0 0
430 1 14.132061071987904 8.832351580305692 12.36555734500716 0 0 0
459 1 15.898480319562335 8.83205606899874 14.132135796321355 0 0 0
460 1 14.132102278086005 8.832215947690782 15.898495681590957 0 0 0
251 1 1.7664372065686014 8.832449866710235 6.108288909346419e-19 0 0 0
261 1 3.750847630997071e-05 10.598771998783787 4.2232181944274624e-16 0 0 0
262 1 1.7658781690343759 12.365782278143792 1.3515503881843532e-18 0 0 0
263 1 1.7663834498820548 10.599085934615085 1.7663376543232456 0 0 0
264 1 4.877681419956226e-05 12.366088227702297 1.76584837061702 0 0 0
265 1 3.532589353134484 10.59896168833177 7.993870911195926e-19 0 0 0
268 1 3.5328183152162214 12.365882678092783 1.7659464665156035 0 0 0
311 1 1.5986091557496518e-05 10.598955451560713 3.532506898059363 0 0 0
312 1 1.7660495681280717 12.365728166454847 3.5326227936194763 0 0 0
313 1 1.76627721669807 10.598989832664445 5.299047515563183 0 0 0
314 1 0.00021212850406214268 12.36662530538825 5.298121775960821 0 0 0
315 1 3.532741545931688 10.59916579649528 3.532611354127754 0 0 0
318 1 3.5326323281592593 12.365415542708172 5.299338031676848 0 0 0
266 1 5.297895252463478 12.366659905005474 5.027969615656378e-16 0 0 0
267 1 5.2991195874080175 10.59900591780324 1.7662514688581539 0 0 0
269 1 7.065235955800856 10.599288452804258 2.1809847688490537e-16 0 0 0
272 1 7.065560040596943 12.365661824897076 1.7660645397045807 0 0 0
306 1 7.06579664329399 8.832407800154394 5.299272864390961 0 0 0
316 1 5.29930142842274 12.365581180629754 3.5326368221807942 0 0 0
317 1 5.299160793506115 10.59887028518833 5.299189805441948 0 0 0
319 1 7.065736489252425 10.598860339039007 3.5326111155224904 0 0 0
322 1 7.065806082408498 12.365415783085524 5.299271669630194 0 0 0
270 1 8.831933412689763 12.365985909693164 1.0524129156726877e-16 0 0 0
271 1 8.832264115726373 10.598957749767647 1.766064517208566 0 0 0
320 1 8.832361526455013 12.365485376241596 3.532611115522491 0 0 0
321 1 8.83232844271062 10.598893422783402 5.29923499689036 0 0 0
273 1 10.599248714897419 10.599248714897417 9.53992385884934e-16 0 0 0
274 1 12.366867721478473 12.366867721478473 5.190332074087223e-16 0 0 0
275 1 12.36555475727606 10.598969276110877 1.7660786249165092 0 0 0
276 1 10.598969276110878 12.36555475727606 1.7660786249165086 0 0 0
305 1 8.832398124369119 8.832398124369119 3.5326118947710663 0 0 0
323 1 10.598823741124903 10.598823741124903 3.532611894771067 0 0 0
324 1 12.365177415979087 12.365177415979087 3.532720741605135 0 0 0
325 1 12.365425222200031 10.598814065339626 5.299272864390961 0 0 0
326 1 10.598814065339626 12.365425222200031 5.299272864390961 0 0 0
277 1 14.132317077613184 10.598946246260201 1.6008713978539086e-18 0 0 0
278 1 15.899080885680247 12.365951469997183 1.5331856746029725e-16 0 0 0
279 1 15.8984914451393 10.599079845953517 1.7663785351864536 0 0 0
280 1 14.131929579631931 12.365736171706686 1.7658797908514867 0 0 0
327 1 14.13213759554747 10.599141923604904 3.532610263941089 0 0 0
328 1 15.898863902940002 12.36591880105607 3.5327761571955194 0 0 0
329 1 15.898648495847784 10.598979979016677 5.299134050324226 0 0 0
330 1 14.131951210702184 12.36518592046578 5.29949531677374 0 0 0
281 1 0.000446675133867079 14.13597515032026 0 0 0 0
282 1 1.7629951368409138 15.904964158711275 4.003695045788479e-19 0 0 0
283 1 1.767306578264324 14.131292884401503 1.7668241874724202 0 0 0
285 1 3.52868946178664 14.135988863755863 2.0625088285390566e-19 0 0 0
288 1 3.534629883689868 15.896591981804152 1.7680517044435462 0 0 0
331 1 0.0004177999007407775 14.135604431994096 3.529438919325014 0 0 0
332 1 1.767334837266655 15.901162835162701 3.530136109323254 0 0 0
333 1 1.7660470318308088 14.133100407160093 5.297828522037221 0 0 0
334 1 0.0004421607134451551 15.89890850155934 5.298481625130494 0 0 0
335 1 3.5330994580294255 14.131570482093856 3.533462495914067 0 0 0
338 1 3.532438387577964 15.898783477916057 5.298713323005873 0 0 0
55 1 3.530059030331318 17.663887028227364 3.5301361093232546 0 -1 0
341 1 8.832351580305692 14.132061071987904 5.299189805441948 0 0 0
340 1 8.83205606899874 15.898480319562333 3.5326113541277544 0 0 0
286 1 5.295233001738157 15.902532403707381 2.4497463079377287e-16 0 0 0
287 1 5.298988941123397 14.132232924370621 1.7655717841523222 0 0 0
289 1 7.064561960488548 14.133326613030542 2.0624651388329684e-20 0 0 0
292 1 7.065339187401238 15.8984035502778 1.7659464665156037 0 0 0
336 1 5.299651383400165 15.898122407464594 3.533462495914067 0 0 0
337 1 5.299383757193427 14.131838108300594 5.299584391657538 0 0 0
339 1 7.065640684864268 14.131920437071281 3.5326368221807947 0 0 0
342 1 7.065806322785849 15.898589537334763 5.2993380316768475 0 0 0
290 1 8.832260177162253 15.898632512359539 0 0 0 0
291 1 8.832215947690782 14.132102278086004 1.7662514688581532 0 0 0
7 1 5.299928981092517 17.663915287229695 1.7668241874724189 0 -1 0
346 1 10.598979979016677 15.898648495847784 5.299134050324227 0 0 0
345 1 12.36518592046578 14.131951210702184 5.29949531677374 0 0 0
344 1 12.36591880105607 15.898863902940004 3.532776157195519 0 0 0
343 1 10.599141923604904 14.13213759554747 3.532610263941089 0 0 0
296 1 10.599079845953517 15.898491445139301 1.7663785351864538 0 0 0
295 1 12.365736171706686 14.131929579631931 1.7658797908514865 0 0 0
294 1 12.365951469997183 15.899080885680249 1.3925659857450445e-16 0 0 0
293 1 10.598946246260203 14.13231707761318 4.736715010509371e-19 0 0 0
350 1 14.13169609319873 15.89878127457132 5.29924821361848 0 0 0
349 1 15.89878127457132 14.131696093198732 5.299248213618481 0 0 0
348 1 15.89668834777435 15.896688347774353 3.5346500167939996 0 0 0
347 1 14.131018127924051 14.131018127924051 3.533539381261242 0 0 0
300 1 14.131034219720242 15.897325282189167 1.7670001476619048 0 0 0
299 1 15.897325282189167 14.13103421972024 1.7670001476619037 0 0 0
298 1 15.904620542762581 15.904620542762581 4.670977553419892e-19 0 0 0
297 1 14.136432949308151 14.13643294930815 1.125559680898108e-16 0 0 0
284 1 17.66366575569817 15.900049783436371 1.7645355824061593 -1 0 0
51 1 17.663905155477067 17.663905155477064 3.5300509228330035 -1 -1 0
19 1 15.900049783436371 17.663665755698165 1.76453558240616 0 -1 0
361 1 0.0002174974868780947 10.599261682505025 7.065409789571892 0 0 0
362 1 1.7662739308956996 12.365944325586659 7.065305071684353 0 0 0
363 1 1.7662615524592038 10.59898522797586 8.832373575224555 0 0 0
364 1 0.00022355588480287478 12.365693371105918 8.832373575224555 0 0 0
365 1 3.5325562528219825 10.598871009002659 7.065815197808031 0 0 0
368 1 3.532543847242897 12.36563240200665 8.832373575224555 0 0 0
406 1 0.00021749748687911215 10.599261682505025 10.599337360877216 0 0 0
407 1 1.7662739308956992 12.365944325586659 10.599442078764756 0 0 0
408 1 3.5325562528219825 10.598871009002659 10.598931952641077 0 0 0
353 1 5.2991454049682085 8.832413800438482 7.065894715163394 0 0 0
366 1 5.299150991949388 12.36542368305759 7.065913895168725 0 0 0
367 1 5.299116530010729 10.598918706747398 8.832373575224555 0 0 0
369 1 7.0657424981526775 10.598913587500395 7.065832830102656 0 0 0
372 1 7.065731712042942 12.365490153451079 8.832373575224555 0 0 0
402 1 5.299145404968209 8.832413800438482 10.598852435285714 0 0 0
409 1 5.2991509919493875 12.36542368305759 10.598833255280384 0 0 0
410 1 7.0657424981526775 10.598913587500393 10.598914320346452 0 0 0
370 1 8.832308277993627 12.365479367341344 7.065832830102655 0 0 0
371 1 8.832313848946582 10.59890801654744 8.832373575224555 0 0 0
411 1 8.832308277993627 12.365479367341344 10.598914320346454 0 0 0
373 1 10.59888047244789 10.59888047244789 7.0658255240595444 0 0 0
374 1 12.365422821952501 12.365422821952501 7.065893613487913 0 0 0
375 1 12.365475155994378 10.598863165086627 8.832373575224555 0 0 0
376 1 10.598863165086627 12.36547515599438 8.832373575224555 0 0 0
412 1 10.598880472447888 10.59888047244789 10.598921626389565 0 0 0
413 1 12.365422821952503 12.365422821952503 10.598853536961196 0 0 0
377 1 14.132076460525811 10.598808065055538 7.065894715163394 0 0 0
378 1 15.898652722819007 12.365457103981827 7.06579232204148 0 0 0
379 1 15.898681854949865 10.598923747396682 8.832373575224555 0 0 0
380 1 14.132079686595034 12.365511043277095 8.832373575224555 0 0 0
414 1 14.132076460525811 10.598808065055538 10.598852435285714 0 0 0
415 1 15.898652722819008 12.365457103981829 10.59895482840763 0 0 0
381 1 0.00021554946129751477 14.132289867184188 7.065600615205901 0 0 0
382 1 1.766375555488125 15.898688151123494 7.065521553691615 0 0 0
383 1 1.7664458795669906 14.13221865328434 8.832373575224555 0 0 0
384 1 2.0942298819286522e-05 15.898484995155046 8.832373575224553 0 0 0
385 1 3.5325301933624336 14.132187718866092 7.065403503487457 0 0 0
388 1 3.532753484335171 15.89846838115885 8.832373575224555 0 0 0
416 1 0.0002155494612972487 14.132289867184188 10.599146535243209 0 0 0
417 1 1.7663755554881255 15.898688151123494 10.599225596757496 0 0 0
418 1 3.5325301933624336 14.132187718866094 10.599343646961652 0 0 0
421 1 8.832350856491361 15.898665612672037 10.598931952641077 0 0 0
386 1 5.299034146627928 15.898691672131587 7.065403503487457 0 0 0
387 1 5.299045445473404 14.132176420020617 8.832373575224555 0 0 0
389 1 7.06579818243643 14.132070873544633 7.065913895168726 0 0 0
392 1 7.065589463487371 15.898678018251125 8.832373575224555 0 0 0
419 1 5.299034146627928 15.898691672131587 10.599343646961652 0 0 0
420 1 7.06579818243643 14.132070873544635 10.598833255280384 0 0 0
390 1 8.832350856491361 15.898665612672037 7.065815197808031 0 0 0
391 1 8.832303158746624 14.132105335483292 8.832373575224555 0 0 0
423 1 12.365457103981827 15.898652722819007 10.59895482840763 0 0 0
422 1 10.598808065055538 14.132076460525811 10.598852435285714 0 0 0
396 1 10.59892374739668 15.898681854949864 8.832373575224555 0 0 0
395 1 12.365511043277095 14.132079686595034 8.832373575224555 0 0 0
394 1 12.365457103981827 15.898652722819008 7.06579232204148 0 0 0
393 1 10.598808065055538 14.132076460525811 7.065894715163395 0 0 0
425 1 15.898566355520858 15.898566355520858 10.599440128911164 0 0 0
424 1 14.132058868737456 14.132058868737456 10.599124464246348 0 0 0
400 1 14.132136853511806 15.89848990239786 8.832373575224555 0 0 0
399 1 15.898489902397857 14.132136853511804 8.832373575224555 0 0 0
398 1 15.898566355520856 15.898566355520856 7.065307021537946 0 0 0
397 1 14.132058868737456 14.132058868737454 7.06562268620276 0 0 0
431 1 1.76627721669807 10.598989832664447 12.365699634885926 0 0 0
432 1 0.0002121285040619434 12.36662530538825 12.366625374488288 0 0 0
434 1 3.5326323281592593 12.36541554270817 12.36540911877226 0 0 0
461 1 1.5986091556419986e-05 10.59895545156071 14.132240252389746 0 0 0
462 1 1.7660495681280721 12.365728166454845 14.132124356829634 0 0 0
463 1 1.7663834498820545 10.599085934615085 15.898409496125865 0 0 0
464 1 4.877681419986848e-05 12.366088227702297 15.89889877983209 0 0 0
465 1 3.532741545931688 10.59916579649528 14.132135796321355 0 0 0
468 1 3.53281831521622 12.365882678092783 15.898800683933507 0 0 0
428 1 7.06579664329399 8.832407800154394 12.365474286058149 0 0 0
433 1 5.299160793506115 10.598870285188331 12.36555734500716 0 0 0
436 1 7.065806082408497 12.365415783085524 12.365475480818915 0 0 0
466 1 5.29930142842274 12.365581180629754 14.132110328268315 0 0 0
467 1 5.299119587408017 10.599005917803238 15.898495681590957 0 0 0
469 1 7.065736489252424 10.598860339039007 14.132136034926619 0 0 0
472 1 7.065560040596943 12.365661824897076 15.89868261074453 0 0 0
435 1 8.83232844271062 10.598893422783402 12.365512153558749 0 0 0
470 1 8.832361526455013 12.365485376241596 14.132136034926619 0 0 0
471 1 8.832264115726371 10.598957749767647 15.898682633240544 0 0 0
437 1 12.365425222200031 10.598814065339626 12.365474286058149 0 0 0
438 1 10.598814065339626 12.365425222200031 12.36547428605815 0 0 0
455 1 8.832398124369119 8.832398124369119 14.132135255678044 0 0 0
473 1 10.598823741124901 10.598823741124903 14.132135255678042 0 0 0
474 1 12.365177415979089 12.365177415979089 14.132026408843974 0 0 0
475 1 12.365554757276062 10.598969276110877 15.898668525532601 0 0 0
476 1 10.598969276110877 12.36555475727606 15.898668525532601 0 0 0
439 1 15.898648495847784 10.598979979016677 12.365613100124882 0 0 0
440 1 14.131951210702182 12.36518592046578 12.36525183367537 0 0 0
477 1 14.132137595547471 10.599141923604906 14.13213688650802 0 0 0
478 1 15.898863902940002 12.365918801056068 14.13197099325359 0 0 0
479 1 15.8984914451393 10.599079845953517 15.898368615262655 0 0 0
480 1 14.131929579631931 12.365736171706684 15.898867359597622 0 0 0
441 1 1.7660470318308081 14.133100407160095 12.366918628411888 0 0 0
442 1 0.00044216071344541216 15.89890850155934 12.366265525318616 0 0 0
444 1 3.5324383875779626 15.898783477916057 12.366033827443236 0 0 0
481 1 0.00041779990074145153 14.135604431994098 14.135308231124094 0 0 0
482 1 1.7673348372666544 15.901162835162703 14.134611041125854 0 0 0
483 1 1.7673065782643242 14.131292884401503 15.89792296297669 0 0 0
485 1 3.533099458029425 14.131570482093856 14.131284654535044 0 0 0
488 1 3.5346298836898677 15.896591981804152 15.896695446005563 0 0 0
205 1 3.5300590303313184 17.663887028227368 14.134611041125854 0 -1 0
491 1 8.832215947690782 14.132102278086005 15.898495681590957 0 0 0
490 1 8.83205606899874 15.898480319562335 14.132135796321355 0 0 0
443 1 5.299383757193427 14.131838108300594 12.365162758791572 0 0 0
446 1 7.06580632278585 15.898589537334763 12.365409118772261 0 0 0
486 1 5.299651383400166 15.898122407464593 14.131284654535042 0 0 0
487 1 5.298988941123397 14.132232924370623 15.899175366296786 0 0 0
489 1 7.065640684864267 14.131920437071281 14.132110328268315 0 0 0
492 1 7.065339187401238 15.898403550277799 15.898800683933505 0 0 0
445 1 8.83235158030569 14.132061071987904 12.36555734500716 0 0 0
207 1 5.299928981092516 17.6639152872297 15.89792296297669 0 -1 0
496 1 10.599079845953518 15.898491445139301 15.898368615262655 0 0 0
495 1 12.365736171706684 14.131929579631931 15.898867359597622 0 0 0
494 1 12.365918801056068 15.898863902940004 14.13197099325359 0 0 0
493 1 10.599141923604906 14.13213759554747 14.13213688650802 0 0 0
448 1 10.598979979016677 15.898648495847784 12.365613100124882 0 0 0
447 1 12.36518592046578 14.131951210702182 12.36525183367537 0 0 0
500 1 14.131034219720242 15.897325282189167 15.897747002787204 0 0 0
499 1 15.897325282189167 14.131034219720242 15.897747002787206 0 0 0
498 1 15.89668834777435 15.896688347774353 14.130097133655111 0 0 0
497 1 14.131018127924051 14.131018127924051 14.131207769187867 0 0 0
450 1 14.131696093198732 15.89878127457132 12.36549893683063 0 0 0
449 1 15.898781274571322 14.131696093198732 12.36549893683063 0 0 0
484 1 17.66366575569817 15.900049783436371 15.90021156804295 -1 0 0
201 1 17.663905155477067 17.663905155477064 14.134696227616107 -1 -1 0
219 1 15.900049783436371 17.663665755698165 15.90021156804295 0 -1 0

Velocities

1 2.7422898117166556e-09 2.7422920296015543e-09 3.336568058991064e-16
2 -2.742290384770159e-09 -2.7422942497343098e-09 1.1494038631242516e-16
3 -8.43954344338764e-09 8.439546107968016e-09 -7.481771107077832e-09
4 8.439544373033497e-09 -8.439550342178836e-09 -7.48177277164438e-09
5 3.232939136918296e-09 1.1365908641872388e-08 -3.3758302037027785e-16
8 1.295277699679942e-09 1.829274441540439e-10 -3.475558954592819e-09
21 1.1365907144126468e-08 3.232943522044914e-09 -1.1647112860475576e-16
23 1.8292982877907798e-10 1.2952815408007041e-09 -3.47555891637573e-09
25 1.4013045097362213e-09 1.4013088355467321e-09 -7.021631841666916e-16
52 -3.133099372566559e-09 -3.133102130263177e-09 3.366053735494e-09
53 -6.483193399309381e-09 6.483191126909131e-09 -3.3263639284481624e-09
54 6.483191239740537e-09 -6.483196087851266e-09 -3.3263632684451006e-09
58 5.773726465962723e-10 -6.399671586588151e-10 -2.208255350636593e-09
73 -6.399673006080032e-10 5.773731488780144e-10 -2.2082518480100486e-09
75 3.8581271483653204e-09 3.85812952753077e-09 3.99465719001186e-09
6 2.6324530501049263e-09 -4.9544914885294835e-09 8.152979002332903e-16
9 7.988338724658458e-09 6.732677866502005e-09 -1.9000111129227637e-15
12 5.191705473609208e-09 -7.278698181388688e-10 -5.540443436979181e-09
27 3.751104269345365e-10 3.297686811865871e-10 -1.9845936490444848e-09
29 4.4230377572724675e-09 -4.754677273363583e-09 -5.292763526440073e-16
56 -3.870947621924387e-10 4.085826785354978e-10 3.1412430126058954e-09
57 -4.138032903869325e-09 -6.053049815533614e-10 -2.691466245024239e-09
59 2.7902773269284967e-09 -1.4542174945098567e-09 -1.4953606926001931e-09
62 3.115250522734507e-10 7.171068473215592e-10 3.826102605053539e-09
77 -4.015090211711709e-09 -1.2697082566279454e-09 5.780851904596706e-09
79 3.3228829124541894e-09 -1.9079300202638075e-09 -4.2481683814965935e-09
11 -2.630827267231201e-09 -1.10701652146011e-09 -1.420704665448943e-09
31 -2.04473096889304e-09 -2.08173272844926e-09 9.234430963645039e-10
60 -1.2980848795421284e-09 -1.33471089049844e-09 -5.9578523592064e-09
61 -1.8417438897051213e-09 -1.4084258754413401e-09 3.4743960590355543e-09
81 -1.0436933928971583e-09 -7.525867205698602e-09 3.822118723262804e-09
10 -5.342220613249873e-10 -4.668567421208638e-09 -1.5083617774777354e-15
13 5.342260046518187e-10 4.668573846532566e-09 -5.532378608725898e-16
14 -7.988341290424865e-09 -6.732681767168479e-09 -4.353471870717121e-16
15 -5.191706701409021e-09 7.278752680170947e-10 -5.5404446828259535e-09
16 2.630828132103737e-09 1.1070155460144079e-09 -1.4207093950411986e-09
33 2.3887203486701456e-09 -3.4026346042626166e-10 -7.717598492604005e-16
35 -4.609964611305359e-09 8.095076660716222e-10 2.927856647670136e-09
63 1.2980857656345322e-09 1.3347111622644068e-09 -5.95785191212712e-09
64 -2.7902753572318583e-09 1.4542149612628095e-09 -1.4953610914531466e-09
65 -3.1152587920910383e-10 -7.171098564668014e-10 3.8260996311939985e-09
66 1.8417403468597587e-09 1.4084279961864735e-09 3.474397824187356e-09
83 4.269808309842135e-09 -4.577738160230653e-09 -4.186766199386251e-09
85 2.3799148498408312e-09 2.2424414378076696e-09 -2.247938407384842e-09
71 4.391139194168335e-09 3.2957096979921294e-09 4.550050007497176e-11
17 -2.6324516767162013e-09 4.954495607482417e-09 -5.635504087178026e-16
18 -3.232939951476878e-09 -1.1365910078956262e-08 1.2811824146523133e-15
20 3.6396674026490977e-09 -5.4103836756826966e-09 -2.7874011658271536e-09
37 7.382103015842774e-09 -2.7299342763962007e-09 2.371886004398932e-16
39 2.1898240171646e-10 -2.1898507145311097e-10 -6.672494152113363e-09
67 3.870942327122995e-10 -4.0858144890989837e-10 3.1412419736667482e-09
68 -3.295705752532648e-09 -4.3911417401544116e-09 4.549982189343752e-11
69 -5.773687278280911e-10 6.399677179628806e-10 -2.2082532647721362e-09
70 4.138035917447221e-09 6.053096668906232e-10 -2.691470361949674e-09
87 8.980648053344676e-10 1.0153709058680048e-09 -2.996380290885107e-09
89 -1.2840308786766264e-09 1.2840338210891748e-09 -7.704317328481259e-10
22 -4.954493383005184e-09 2.632447124029638e-09 7.196809790997009e-16
28 3.2976727848940165e-10 3.7510713759432436e-10 -1.9845914637903897e-09
41 6.7326791719492385e-09 7.988341403494416e-09 1.447699731329425e-15
42 -7.278704587300761e-10 5.1917090914936395e-09 -5.540443973231669e-09
43 -4.754677034355121e-09 4.4230424822392416e-09 -1.4219183617163932e-15
72 4.0858367460037155e-10 -3.870968599855182e-10 3.141239298309802e-09
74 -6.05311709381717e-10 -4.138037497086903e-09 -2.6914669606287467e-09
78 -1.2697074018745356e-09 -4.015090859753271e-09 5.780851085883307e-09
91 -1.4542177856876782e-09 2.7902783509038357e-09 -1.4953625901089966e-09
92 7.171097882175565e-10 3.115283977852958e-10 3.826102613546225e-09
93 -1.907930454755713e-09 3.322879742862278e-09 -4.248166167938529e-09
252 -1.1070199258141398e-09 -2.6308317271048337e-09 -1.4207061283900136e-09
254 -2.0817353702813698e-09 -2.044731229133218e-09 9.234383665138867e-10
301 -1.33471016740685e-09 -1.2980850045059434e-09 -5.957851186400522e-09
302 -1.4084253197769974e-09 -1.841744186342527e-09 3.4743976385614946e-09
304 -7.52586891636475e-09 -1.0436964906405196e-09 3.822119166288716e-09
26 3.6449161547117956e-10 3.644910598256005e-10 -1.3174509428342123e-15
32 2.373203709826307e-09 -5.766904519098652e-10 1.0863589204554271e-09
44 -5.766889299595524e-10 2.3732039123356477e-09 1.0863593596481488e-09
45 6.931167422764778e-09 6.931169275383668e-09 3.18475742278629e-16
76 1.0358087203751157e-09 1.035811632825412e-09 6.040304362519806e-10
82 -2.7126430424048917e-09 6.63744094119305e-10 -2.617075627842039e-09
94 6.637438884749686e-10 -2.7126438322247326e-09 -2.6170788950998444e-09
95 -2.3240755841617775e-09 -2.3240723361050703e-09 3.71813915737781e-09
30 8.552521891215e-10 8.600521491764134e-10 1.0749314577480583e-15
46 1.336391680953241e-09 -1.5040818123082759e-09 -2.4868986293619395e-10
80 -2.865653499574318e-09 -1.0456501790026235e-10 -4.069926987523488e-09
253 8.600526453919509e-10 8.552469283347287e-10 6.30885279942427e-16
256 -1.5040829627894544e-09 1.336390676867775e-09 -2.486866053843158e-10
303 -1.045593166800472e-10 -2.865655827982104e-09 -4.069926485589486e-09
255 1.677275814568253e-09 1.6772751467051907e-09 4.852963691864823e-18
34 -1.942839440133798e-09 -6.987015061679494e-09 -1.1500253245725606e-15
36 2.8932472090521154e-09 -7.597140361418744e-10 -5.971904736148926e-11
47 -4.7971822021466884e-09 1.5500850563843649e-09 1.255704355270023e-15
48 -4.3443776101523465e-10 4.3444129458555044e-10 -1.0889489327823335e-09
84 2.0087436164456362e-10 -2.438924109614107e-09 -2.6401755603038834e-09
86 7.826391986208668e-11 -1.1057118616203574e-09 -1.3826535247580193e-09
96 3.8970130031334156e-10 -1.2807872766425942e-09 -7.2586346051416745e-09
97 -1.8600498075859983e-09 3.254245510470497e-09 -4.097004760904966e-09
98 1.7207800390667067e-09 -1.7207705718852037e-09 1.7548200440850556e-09
257 -1.5500852304198655e-09 4.797180928333173e-09 8.971304969449856e-16
258 2.9080391197805672e-09 -2.9080388988243955e-09 -4.023120910455496e-09
307 -3.254243747328922e-09 1.8600450355653154e-09 -4.097003925910265e-09
308 -6.970533417021517e-09 6.9705355037959045e-09 -4.938344216371337e-09
100 -2.242438883165403e-09 -2.3799108251228493e-09 -2.2479359103601157e-09
99 2.4389178428700317e-09 -2.0087240877764425e-10 -2.640173369759483e-09
90 -2.8151533227822105e-09 2.81514847103176e-09 6.04643450042161e-10
88 -1.0153687759098232e-09 -8.980685396900285e-10 -2.9963796775918206e-09
24 5.410387095612181e-09 -3.639666673491303e-09 -2.7874025792528285e-09
38 2.729938634660906e-09 -7.382108254617079e-09 -9.784788043722449e-16
40 5.764820028973672e-09 -5.764822793532684e-09 -5.453868439780159e-09
49 6.987011548472042e-09 1.942845186688824e-09 8.322832731548172e-16
50 -8.095054070170236e-10 4.6099708152128195e-09 2.927855477512891e-09
259 3.4026365174629857e-10 -2.3887243628516187e-09 -6.794149168610753e-16
260 7.597117398772716e-10 -2.8932524607241403e-09 -5.971921782183895e-11
309 4.577742938481097e-09 -4.2698113018634995e-09 -4.1867692445438064e-09
310 1.1057066640962434e-09 -7.826968942929584e-11 -1.3826531795909768e-09
101 3.597690570948459e-09 3.5976949774394914e-09 1.1439098239506424e-09
102 -3.597695831561101e-09 -3.597692889451863e-09 1.1439124445510358e-09
103 -2.8568301212158406e-09 2.856833090869439e-09 9.06237653204258e-16
104 2.8568330524059103e-09 -2.856833358142623e-09 -4.194173870694173e-15
105 -1.8152503549497539e-09 -1.7871244652422699e-09 2.70330632971208e-10
108 -3.27085129119822e-09 -6.883095148562022e-09 7.127784498398515e-16
121 -1.7871213368528616e-09 -1.815250282761919e-09 2.703303169219476e-10
123 -6.8830939377418646e-09 -3.2708524236590977e-09 -9.918244545248732e-16
125 -1.4053122697457222e-09 -1.4053093404140198e-09 6.483920413307372e-10
151 3.597691895807547e-09 3.5976933347112816e-09 -1.1439091311900752e-09
152 -3.5976922694857515e-09 -3.5976941645680732e-09 -1.1439099204032957e-09
153 -1.8152509481203024e-09 -1.7871239446071488e-09 -2.7033399526724044e-10
161 -1.7871251816133466e-09 -1.8152481292592807e-09 -2.7033083982878535e-10
163 -1.4053132320673327e-09 -1.4053104917681038e-09 -6.483906711315091e-10
106 -3.493866947566102e-09 -1.539516707609713e-09 9.504196871511294e-10
107 -4.131297236658372e-09 -1.4507310817169478e-09 6.860877419373893e-16
109 6.387728785076412e-09 -3.870459388080922e-09 4.518009775672236e-09
112 -3.264472366967292e-09 -4.33164894159996e-09 8.347097550007496e-16
127 -2.6963821373238856e-09 -1.067937814809332e-08 6.461731226565517e-16
129 3.610548153230361e-09 -1.537726512478803e-09 5.128653166418881e-09
154 -3.493863981436115e-09 -1.5395159990770141e-09 -9.504233098885254e-10
155 6.3877264351803996e-09 -3.870459286168685e-09 -4.518010552753047e-09
165 3.610546170253223e-09 -1.5377265103070544e-09 -5.1286530829534746e-09
110 4.591801796044205e-09 -4.230688782752687e-10 2.1617419807892992e-09
111 -6.242025675061319e-09 -5.489849879795607e-09 2.5356735289993703e-16
131 -3.0515598371807774e-10 7.515926923752814e-10 -2.329422572095115e-16
156 4.591801915158931e-09 -4.2306893165786936e-10 -2.161741611783968e-09
113 -4.591800141093541e-09 4.2306677694199015e-10 2.1617409190234008e-09
114 -6.3877294526965894e-09 3.870458796019352e-09 4.518013544311331e-09
115 3.2644710937781686e-09 4.331649330682859e-09 3.700330017788444e-16
116 6.242023667913272e-09 5.489850510680887e-09 -1.1125419263600108e-15
133 -2.6861197006652626e-09 -1.8569864359497218e-09 -2.8268753607532076e-09
135 -1.048622170393027e-10 -6.149078513116601e-09 -2.7109166426368485e-16
157 -4.591800351628755e-09 4.2306425340087037e-10 -2.1617420224660205e-09
158 -6.387722843816655e-09 3.8704592570509025e-09 -4.518010003154909e-09
167 -2.686120047866259e-09 -1.8569835873323078e-09 2.8268746764651855e-09
117 3.4938689039170903e-09 1.5395149475004442e-09 9.504218461133518e-10
118 1.815252630383105e-09 1.7871190335149693e-09 2.7032991169947927e-10
119 3.27085192744356e-09 6.883094847672557e-09 -1.3175796423412994e-15
120 4.131293707122523e-09 1.4507292042266195e-09 -1.589535177979943e-17
137 5.232139239581484e-10 3.1446230076069866e-09 -1.338448706791001e-09
139 4.587550690146535e-09 -4.587542982848743e-09 1.1513656358949292e-15
159 3.4938640588394644e-09 1.5395168779184077e-09 -9.504159958656213e-10
160 1.815250215237479e-09 1.787120820618849e-09 -2.7033092536227044e-10
169 5.232140176611e-10 3.1446177991177643e-09 1.338451374139232e-09
122 -1.5395150478961306e-09 -3.4938715869993915e-09 9.504182082104444e-10
124 -1.4507358376213658e-09 -4.131299676078295e-09 3.390232332029859e-16
128 -1.0679374218683215e-08 -2.69638149661292e-09 -2.902678908196647e-16
141 -3.870459963157119e-09 6.387733983207147e-09 4.518010021960143e-09
142 -4.3316473449749055e-09 -3.264464903711608e-09 -1.6760923350778132e-15
143 -1.5377275533696113e-09 3.6105508006601075e-09 5.128655748800409e-09
162 -1.5395138249492801e-09 -3.4938687675898047e-09 -9.50415882427595e-10
171 -3.870461052647468e-09 6.387729801772305e-09 -4.518010111133351e-09
172 -1.5377265643081235e-09 3.61054796759771e-09 -5.128653359813513e-09
351 -4.230699119565351e-10 4.591794757033636e-09 2.161742925117267e-09
352 -5.48985225046837e-09 -6.24202934079294e-09 -7.327975174715882e-16
354 7.515925720428714e-10 -3.051604284038358e-10 -1.0725060126070162e-15
401 -4.230689510697241e-10 4.59179953264374e-09 -2.1617378240458064e-09
126 -2.624276369227922e-09 -2.6242769030539283e-09 4.51653441040814e-09
132 2.5036552347882728e-09 -6.990109023522969e-09 2.4022170274730876e-16
144 -6.990111503690726e-09 2.503654104047733e-09 -2.450746664391736e-16
145 -5.331609064302367e-09 -5.331609990915122e-09 -3.8573568291543494e-09
164 -2.6242755534031536e-09 -2.624276020421157e-09 -4.516534745262635e-09
173 -5.3316073248181935e-09 -5.331609925400112e-09 3.8573567847194005e-09
146 2.4783771636132424e-09 -1.188153260854728e-08 2.923910624348556e-16
356 -1.1881532427774382e-08 2.4783770046786814e-09 -9.984972796011873e-16
355 2.9591659132836188e-09 2.9591616984846523e-09 -3.0282966746785363e-09
403 2.9591658653606023e-09 2.959159775706315e-09 3.028296676612139e-09
130 1.7980245859723078e-09 -1.5798292997324707e-09 1.1487472630116569e-09
134 -6.241012121258077e-10 5.87308871469109e-09 1.2597778307089476e-09
136 -7.941451228548937e-09 2.017624607262866e-09 5.169364543356007e-16
147 -4.737419554849461e-09 -5.156066236992079e-09 4.056804295332982e-09
148 5.036813480586291e-10 -5.036829499471298e-10 5.5030072781786986e-17
166 1.7980250366186534e-09 -1.5798293126695111e-09 -1.148747988491815e-09
168 -6.241060938779057e-10 5.873089676637413e-09 -1.2597758250705633e-09
174 -4.73741944313205e-09 -5.156068072625595e-09 -4.056803677186732e-09
357 5.156064969761935e-09 4.737415318515468e-09 4.056799331964366e-09
358 5.787601246879084e-10 -5.787607895439343e-10 -8.735334645356682e-17
404 5.1560682306620734e-09 4.737419719509002e-09 -4.056804047831834e-09
138 -3.1446179680293056e-09 -5.232178011529183e-10 -1.3384475051139286e-09
140 -1.4773541081025053e-09 1.4773524156314177e-09 -4.7270899461070796e-15
149 -5.873090833251886e-09 6.241053542037766e-10 1.2597747524818948e-09
150 6.149081118050982e-09 1.0486588832825452e-10 8.031654910036282e-16
170 -3.1446158751887136e-09 -5.232180353084165e-10 1.3384497544625999e-09
175 -5.87309110137813e-09 6.241068634754849e-10 -1.259774708198601e-09
359 1.8569871169060707e-09 2.686116174461786e-09 -2.826874527052611e-09
360 -2.0176236713268758e-09 7.94145275408805e-09 1.7958998762207262e-15
405 1.8569861839238009e-09 2.6861164547204393e-09 2.8268711111727923e-09
176 -6.483194772698105e-09 6.4831986217049336e-09 3.3263665808961303e-09
177 6.483198625951277e-09 -6.483197440311584e-09 3.3263624871179462e-09
179 5.773684161697202e-10 -6.399633428025049e-10 2.2082551642989597e-09
186 -6.399622583787273e-10 5.77372509500048e-10 2.2082536545257827e-09
202 -3.1330998372378326e-09 -3.133101280994531e-09 -3.3660570646270924e-09
203 -8.43954259078258e-09 8.439547372165058e-09 7.481772143185582e-09
204 8.439542470671729e-09 -8.439548653347472e-09 7.481768064269599e-09
208 1.2952733811488767e-09 1.8292951576291984e-10 3.475561251864507e-09
223 1.8293191797994732e-10 1.2952784503727632e-09 3.4755594332163633e-09
225 3.858125682770285e-09 3.858128313683227e-09 -3.9946605646888795e-09
178 -4.138032370689038e-09 -6.053120248243571e-10 2.6914671183500667e-09
181 3.1152458288428135e-10 7.171097930705202e-10 -3.8261030952313075e-09
188 -4.0150874807097664e-09 -1.269709539147707e-09 -5.780847291538373e-09
206 -3.870923225853165e-10 4.0858670494889454e-10 -3.1412457909261736e-09
209 2.7902736774998007e-09 -1.4542181399540277e-09 1.4953628473160723e-09
212 5.1917057623605474e-09 -7.27869514828638e-10 5.540445918056868e-09
227 3.751117945058658e-10 3.297695013375647e-10 1.984594685538924e-09
229 3.322876843216472e-09 -1.9079294712817684e-09 4.248166848263377e-09
180 -1.841738970487101e-09 -1.4084236042543323e-09 -3.474395964289021e-09
190 -1.043693871913595e-09 -7.52586802106996e-09 -3.822121218409168e-09
210 -1.2980793932666747e-09 -1.3347134383043782e-09 5.957852075914644e-09
211 -2.6308268353174324e-09 -1.1070164098419451e-09 1.4207058693630765e-09
231 -2.0447295360555097e-09 -2.081734911676301e-09 -9.234401876057658e-10
182 -3.115239173985314e-10 -7.171097205838181e-10 -3.826103056475842e-09
183 1.8417383038615682e-09 1.4084235605776592e-09 -3.474393205606645e-09
192 2.379916504341866e-09 2.2424411697619924e-09 2.2479364959597564e-09
213 1.2980835731660076e-09 1.3347199703935076e-09 5.957847444367421e-09
214 -2.7902752708707865e-09 1.4542136333545982e-09 1.4953619695179e-09
215 -5.191704177867902e-09 7.278722882973879e-10 5.540445095782833e-09
216 2.6308232899451755e-09 1.1070158420451932e-09 1.4207092527887004e-09
233 4.269807022160349e-09 -4.577739032157521e-09 4.186767058212131e-09
235 -4.6099639203646545e-09 8.095092705827428e-10 -2.9278542293396042e-09
221 4.3911311327890224e-09 3.2957045307990385e-09 -4.549401592307664e-11
184 -5.773681964285668e-10 6.399650730976685e-10 2.2082520518345236e-09
185 4.13802939627726e-09 6.053080356882024e-10 2.6914612968004006e-09
194 -1.284031823755465e-09 1.2840364861760562e-09 7.704275900492027e-10
217 3.8709227903423265e-10 -4.0857964057430266e-10 -3.1412393240911713e-09
218 -3.2956986829777894e-09 -4.391139640034374e-09 -4.5492092936213734e-11
220 3.639662122624601e-09 -5.410386247164013e-09 2.787400938951101e-09
237 8.98063713417637e-10 1.0153726476104177e-09 2.996380994564842e-09
239 2.189901279284892e-10 -2.1898268295613222e-10 6.672491069874798e-09
187 -6.053081909830405e-10 -4.138036037406418e-09 2.691462451012236e-09
189 -1.2697118313863405e-09 -4.015090706860781e-09 -5.780851911699763e-09
196 7.171109432229151e-10 3.115279203749926e-10 -3.8261030423605424e-09
222 4.085876722292127e-10 -3.8709487512336826e-10 -3.1412439838462465e-09
228 3.297676715794607e-10 3.7510795865511896e-10 1.9845952318133863e-09
241 -1.454217742011005e-09 2.790278538956179e-09 1.4953626095208514e-09
242 -7.278681244545403e-10 5.1917083756814954e-09 5.540445371491832e-09
243 -1.9079319836193666e-09 3.322882070768299e-09 4.248166961701403e-09
426 -1.4084228277801417e-09 -1.8417434122948182e-09 -3.4743971071619703e-09
427 -7.52586633836641e-09 -1.0436954352077035e-09 -3.822121986503229e-09
451 -1.3347125259472043e-09 -1.2980845131433696e-09 5.957851929719113e-09
452 -1.1070195169519487e-09 -2.630826820758541e-09 1.4207048769320015e-09
454 -2.081735486145878e-09 -2.0447322646343455e-09 -9.234400163868443e-10
191 -2.712645857123833e-09 6.637422863903298e-10 2.617075620562593e-09
197 6.637431555508754e-10 -2.7126423560800403e-09 2.617076227965619e-09
226 1.035812531824199e-09 1.0358082421077538e-09 -6.04029185193248e-10
232 2.3731998806756357e-09 -5.766904964277504e-10 -1.0863603350933268e-09
244 -5.766894447640972e-10 2.373203614224196e-09 -1.0863561968811089e-09
245 -2.3240724098372994e-09 -2.3240721869042797e-09 -3.7181393899930605e-09
230 -2.8656487026904367e-09 -1.0456164268876135e-10 4.069926563566874e-09
246 1.3363920638865034e-09 -1.5040813664422368e-09 2.4868589241570466e-10
453 -1.0456276857633787e-10 -2.8656547880035962e-09 4.069924576884862e-09
456 -1.5040814894102468e-09 1.3363895917943814e-09 2.4868667393242795e-10
193 7.826374868137521e-11 -1.1057097542208742e-09 1.3826532605748085e-09
198 3.897010246043418e-10 -1.28078524689053e-09 7.2586351219823076e-09
199 1.7207789719241608e-09 -1.7207776828556801e-09 -1.7548242435173895e-09
234 2.00877598872731e-10 -2.438924000509629e-09 2.640175069093853e-09
236 2.893246619672132e-09 -7.597137841310599e-10 5.971903875506146e-11
247 -1.8600525875713803e-09 3.254244920689233e-09 4.097007510146811e-09
248 -4.344387838537341e-10 4.344413631336626e-10 1.0889479512704268e-09
429 -6.970536065437146e-09 6.970535855005603e-09 4.93834507769064e-09
457 -3.2542449872640515e-09 1.860052575693397e-09 4.0970080361077815e-09
458 2.908039383912239e-09 -2.9080379054075625e-09 4.0231194450121165e-09
250 -8.095058231586602e-10 4.609966528832639e-09 -2.9278598739946854e-09
249 2.4389231784519453e-09 -2.0087275655022244e-10 2.6401751793509725e-09
240 5.7648189772833606e-09 -5.764823936405633e-09 5.4538688768502016e-09
238 -1.015368552066873e-09 -8.980657653113479e-10 2.996386030121293e-09
224 5.410377384831833e-09 -3.639668032321137e-09 2.7874022783690798e-09
195 -2.815153805652098e-09 2.815148928423588e-09 -6.046425536301006e-10
200 -2.242440671785834e-09 -2.3799112578328076e-09 2.2479366580198343e-09
430 1.1057112564094178e-09 -7.826804143714301e-11 1.3826545562562815e-09
459 4.577737723369136e-09 -4.269812565591565e-09 4.18676761964159e-09
460 7.597129798094948e-10 -2.8932527432293536e-09 5.97184941236284e-11
251 -4.668564538548204e-09 -5.342286880469086e-10 6.108288909346419e-16
261 4.6685645239893136e-09 5.342278266458532e-10 -8.456289233074454e-16
262 -6.732678861359562e-09 -7.988341381656079e-09 1.3515503881843532e-15
263 1.1070214569241846e-09 2.63083067037199e-09 -1.4207055393615453e-09
264 7.278680249687846e-10 -5.1917080845036735e-09 -5.540447444010639e-09
265 -3.4026486244936793e-10 2.3887212357400233e-09 7.993870911195925e-16
268 8.095018843175028e-10 -4.609967297002082e-09 2.9278594584624833e-09
311 1.3347099271851473e-09 1.2980835328447038e-09 -5.957851297013972e-09
312 1.4542217311471597e-09 -2.7902815159460934e-09 -1.4953618206109413e-09
313 1.4084268654459333e-09 1.841744956750513e-09 3.4743940146108577e-09
314 -7.17112425803323e-10 -3.1152461671995934e-10 3.8261035431920824e-09
315 -4.5777443899218516e-09 4.269815012132762e-09 -4.18676724180294e-09
318 2.242439632013482e-09 2.3799088229736457e-09 -2.2479392965334517e-09
266 -6.987009561790032e-09 -1.942845554300824e-09 -1.7129634850023332e-15
267 -7.59713908389027e-10 2.8932481292953553e-09 -5.972085751694633e-11
269 1.5500816568832989e-09 -4.797181305561646e-09 5.520246199496236e-16
272 4.3444049627302314e-10 -4.344388432322656e-10 -1.0889506137276324e-09
306 -1.2807880525101644e-09 3.897023021470337e-10 -7.2586358547798255e-09
316 -2.4389239136759447e-09 2.0087273268720118e-10 -2.64017457005759e-09
317 -1.105708227963793e-09 7.826581282123674e-11 -1.3826501668104547e-09
319 3.2542461145183015e-09 -1.8600500688832242e-09 -4.0970029714125184e-09
322 -1.7207735974043095e-09 1.7207725581260216e-09 1.7548204181687596e-09
270 4.7971818849736404e-09 -1.5500828033959711e-09 2.8444383084705167e-16
271 -2.9080373803254217e-09 2.908039602295605e-09 -4.023119125171478e-09
320 1.8600506149669328e-09 -3.254246369298895e-09 -4.0970058540539944e-09
321 6.970531575321796e-09 -6.970534359709714e-09 -4.938347404768482e-09
273 -1.6772753699415205e-09 -1.6772732358507368e-09 -1.4631685530972442e-15
274 -6.93116672580763e-09 -6.931171125185924e-09 -8.263322908835002e-17
275 1.5040827772577852e-09 -1.3363915625335007e-09 -2.4869032529532204e-10
276 -1.3363947982282334e-09 1.5040799882005482e-09 -2.486874155259421e-10
305 5.559737104280224e-09 5.559737701099974e-09 2.6448167261060833e-09
323 -5.559740593466334e-09 -5.5597391302977814e-09 2.644814173447181e-09
324 2.3240773923144595e-09 2.324076809352196e-09 3.718143830587537e-09
325 1.2807866134500356e-09 -3.8969973682611444e-10 -7.2586341471938765e-09
326 -3.89698619354212e-10 1.280786854434753e-09 -7.2586352044826905e-09
277 -8.600564810531288e-10 -8.552467951815373e-10 1.6008713978539085e-15
278 4.7546818375759355e-09 -4.423038897112314e-09 -1.119821371897808e-15
279 2.081736773394497e-09 2.0447339395134395e-09 9.234436003775432e-10
280 5.766893808527217e-10 -2.373206071791786e-09 1.0863595011546581e-09
327 1.0456406414703159e-10 2.8656570964977625e-09 -4.069926090099603e-09
328 1.9079309500897552e-09 -3.322881680730299e-09 -4.248167204349588e-09
329 7.525867891665494e-09 1.0436978295303714e-09 3.8221217162073106e-09
330 -6.63745315246294e-10 2.7126409841416657e-09 -2.6170798362525334e-09
281 4.9544902352516096e-09 -2.6324527480079365e-09 -1.842994713571296e-16
282 -1.1365904645153479e-08 -3.2329413891673716e-09 4.003695045788479e-16
283 -5.410381102202022e-09 3.639664923997892e-09 -2.7874040421180716e-09
285 -2.729939382320625e-09 7.382107692886531e-09 2.0625088285390567e-16
288 -2.189873223183333e-10 2.1898615578718588e-10 -6.672492143593015e-09
331 -4.085873774116684e-10 3.8709934470292844e-10 3.141243027812399e-09
332 -4.3911360379220734e-09 -3.2957030639907623e-09 4.54995871253949e-11
333 6.053091033402145e-10 4.138037002084607e-09 -2.6914659321037543e-09
334 6.399666284725318e-10 -5.773705704377428e-10 -2.208254898097729e-09
335 1.0153697164748488e-09 8.98064468053491e-10 -2.9963829939858833e-09
338 1.2840288255317605e-09 -1.284032892049938e-09 -7.704261992562762e-10
55 3.295704553850616e-09 4.391138630921236e-09 4.5497098161641434e-11
341 -7.826838798803853e-11 1.1057115750964521e-09 -1.3826498179457822e-09
340 -4.269811708935024e-09 4.577741598099723e-09 -4.186768582046136e-09
286 -7.382104598265563e-09 2.7299371724652842e-09 -1.5747858294059434e-15
287 -5.764818038099819e-09 5.764825140583682e-09 -5.453867667954965e-09
289 1.942842526284054e-09 6.987010873694455e-09 2.0624651388329684e-17
292 4.609965186381557e-09 -8.095084276836116e-10 2.9278585527753202e-09
336 -8.980639186194486e-10 -1.0153715464852778e-09 -2.99638428268115e-09
337 2.8151497231849565e-09 -2.815148116997632e-09 6.046447178224992e-10
339 -2.008735056254877e-10 2.4389237673038773e-09 -2.6401769168418585e-09
342 -2.3799101845316423e-09 -2.2424414418905095e-09 -2.2479356725648947e-09
290 -2.388722095910954e-09 3.402599889719521e-10 -3.7610468611952377e-16
291 -2.8932497765353234e-09 7.597152206370442e-10 -5.972044692612394e-11
7 -3.639665724005876e-09 5.410385006684114e-09 -2.7874005536656524e-09
346 1.043696969342557e-09 7.525866959896465e-09 3.8221200140302955e-09
345 2.7126408564978206e-09 -6.637444737776674e-10 -2.617079328427234e-09
344 -3.322882339894274e-09 1.907927319454149e-09 -4.248165824099654e-09
343 2.8656575607829373e-09 1.0456445744680121e-10 -4.069927250352466e-09
296 2.0447310681110295e-09 2.0817291785063195e-09 9.234424599310756e-10
295 -2.3732042776691184e-09 5.766927836990864e-10 1.0863599408264414e-09
294 -4.423037043886805e-09 4.754672057640855e-09 -8.686805008438033e-16
293 -8.552512173312506e-10 -8.600470105940078e-10 4.736715010509371e-16
350 4.015088753036235e-09 1.269710824995886e-09 5.780853995538351e-09
349 1.26971292026296e-09 4.015085968269179e-09 5.7808507646777726e-09
348 -3.85812157473652e-09 -3.858128574909163e-09 3.994654043585267e-09
347 -1.0358127039634183e-09 -1.0358116452401011e-09 6.040290419601751e-10
300 -3.7511138211769337e-10 -3.2976953390427746e-10 -1.9845942722337118e-09
299 -3.297651140675951e-10 -3.7510716792534745e-10 -1.9845919853323315e-09
298 -1.4013012503644817e-09 -1.4013054081411248e-09 4.670977553419892e-16
297 -3.6449472961537407e-10 -3.644891679483712e-10 -7.631285405457434e-16
284 -1.829359559490492e-10 -1.2952792162310958e-09 -3.4755566858322934e-09
51 3.1330951189385515e-09 3.133102114340575e-09 3.366055798875586e-09
19 -1.2952746371565422e-09 -1.8292654301934836e-10 -3.4755575014335036e-09
361 4.230663959843403e-10 -4.591798441949629e-09 2.1617392532436136e-09
362 3.870457480866191e-09 -6.38773145056672e-09 4.518013073867685e-09
363 5.489850860094273e-09 6.242029447558141e-09 -7.288544844719481e-16
364 4.331651596171099e-09 3.264471772475093e-09 -1.1161816491289092e-15
365 -1.856982701885623e-09 -2.6861135721681197e-09 -2.826875299672333e-09
368 -6.149077106202104e-09 -1.048647380388664e-10 2.6082650864202543e-16
406 4.2306571899590534e-10 -4.591799006106658e-09 -2.1617384591774295e-09
407 3.870458601900804e-09 -6.387729236402035e-09 -4.518010860916242e-09
408 -1.8569839858250804e-09 -2.6861158904843245e-09 2.8268745685951877e-09
353 -1.57982854934296e-09 1.7980246444609716e-09 1.1487480448316903e-09
366 5.8730863554829494e-09 -6.241072814369827e-10 1.2597775305002982e-09
367 2.0176235396902357e-09 -7.941450894493025e-09 -2.0625095690425498e-16
369 -5.156068414152915e-09 -4.7374181860103896e-09 4.056801631662536e-09
372 -5.036781247813994e-10 5.036818172801485e-10 1.8287883021583796e-15
402 -1.5798316552397227e-09 1.7980246590198626e-09 -1.1487461953596446e-09
409 5.8730889408993565e-09 -6.241066766363827e-10 -1.2597793846357386e-09
410 -5.156068375329205e-09 -4.737413619371556e-09 -4.056800469377731e-09
370 4.737415298193683e-09 5.156068981949667e-09 4.056804495517734e-09
371 -5.787634914314697e-10 5.787619554684612e-10 -9.326789595302706e-16
411 4.737413812883483e-09 5.156069855483131e-09 -4.056804396941909e-09
373 -2.9591635074268682e-09 -2.959165590561533e-09 -3.0282975870357104e-09
374 5.331609946935139e-09 5.331609957550997e-09 -3.857356446812847e-09
375 1.1881534850894935e-08 -2.478376016262172e-09 2.268648413717961e-15
376 -2.478375624976646e-09 1.1881532092919888e-08 7.649678031217099e-16
412 -2.959157931978207e-09 -2.959164013348333e-09 3.028297532439869e-09
413 5.331605066986907e-09 5.331605987826697e-09 3.857356202306887e-09
377 1.5798300895523116e-09 -1.798022569212373e-09 1.1487486433765169e-09
378 1.5377313046939578e-09 -3.610550943233825e-09 5.128651985226061e-09
379 -7.515939848986551e-10 3.0515479371119236e-10 1.0458136755968694e-15
380 6.990108242195815e-09 -2.503655026110834e-09 2.5667628276503793e-16
414 1.5798299457832623e-09 -1.7980226271635837e-09 -1.1487485532933784e-09
415 1.5377257325817089e-09 -3.610554350317647e-09 -5.128650699190683e-09
381 1.5395142617160124e-09 3.4938666472889733e-09 9.504199170602842e-10
382 1.7871257663954713e-09 1.8152499806649292e-09 2.7032789923609833e-10
383 1.4507293686207645e-09 4.131297588280235e-09 6.134188759518335e-16
384 6.883092042659543e-09 3.2708486407738997e-09 4.1492839565444235e-15
385 3.1446195180192277e-09 5.232196942557822e-10 -1.3384498661659226e-09
388 -4.587548025196499e-09 4.587550275678585e-09 1.114814679680792e-16
416 1.5395167221686043e-09 3.4938692684959874e-09 -9.504233420394098e-10
417 1.7871215103463137e-09 1.8152499180503235e-09 -2.703347840750259e-10
418 3.1446188162576926e-09 5.23215172173619e-10 1.3384496358915514e-09
421 2.686116275898028e-09 1.8569853683605043e-09 2.826875627462128e-09
386 -5.232166285555662e-10 -3.144618152441926e-09 -1.3384493013171152e-09
387 1.4773532820434602e-09 -1.4773567978457834e-09 4.203879798077903e-16
389 6.241094823626495e-10 -5.873085477066901e-09 1.2597752016039196e-09
392 1.048642701681735e-10 6.1490764858971386e-09 2.911778215118894e-17
419 -5.232157771222804e-10 -3.1446156456586965e-09 1.3384501730307182e-09
420 6.241086032566e-10 -5.873089889954699e-09 -1.259779107278378e-09
390 2.6861147768082427e-09 1.856984600037776e-09 -2.826875794282755e-09
391 7.94144532897333e-09 -2.0176263998014484e-09 7.813271543902365e-16
423 -3.6105496735215135e-09 1.5377303470765854e-09 -5.1286522311517145e-09
422 -1.798023046359073e-09 1.5798288615321238e-09 -1.1487455418562778e-09
396 3.0515929261232126e-10 -7.515885313807064e-10 7.473564085471827e-16
395 -2.503652701425115e-09 6.990109996877934e-09 -1.1953204422336916e-15
394 -3.6105494976572652e-09 1.537725342221442e-09 5.128653935510844e-09
393 -1.7980221960759e-09 1.579829785405608e-09 1.1487450680578545e-09
425 1.4053120392299467e-09 1.4053101878242983e-09 -6.483953504453546e-10
424 2.6242765882179087e-09 2.624276119300292e-09 -4.516534743442774e-09
400 2.6963809357801453e-09 1.0679375444577861e-08 -1.4671115860968843e-15
399 1.0679380143459956e-08 2.696385076571416e-09 -1.1161816491289093e-16
398 1.4053121666202438e-09 1.405313812988176e-09 6.483919002914799e-10
397 2.624273160205681e-09 2.624279345004596e-09 4.516537134134012e-09
431 1.4084255405868454e-09 1.8417396530678185e-09 -3.474396442609255e-09
432 -7.171105222283149e-10 -3.115254344443414e-10 -3.82610229052083e-09
434 2.242438802745539e-09 2.3799152922166874e-09 2.2479407580280226e-09
461 1.334712356093475e-09 1.2980852896175604e-09 5.957853593679039e-09
462 1.4542198773150295e-09 -2.7902773563495893e-09 1.4953617893699876e-09
463 1.107020961921888e-09 2.630828075249656e-09 1.4207043076186984e-09
464 7.27866475660126e-10 -5.191706749938658e-09 5.540445268063044e-09
465 -4.577742916912304e-09 4.2698140975443024e-09 4.186767784915897e-09
468 8.095061901794419e-10 -4.609967486726927e-09 -2.9278600951635294e-09
428 -1.2807871965686933e-09 3.8970209346959493e-10 7.258636699802128e-09
433 -1.105708339581958e-09 7.826078029788827e-11 1.382652117701859e-09
436 -1.7207715414301282e-09 1.7207714910806299e-09 -1.7548207669755248e-09
466 -2.438925592801382e-09 2.0087347033768232e-10 2.640176540303978e-09
467 -7.597131059865508e-10 2.8932525843160246e-09 5.97208186932368e-11
469 3.2542475898192637e-09 -1.8600497534405843e-09 4.0970008069907115e-09
472 4.344385402253451e-10 -4.3443732425463006e-10 1.0889494041264321e-09
435 6.970529466709071e-09 -6.9705343051138725e-09 4.938350257097892e-09
470 1.8600485028925029e-09 -3.2542445947065627e-09 4.097002692367106e-09
471 -2.9080347144512367e-09 2.908038125781402e-09 4.0231205968327174e-09
437 1.2807849690388095e-09 -3.8969940813660746e-10 7.25863496395402e-09
438 -3.896990318561258e-10 1.2807865292861857e-09 7.2586313440448586e-09
455 5.559735886091553e-09 5.5597366091831435e-09 -2.6448179830236794e-09
473 -5.559734439908373e-09 -5.559739132724263e-09 -2.6448126502232024e-09
474 2.3240723325767194e-09 2.3240703100557637e-09 -3.7181369379130454e-09
475 1.5040777267425715e-09 -1.3363907665128316e-09 2.486849991676898e-10
476 -1.3363908385131712e-09 1.5040788040774074e-09 2.4868625202789695e-10
439 7.525867554384518e-09 1.0436976232794144e-09 -3.822123616142596e-09
440 -6.637384252510925e-10 2.712642305361031e-09 2.617075189932858e-09
477 1.0455931144632787e-10 2.865650201346287e-09 4.069925433432954e-09
478 1.9079327123221958e-09 -3.322875366398959e-09 4.24816785009707e-09
479 2.0817388504629576e-09 2.044731901268689e-09 -9.234398071797975e-10
480 5.766900602676386e-10 -2.373199471761165e-09 -1.0863594435257142e-09
441 6.053112726149848e-10 4.138031432702149e-09 2.691467218404529e-09
442 6.399645429113852e-10 -5.773685264300979e-10 2.2082562593540446e-09
444 1.2840351633210669e-09 -1.2840315326989379e-09 7.704337072158604e-10
481 -4.085870765279195e-10 3.8709468585778427e-10 -3.1412394269133395e-09
482 -4.391133322082268e-09 -3.295704155907593e-09 -4.5499041166979564e-11
483 -5.410382389450641e-09 3.639665402014816e-09 2.787401623825602e-09
485 1.015369004795306e-09 8.980633718903172e-10 2.996379119804306e-09
488 -2.1898597319442697e-10 2.1898885858465202e-10 6.672492171497556e-09
205 3.2957041170838834e-09 4.391129864952258e-09 -4.549930959653377e-11
491 -2.893249064867191e-09 7.597128562200542e-10 5.971984731325318e-11
490 -4.269811598311543e-09 4.577735346630168e-09 4.186767694862527e-09
443 2.8151482587741347e-09 -2.8151486536813894e-09 -6.046430437242452e-10
446 -2.379913496468657e-09 -2.2424399266285726e-09 2.2479358694244903e-09
486 -8.980676523606877e-10 -1.015363846054026e-09 2.996383481777305e-09
487 -5.764819639302666e-09 5.764819400556194e-09 5.453870237888963e-09
489 -2.0087028083052204e-10 2.4389219568308925e-09 2.640174844067282e-09
492 4.609963754650636e-09 -8.095015475649495e-10 -2.9278554365660095e-09
445 -7.826455558685314e-11 1.1057118573894167e-09 1.382654682131064e-09
207 -3.6396620780486602e-09 5.410375234807489e-09 2.7874007429774437e-09
496 2.0447283604665236e-09 2.0817296081073476e-09 -9.234384095262542e-10
495 -2.373198891058326e-09 5.766912470220845e-10 -1.086359904605662e-09
494 -3.3228753757974288e-09 1.907925973672084e-09 4.2481669076736764e-09
493 2.8656501028628766e-09 1.0456468884051752e-10 4.069926670518978e-09
448 1.0436950474887507e-09 7.525865896021762e-09 -3.8221227791520894e-09
447 2.7126415188616076e-09 -6.637391067736303e-10 2.617076534503788e-09
500 -3.751150115279144e-10 -3.2976929428919517e-10 1.98459526305434e-09
499 -3.297652208327963e-10 -3.751129441653817e-10 1.984590010327764e-09
498 -3.85811993079507e-09 -3.858129089550797e-09 -3.9946586429816065e-09
497 -1.0358111156604382e-09 -1.035810568488782e-09 -6.040268359848669e-10
450 4.015085566686434e-09 1.269710266298441e-09 -5.780852360089587e-09
449 1.2697075358997438e-09 4.0150858420921235e-09 -5.780849587834078e-09
484 -1.829347672762549e-10 -1.2952791240247857e-09 3.4755591929946604e-09
201 3.1330940864758576e-09 3.1331026289051965e-09 -3.366056895986604e-09
219 -1.295274709041067e-09 -1.8292591547048095e-10 3.4755574835382e-09
