LAMMPS data file via write_data, version 29 Aug 2024, timestep = 27, units = metal

500 atoms
3 atom types

0 17.549553617857924 xlo xhi
0 17.549553617857924 ylo yhi
0 17.549553617857924 zlo zhi

Masses

1 55.8389
2 58.71
3 58.71

Atoms # atomic

1 2 0.0025760264637807594 0.0025760264637800082 6.995093862693441e-16 0 0 0
2 3 1.7523793353220127 1.7523793353220114 1.7362826697411787e-15 0 0 0
3 1 1.7511593249896185 0.003796036796175731 1.7471613356411264 0 0 0
4 1 0.003796036796175348 1.751159324989617 1.747161335641128 0 0 0
5 1 3.5051124437995838 0.003747533953454805 1.9499973936715644e-16 0 0 0
8 1 3.505437034014041 1.7544353013847185 1.750723592600673 0 0 0
21 1 0.003747533953454206 3.505112443799584 7.940107557570011e-16 0 0 0
23 1 1.7544353013847187 3.5054370340140424 1.7507235926006728 0 0 0
25 1 3.5060149992993437 3.506014999299344 1.1607716929888636e-18 0 0 0
51 1 0.0005896371166598734 0.0005896371166604685 3.507721610103762 0 0 0
52 1 1.754365724669134 1.7543657246691324 3.5077216101037614 0 0 0
53 1 1.7546944745479094 0.00026088723788573174 5.264387205297018 0 0 0
54 1 0.00026088723788362454 1.754694474547909 5.264387205297019 0 0 0
55 1 3.5088584011896895 0.0005763333723597936 3.5085279399207616 0 0 0
58 1 3.5093368207909323 1.7548156927247542 5.264300916157995 0 0 0
71 1 0.0005763333723568986 3.508858401189689 3.50852793992076 0 0 0
73 1 1.7548156927247556 3.509336820790933 5.264300916157995 0 0 0
75 1 3.5089921372032933 3.508992137203294 3.508692769831263 0 0 0
6 1 5.263426162359205 1.7547602091667258 2.082866390538698e-18 0 0 0
7 1 5.263836338109497 0.0005708165027761925 1.7541427285073883 0 0 0
9 1 7.019638504216284 0.0002634531831488917 4.757396974911544e-16 0 0 0
12 1 7.019554986532924 1.7549042852379397 1.7546396073038297 0 0 0
27 1 5.263779760675018 3.5090965010697803 1.7542997146965782 0 0 0
29 1 7.019497074261514 3.5095600792565937 6.304783294453452e-16 0 0 0
56 1 5.264145238498868 1.7548277532599557 3.5091741803736207 0 0 0
57 1 5.264305084918287 0.0001358903162679326 5.264300034069198 0 0 0
59 1 7.0194080871040265 0.00013361240795217445 3.509482823836708 0 0 0
62 1 7.0194648966416056 1.754893620239066 5.264494165968442 0 0 0
77 1 5.2643677945428555 3.5096241175294556 5.264367754302342 0 0 0
79 1 7.019423140385951 3.509672859036806 3.509513479518146 0 0 0
11 1 8.774718222498622 6.643620171375293e-05 1.754873246982711 0 0 0
31 1 8.774723372288346 3.5097848010567323 1.7548500306574712 0 0 0
60 1 8.774659261764867 1.754912475261523 3.5097183600582147 0 0 0
61 1 8.774650313824226 5.98287785476878e-05 5.264627200598341 0 0 0
81 1 8.774657521951967 3.5097699819745323 5.264641712560003 0 0 0
10 1 8.774812013456302 1.754946537427656 5.354101961969125e-16 0 0 0
13 1 10.529696966187416 8.824358136192517e-06 8.463175389679476e-16 0 0 0
14 1 12.284870475427432 1.7546919086026416 5.191353118309339e-16 0 0 0
15 1 12.284953993110793 5.107654785361584e-05 1.75463960730383 0 0 0
16 1 10.529790757145097 1.7548889255840776 1.7548732469827113 0 0 0
33 1 10.529854514830394 3.509771784954142 5.457361905614224e-16 0 0 0
35 1 12.285038676897246 3.509546109810963 1.7547572756387593 0 0 0
63 1 10.52984971787885 4.2886524269368873e-05 3.5097183600582134 0 0 0
64 1 12.28510089253969 1.7548217493778402 3.509482823836707 0 0 0
65 1 12.285044083002113 6.174154672585937e-05 5.2644941659684426 0 0 0
66 1 10.529858665819491 1.7548955330072435 5.264627200598341 0 0 0
83 1 10.529850914075533 3.5097520259022184 3.5097312170728703 0 0 0
85 1 12.28502539905288 3.50969006642233 5.264517271841606 0 0 0
17 1 14.041082817284513 0.00019515261906542932 1.5175929466945114e-16 0 0 0
18 1 15.799396535844133 1.7512078278323384 5.560600878775231e-16 0 0 0
19 1 15.799071945629674 0.0005200604010756318 1.7507235926006726 0 0 0
20 1 14.040672641534222 1.7543845452830162 1.754142728507388 0 0 0
37 1 14.04027566194836 3.5092312723329138 3.383486245430569e-17 0 0 0
39 1 15.796041603250115 3.5084673763935994 1.7537706633558454 0 0 0
67 1 14.040363741144848 0.00012760852583596028 3.509174180373621 0 0 0
68 1 15.795650578454028 1.7543790284134355 3.5085279399207594 0 0 0
69 1 15.795172158852786 0.0001396690610386478 5.264300916157996 0 0 0
70 1 14.04020389472543 1.754819471469525 5.264300034069198 0 0 0
87 1 14.040336169407029 3.5093913058043857 3.509209038567835 0 0 0
89 1 15.79505533720835 3.5094536424353655 5.264223448375027 0 0 0
22 1 1.7547602091667251 5.263426162359203 3.3495917624826123e-16 0 0 0
24 1 0.0005708165027764909 5.263836338109496 1.7541427285073883 0 0 0
28 1 3.5090965010697794 5.263779760675017 1.7542997146965777 0 0 0
41 1 0.00026345318315036307 7.019638504216285 2.1094689294356667e-18 0 0 0
42 1 1.75490428523794 7.019554986532923 1.7546396073038302 0 0 0
43 1 3.5095600792565937 7.019497074261515 5.483806483039402e-16 0 0 0
72 1 1.7548277532599568 5.264145238498869 3.5091741803736207 0 0 0
74 1 0.00013589031626911775 5.264305084918286 5.2643000340691986 0 0 0
78 1 3.5096241175294542 5.264367794542856 5.264367754302342 0 0 0
91 1 0.00013361240795272937 7.0194080871040265 3.5094828238367066 0 0 0
92 1 1.7548936202390666 7.0194648966416056 5.264494165968442 0 0 0
93 1 3.5096728590368045 7.0194231403859515 3.5095134795181466 0 0 0
252 1 6.643620171341925e-05 8.774718222498622 1.7548732469827124 0 0 0
254 1 3.5097848010567305 8.774723372288346 1.7548500306574712 0 0 0
301 1 1.7549124752615237 8.774659261764866 3.5097183600582134 0 0 0
302 1 5.982877854848955e-05 8.774650313824226 5.264627200598342 0 0 0
304 1 3.509769981974533 8.774657521951967 5.264641712560002 0 0 0
26 1 5.264276989709472 5.264276989709472 8.91166484742732e-16 0 0 0
32 1 7.019425825786689 5.264449419295441 1.754782587163258 0 0 0
44 1 5.264449419295441 7.019425825786689 1.7547825871632576 0 0 0
45 1 7.019529900030395 7.0195299000303955 9.069306060569287e-16 0 0 0
76 1 5.2643183555703095 5.264318355570309 3.509410274385865 0 0 0
82 1 7.019543663281573 5.264612784368223 5.264582969321309 0 0 0
94 1 5.264612784368223 7.019543663281574 5.264582969321309 0 0 0
95 1 7.0195566886341645 7.019556688634164 3.5096979467938536 0 0 0
30 1 8.774664742866433 5.264653173883841 1.0142170534102081e-15 0 0 0
46 1 8.774663952626756 7.019616198909681 1.7548657936242327 0 0 0
80 1 8.774668996319251 5.264664323998207 3.5097326211894737 0 0 0
96 1 8.7746961968487 7.019663459561705 5.2647058690213155 0 0 0
253 1 5.26465317388384 8.774664742866433 1.2265523695658531e-15 0 0 0
256 1 7.019616198909681 8.774663952626755 1.7548657936242313 0 0 0
303 1 5.264664323998206 8.774668996319251 3.509732621189474 0 0 0
306 1 7.019663459561704 8.7746961968487 5.264705869021316 0 0 0
255 1 8.774693746137393 8.774693746137393 1.0887458524105765e-15 0 0 0
305 1 8.774700406480688 8.774700406480687 3.509778910575119 0 0 0
34 1 12.285036122718616 5.26451535219683 5.6823643653714e-19 0 0 0
36 1 10.529858412322284 5.264658927773611 1.7548576106708549 0 0 0
47 1 10.529826437406216 7.019635159494816 0 0 0 0
48 1 12.284957896019288 7.019551083624432 1.7548441977924538 0 0 0
84 1 12.285011792620182 5.264546392482117 3.5096433319332045 0 0 0
86 1 10.529829425857546 5.264677671716901 5.264679181483357 0 0 0
97 1 10.52981963013557 7.019646195957623 3.50976388679371 0 0 0
98 1 12.284888123489278 7.019620856154438 5.264667510097883 0 0 0
257 1 12.284873820148903 8.7746825422375 5.445008129786059e-19 0 0 0
258 1 10.529807275017744 8.774701704625974 1.7548806038233449 0 0 0
307 1 12.284862783686094 8.774689349508147 3.509763886793709 0 0 0
308 1 10.52979166190265 8.774717317741066 5.264732256368084 0 0 0
38 1 15.795277707310804 5.264233317695358 1.6380898927121665e-17 0 0 0
40 1 14.04025226220128 5.264256717442437 1.7546877455959629 0 0 0
49 1 14.039993627446886 7.0194728569251 1.0724827124965735e-15 0 0 0
50 1 15.794962869832755 7.01947030274647 1.754757275638758 0 0 0
88 1 15.795117673839332 5.264172810236688 3.5092090385678345 0 0 0
90 1 14.04001130256706 5.264497677076658 5.264457510921982 0 0 0
99 1 14.039962587161599 7.019497187023534 3.5096433319332037 0 0 0
100 1 15.794818913221388 7.019483580590837 5.264517271841606 0 0 0
259 1 15.794737194689576 8.774654464813324 1.750830838249236e-15 0 0 0
260 1 14.039850051870106 8.774650567321432 1.7548576106708547 0 0 0
309 1 15.794756953741501 8.774658065568186 3.5097312170728694 0 0 0
310 1 14.039831307926816 8.774679553786171 5.264679181483358 0 0 0
101 1 6.946365899319824e-05 6.946365899513762e-05 7.019774865211049 0 0 0
102 1 1.7548858981267976 1.7548858981267967 7.0197748652110485 0 0 0
103 1 1.7549336546281624 2.1707157631361388e-05 8.774776808928962 0 0 0
104 1 2.1707157630096798e-05 1.754933654628162 8.77477680892896 0 0 0
105 1 3.5097029260662937 7.243254912881036e-05 7.019622060421972 0 0 0
108 1 3.509812975159583 1.7549082325784593 8.774776808928962 0 0 0
121 1 7.243254912729244e-05 3.5097029260662933 7.019622060421972 0 0 0
123 1 1.7549082325784602 3.509812975159583 8.774776808928962 0 0 0
125 1 3.509718056118809 3.5097180561188086 7.019624906863731 0 0 0
151 1 6.946365899481017e-05 6.946365899345924e-05 10.529778752646875 0 0 0
152 1 1.7548858981267987 1.7548858981267974 10.529778752646877 0 0 0
153 1 3.5097029260662924 7.243254912649068e-05 10.529931557435953 0 0 0
161 1 7.243254912783562e-05 3.509702926066294 10.529931557435955 0 0 0
163 1 3.509718056118808 3.509718056118808 10.529928710994195 0 0 0
106 1 5.264577489111542 1.7548917264268575 7.019559066913966 0 0 0
107 1 5.264676281980284 4.966470576496971e-05 8.774776808928962 0 0 0
109 1 7.019566639974052 6.148835703558754e-05 7.019596182458168 0 0 0
112 1 7.019630114144554 1.7549076228393048 8.774776808928962 0 0 0
127 1 5.264687886242156 3.509775979400372 8.774776808928962 0 0 0
129 1 7.0195914776180945 3.509763737072822 7.019619590547493 0 0 0
154 1 5.2645774891115416 1.7548917264268573 10.529994550943961 0 0 0
155 1 7.019566639974051 6.148835703380144e-05 10.529957435399757 0 0 0
165 1 7.019591477618094 3.509763737072822 10.529934027310432 0 0 0
110 1 8.774682224594152 1.7549087763124191 7.01966055991376 0 0 0
111 1 8.77469134778724 4.6200908080630335e-05 8.774776808928962 0 0 0
131 1 8.774703912637714 3.509790161441677 8.774776808928962 0 0 0
156 1 8.774682224594153 1.7549087763124187 10.529893057944165 0 0 0
113 1 10.529826755049566 4.6585473373255696e-05 7.01966055991376 0 0 0
114 1 12.284942339669666 1.7548938734287574 7.0195961824581685 0 0 0
115 1 12.284878865499165 4.773894648743645e-05 8.774776808928962 0 0 0
116 1 10.52981763185648 1.754909160877713 8.774776808928962 0 0 0
133 1 10.529825066836061 3.5097783443244603 7.01966943723403 0 0 0
135 1 12.284876064358121 3.5097767104949265 8.774776808928962 0 0 0
157 1 10.529826755049564 4.658547337388147e-05 10.529893057944165 0 0 0
158 1 12.284942339669666 1.7548938734287582 10.529957435399757 0 0 0
167 1 10.52982506683606 3.50977834432446 10.529884180623895 0 0 0
117 1 14.039931490532176 6.363535893506995e-05 7.019559066913964 0 0 0
118 1 15.794806053577425 1.754882929236666 7.019622060421972 0 0 0
119 1 15.794696004484136 4.712920733204831e-05 8.774776808928962 0 0 0
120 1 14.039832697663433 1.7549056970800287 8.774776808928962 0 0 0
137 1 14.03992334487088 3.509722688247835 7.019563319057921 0 0 0
139 1 15.794726977155422 3.5097820024882935 8.774776808928962 0 0 0
159 1 14.039931490532176 6.363535893593554e-05 10.529994550943961 0 0 0
160 1 15.794806053577423 1.7548829292366661 10.529931557435953 0 0 0
169 1 14.039923344870882 3.509722688247834 10.529990298800001 0 0 0
122 1 1.7548917264268578 5.2645774891115416 7.019559066913964 0 0 0
124 1 4.966470576488139e-05 5.264676281980284 8.774776808928964 0 0 0
128 1 3.5097759794003727 5.264687886242156 8.774776808928962 0 0 0
141 1 6.148835703556153e-05 7.019566639974052 7.0195961824581685 0 0 0
142 1 1.7549076228393052 7.019630114144555 8.774776808928962 0 0 0
143 1 3.5097637370728214 7.0195914776180945 7.019619590547493 0 0 0
162 1 1.7548917264268569 5.2645774891115416 10.529994550943963 0 0 0
171 1 6.14883570340624e-05 7.019566639974049 10.529957435399757 0 0 0
172 1 3.5097637370728214 7.019591477618094 10.52993402731043 0 0 0
351 1 1.7549087763124191 8.77468222459415 7.01966055991376 0 0 0
352 1 4.620090807790238e-05 8.774691347787238 8.77477680892896 0 0 0
354 1 3.509790161441677 8.774703912637714 8.774776808928964 0 0 0
401 1 1.75490877631242 8.774682224594152 10.529893057944165 0 0 0
126 1 5.264641438939867 5.264641438939867 7.019619037122344 0 0 0
132 1 7.019667493243235 5.264703272293298 8.77477680892896 0 0 0
144 1 5.264703272293297 7.019667493243236 8.774776808928962 0 0 0
145 1 7.019665314902744 7.019665314902745 7.0196927371769196 0 0 0
164 1 5.264641438939868 5.264641438939866 10.529934580735581 0 0 0
173 1 7.019665314902745 7.019665314902745 10.529860880681005 0 0 0
130 1 8.774701157920145 5.264703094682032 7.0196939428539515 0 0 0
146 1 8.774724195287732 7.019696924553848 8.774776808928962 0 0 0
166 1 8.774701157920147 5.264703094682033 10.529859675003975 0 0 0
353 1 5.264703094682032 8.774701157920145 7.019693942853951 0 0 0
356 1 7.019696924553848 8.774724195287732 8.774776808928962 0 0 0
402 1 5.264703094682032 8.774701157920147 10.529859675003973 0 0 0
355 1 8.77472486484012 8.774724864840122 7.019735892398872 0 0 0
403 1 8.77472486484012 8.774724864840122 10.529817725459054 0 0 0
134 1 12.284888470106436 5.264667813373483 7.0196524445251445 0 0 0
136 1 10.529800526947088 5.26471053054803 8.774776808928962 0 0 0
147 1 10.529793831627108 7.0196856788062 7.019721319397661 0 0 0
148 1 12.284832644621392 7.019676335022324 8.774776808928962 0 0 0
168 1 12.284888470106436 5.264667813373483 10.52990117333278 0 0 0
174 1 10.529793831627106 7.019685678806199 10.529832298460263 0 0 0
357 1 12.284823300837518 8.77471514801661 7.01972131939766 0 0 0
358 1 10.529781341242431 8.774727638401286 8.774776808928962 0 0 0
404 1 12.284823300837518 8.774715148016611 10.529832298460263 0 0 0
138 1 15.794786291395882 5.264585634772835 7.019563319057921 0 0 0
140 1 14.03983489919494 5.264674080448777 8.77477680892896 0 0 0
149 1 14.039841166270232 7.019620509537279 7.019652444525144 0 0 0
150 1 15.794732269148792 7.019632915285596 8.774776808928962 0 0 0
170 1 15.794786291395884 5.264585634772836 10.529990298800003 0 0 0
175 1 14.039841166270232 7.01962050953728 10.52990117333278 0 0 0
359 1 15.794730635319258 8.774683912807658 7.01966943723403 0 0 0
360 1 14.039798449095686 8.774708452696629 8.774776808928962 0 0 0
405 1 15.794730635319254 8.774683912807657 10.529884180623894 0 0 0
176 1 1.7546944745479105 0.00026088723788241327 12.285166412560903 0 0 0
177 1 0.0002608872378831585 1.7546944745479105 12.285166412560905 0 0 0
179 1 3.5093368207909323 1.7548156927247562 12.285252701699926 0 0 0
186 1 1.7548156927247558 3.509336820790932 12.285252701699926 0 0 0
201 1 0.0005896371166601971 0.0005896371166596604 14.041832007754165 0 0 0
202 1 1.754365724669133 1.754365724669134 14.041832007754163 0 0 0
203 1 1.7511593249896185 0.0037960367961721807 15.802392282216797 0 0 0
204 1 0.0037960367961741843 1.751159324989618 15.802392282216795 0 0 0
205 1 3.5088584011896886 0.0005763333723565891 14.041025677937167 0 0 0
208 1 3.505437034014043 1.75443530138472 15.798830025257253 0 0 0
221 1 0.0005763333723568549 3.508858401189688 14.041025677937167 0 0 0
223 1 1.7544353013847191 3.5054370340140433 15.798830025257253 0 0 0
225 1 3.5089921372032933 3.5089921372032933 14.04086084802666 0 0 0
178 1 5.264305084918288 0.00013589031626769793 12.285253583788725 0 0 0
181 1 7.019464896641605 1.7548936202390657 12.285059451889483 0 0 0
188 1 5.264367794542856 3.5096241175294547 12.285185863555581 0 0 0
206 1 5.26414523849887 1.7548277532599579 14.040379437484305 0 0 0
207 1 5.263836338109497 0.0005708165027758562 15.795410889350537 0 0 0
209 1 7.019408087104027 0.00013361240795184794 14.040070794021217 0 0 0
212 1 7.019554986532924 1.7549042852379395 15.794914010554095 0 0 0
227 1 5.263779760675018 3.509096501069778 15.795253903161347 0 0 0
229 1 7.0194231403859515 3.5096728590368036 14.040040138339778 0 0 0
180 1 8.774650313824226 5.982877854754816e-05 12.284926417259584 0 0 0
190 1 8.77465752195197 3.5097699819745336 12.284911905297921 0 0 0
210 1 8.774659261764867 1.7549124752615237 14.039835257799712 0 0 0
211 1 8.774718222498622 6.643620171388035e-05 15.794680370875213 0 0 0
231 1 8.774723372288348 3.5097848010567305 15.794703587200452 0 0 0
182 1 12.285044083002113 6.17415467252624e-05 12.285059451889483 0 0 0
183 1 10.52985866581949 1.7548955330072444 12.284926417259584 0 0 0
192 1 12.285025399052882 3.5096900664223285 12.28503634601632 0 0 0
213 1 10.52984971787885 4.2886524269089664e-05 14.039835257799712 0 0 0
214 1 12.28510089253969 1.7548217493778406 14.040070794021217 0 0 0
215 1 12.284953993110793 5.107654785267521e-05 15.794914010554095 0 0 0
216 1 10.529790757145095 1.754888925584078 15.794680370875213 0 0 0
233 1 10.529850914075531 3.5097520259022175 14.039822400785056 0 0 0
235 1 12.285038676897246 3.5095461098109633 15.794796342219167 0 0 0
184 1 15.795172158852784 0.0001396690610360045 12.285252701699926 0 0 0
185 1 14.04020389472543 1.754819471469525 12.285253583788725 0 0 0
194 1 15.795055337208352 3.5094536424353655 12.285330169482895 0 0 0
217 1 14.040363741144848 0.00012760852583675714 14.040379437484303 0 0 0
218 1 15.795650578454028 1.7543790284134355 14.041025677937167 0 0 0
219 1 15.799071945629674 0.0005200604010748082 15.798830025257253 0 0 0
220 1 14.040672641534222 1.7543845452830165 15.795410889350537 0 0 0
237 1 14.040336169407029 3.5093913058043857 14.04034457929009 0 0 0
239 1 15.796041603250115 3.5084673763935994 15.795782954502078 0 0 0
187 1 0.00013589031626815454 5.264305084918287 12.285253583788723 0 0 0
189 1 3.5096241175294547 5.2643677945428555 12.285185863555581 0 0 0
196 1 1.7548936202390661 7.019464896641605 12.285059451889483 0 0 0
222 1 1.7548277532599572 5.264145238498869 14.040379437484305 0 0 0
224 1 0.0005708165027764799 5.263836338109498 15.795410889350537 0 0 0
228 1 3.5090965010697786 5.263779760675018 15.795253903161347 0 0 0
241 1 0.00013361240795165273 7.019408087104027 14.040070794021217 0 0 0
242 1 1.7549042852379402 7.019554986532924 15.794914010554095 0 0 0
243 1 3.509672859036804 7.0194231403859515 14.040040138339778 0 0 0
426 1 5.982877854816823e-05 8.774650313824226 12.284926417259584 0 0 0
427 1 3.5097699819745323 8.774657521951967 12.28491190529792 0 0 0
451 1 1.754912475261524 8.774659261764866 14.039835257799712 0 0 0
452 1 6.643620171498361e-05 8.77471822249862 15.794680370875213 0 0 0
454 1 3.50978480105673 8.774723372288348 15.794703587200452 0 0 0
191 1 7.019543663281572 5.264612784368223 12.284970648536614 0 0 0
197 1 5.264612784368224 7.019543663281572 12.284970648536614 0 0 0
226 1 5.2643183555703095 5.26431835557031 14.040143343472058 0 0 0
232 1 7.019425825786689 5.264449419295442 15.794771030694667 0 0 0
244 1 5.264449419295442 7.019425825786688 15.794771030694667 0 0 0
245 1 7.0195566886341645 7.0195566886341645 14.039855671064071 0 0 0
198 1 8.774696196848701 7.019663459561704 12.284847748836608 0 0 0
230 1 8.774668996319253 5.264664323998208 14.03982099666845 0 0 0
246 1 8.774663952626755 7.019616198909682 15.794687824233693 0 0 0
428 1 7.019663459561706 8.774696196848701 12.284847748836606 0 0 0
453 1 5.264664323998208 8.774668996319251 14.03982099666845 0 0 0
456 1 7.019616198909682 8.774663952626755 15.794687824233693 0 0 0
455 1 8.774700406480687 8.774700406480687 14.039774707282804 0 0 0
193 1 10.529829425857544 5.264677671716902 12.284874436374567 0 0 0
199 1 12.28488812348928 7.019620856154438 12.284886107760043 0 0 0
234 1 12.285011792620182 5.264546392482117 14.039910285924721 0 0 0
236 1 10.529858412322286 5.2646589277736116 15.794696007187069 0 0 0
247 1 10.529819630135568 7.0196461959576215 14.039789731064216 0 0 0
248 1 12.284957896019288 7.019551083624431 15.79470942006547 0 0 0
429 1 10.52979166190265 8.774717317741066 12.284821361489842 0 0 0
457 1 12.284862783686096 8.774689349508147 14.039789731064216 0 0 0
458 1 10.529807275017744 8.774701704625974 15.79467301403458 0 0 0
195 1 14.04001130256706 5.264497677076659 12.285096106935942 0 0 0
200 1 15.79481891322139 7.019483580590837 12.28503634601632 0 0 0
238 1 15.795117673839332 5.264172810236688 14.04034457929009 0 0 0
240 1 14.040252262201282 5.264256717442436 15.79486587226196 0 0 0
249 1 14.039962587161599 7.019497187023534 14.039910285924721 0 0 0
250 1 15.794962869832757 7.019470302746469 15.794796342219167 0 0 0
430 1 14.039831307926816 8.774679553786171 12.284874436374567 0 0 0
459 1 15.794756953741501 8.774658065568184 14.039822400785054 0 0 0
460 1 14.039850051870104 8.774650567321434 15.79469600718707 0 0 0
251 1 1.754946537427657 8.774812013456302 9.692932411470054e-17 0 0 0
261 1 8.824358137435261e-06 10.529696966187416 9.699115381715864e-16 0 0 0
262 1 1.754691908602643 12.284870475427434 2.9980856563923336e-16 0 0 0
263 1 1.754888925584078 10.529790757145097 1.7548732469827104 0 0 0
264 1 5.107654785365054e-05 12.284953993110793 1.75463960730383 0 0 0
265 1 3.509771784954141 10.529854514830394 3.2139137285294163e-16 0 0 0
268 1 3.509546109810963 12.285038676897248 1.7547572756387577 0 0 0
311 1 4.288652426835338e-05 10.52984971787885 3.5097183600582134 0 0 0
312 1 1.754821749377841 12.285100892539688 3.5094828238367084 0 0 0
313 1 1.754895533007245 10.529858665819491 5.264627200598341 0 0 0
314 1 6.174154672620269e-05 12.285044083002115 5.264494165968441 0 0 0
315 1 3.509752025902217 10.529850914075533 3.5097312170728716 0 0 0
318 1 3.5096900664223276 12.28502539905288 5.264517271841606 0 0 0
266 1 5.264515352196828 12.285036122718617 0 0 0 0
267 1 5.264658927773612 10.529858412322286 1.7548576106708555 0 0 0
269 1 7.0196351594948165 10.529826437406214 6.899255824865547e-16 0 0 0
272 1 7.019551083624431 12.284957896019286 1.7548441977924558 0 0 0
316 1 5.264546392482118 12.28501179262018 3.5096433319332037 0 0 0
317 1 5.264677671716902 10.529829425857546 5.264679181483357 0 0 0
319 1 7.0196461959576215 10.529819630135572 3.5097638867937095 0 0 0
322 1 7.019620856154438 12.284888123489278 5.264667510097882 0 0 0
270 1 8.774682542237503 12.2848738201489 2.9988623694801606e-17 0 0 0
271 1 8.774701704625974 10.529807275017744 1.754880603823343 0 0 0
320 1 8.774689349508147 12.284862783686096 3.5097638867937095 0 0 0
321 1 8.774717317741066 10.529791661902651 5.264732256368085 0 0 0
273 1 10.529815233506323 10.529815233506325 9.472002581906512e-19 0 0 0
274 1 12.284979079613322 12.284979079613322 2.284072728056544e-16 0 0 0
275 1 12.284892780734037 10.529845027016961 1.754865793624233 0 0 0
276 1 10.529845027016961 12.284892780734037 1.7548657936242311 0 0 0
323 1 10.529808573163029 10.529808573163029 3.5097789105751196 0 0 0
324 1 12.284952291009553 12.284952291009551 3.509697946793855 0 0 0
325 1 12.284845520082012 10.529812782795016 5.2647058690213155 0 0 0
326 1 10.529812782795016 12.284845520082012 5.264705869021316 0 0 0
277 1 14.039855805759878 10.529844236777283 2.1180117165744118e-18 0 0 0
278 1 15.794948900387123 12.285011905382202 2.930320735666381e-17 0 0 0
279 1 15.794724178586987 10.52978560735537 1.7548500306574715 0 0 0
280 1 14.040059560348276 12.28508315385703 1.754782587163257 0 0 0
327 1 14.03984465564551 10.529839983324466 3.509732621189474 0 0 0
328 1 15.794836120606913 12.285085839257766 3.509513479518146 0 0 0
329 1 15.794738997669185 10.529851457691748 5.264641712560004 0 0 0
330 1 14.039896195275492 12.284965316362143 5.264582969321308 0 0 0
281 1 0.00019515261906845454 14.041082817284511 3.1597457608424075e-16 0 0 0
282 1 1.751207827832338 15.799396535844133 7.57460459635372e-19 0 0 0
283 1 1.7543845452830158 14.04067264153422 1.7541427285073887 0 0 0
284 1 0.0005200604010749099 15.799071945629674 1.750723592600673 0 0 0
285 1 3.5092312723329133 14.040275661948357 0 0 0 0
288 1 3.5084673763936 15.796041603250115 1.7537706633558447 0 0 0
331 1 0.00012760852583630476 14.040363741144848 3.509174180373621 0 0 0
332 1 1.754379028413434 15.795650578454026 3.50852793992076 0 0 0
333 1 1.754819471469525 14.04020389472543 5.264300034069198 0 0 0
334 1 0.0001396690610369194 15.795172158852782 5.264300916157996 0 0 0
335 1 3.509391305804385 14.04033616940703 3.509209038567835 0 0 0
338 1 3.5094536424353673 15.79505533720835 5.264223448375027 0 0 0
341 1 8.774679553786171 14.039831307926816 5.264679181483356 0 0 0
340 1 8.774658065568184 15.7947569537415 3.5097312170728716 0 0 0
291 1 8.774650567321435 14.039850051870104 1.7548576106708564 0 0 0
286 1 5.26423331769536 15.795277707310804 5.593341988124709e-16 0 0 0
287 1 5.264256717442436 14.04025226220128 1.7546877455959615 0 0 0
289 1 7.019472856925098 14.039993627446888 2.2048709965798855e-18 0 0 0
292 1 7.01947030274647 15.794962869832755 1.7547572756387582 0 0 0
336 1 5.264172810236688 15.795117673839332 3.5092090385678354 0 0 0
337 1 5.264497677076658 14.040011302567061 5.264457510921983 0 0 0
339 1 7.019497187023536 14.039962587161599 3.5096433319332037 0 0 0
342 1 7.019483580590837 15.794818913221388 5.264517271841605 0 0 0
290 1 8.774654464813324 15.794737194689576 1.7092459855552467e-16 0 0 0
346 1 10.52985145769175 15.794738997669183 5.264641712560003 0 0 0
345 1 12.284965316362143 14.039896195275492 5.264582969321309 0 0 0
344 1 12.285085839257766 15.794836120606913 3.509513479518148 0 0 0
343 1 10.529839983324464 14.03984465564551 3.509732621189474 0 0 0
296 1 10.52978560735537 15.794724178586987 1.754850030657471 0 0 0
295 1 12.285083153857029 14.040059560348274 1.7547825871632567 0 0 0
294 1 12.285011905382202 15.794948900387125 1.735786390867313e-18 0 0 0
293 1 10.529844236777283 14.039855805759876 1.5157774765958199e-15 0 0 0
350 1 14.040141185100861 15.794884862114262 5.2643677543023415 0 0 0
349 1 15.794884862114262 14.040141185100861 5.2643677543023415 0 0 0
348 1 15.795516842440422 15.795516842440422 3.5086927698312635 0 0 0
347 1 14.040190624073409 14.040190624073407 3.5094102743858655 0 0 0
300 1 14.040729218968702 15.795412478573938 1.7542997146965777 0 0 0
299 1 15.795412478573935 14.0407292189687 1.7542997146965789 0 0 0
298 1 15.798493980344373 15.798493980344375 4.367803353551598e-16 0 0 0
297 1 14.040231989934245 14.040231989934243 8.887496093466078e-19 0 0 0
361 1 4.658547337172718e-05 10.529826755049564 7.01966055991376 0 0 0
362 1 1.7548938734287587 12.284942339669666 7.019596182458168 0 0 0
363 1 1.7549091608777134 10.52981763185648 8.774776808928962 0 0 0
364 1 4.7738946486848426e-05 12.284878865499163 8.774776808928962 0 0 0
365 1 3.5097783443244595 10.529825066836061 7.019669437234029 0 0 0
368 1 3.509776710494927 12.284876064358121 8.774776808928962 0 0 0
406 1 4.6585473375838964e-05 10.529826755049566 10.529893057944165 0 0 0
407 1 1.754893873428759 12.284942339669666 10.529957435399758 0 0 0
408 1 3.5097783443244595 10.529825066836061 10.529884180623897 0 0 0
366 1 5.264667813373483 12.284888470106438 7.019652444525145 0 0 0
367 1 5.26471053054803 10.529800526947088 8.774776808928962 0 0 0
369 1 7.019685678806201 10.529793831627106 7.01972131939766 0 0 0
372 1 7.019676335022322 12.284832644621394 8.774776808928962 0 0 0
409 1 5.2646678133734826 12.284888470106438 10.52990117333278 0 0 0
410 1 7.0196856788062005 10.529793831627106 10.529832298460265 0 0 0
370 1 8.77471514801661 12.284823300837516 7.01972131939766 0 0 0
371 1 8.774727638401284 10.529781341242431 8.77477680892896 0 0 0
411 1 8.774715148016611 12.28482330083752 10.529832298460265 0 0 0
373 1 10.529784114803595 10.529784114803595 7.01973589239887 0 0 0
374 1 12.284843664740972 12.284843664740972 7.019692737176919 0 0 0
375 1 12.28481205508987 10.529784784355986 8.774776808928964 0 0 0
376 1 10.529784784355986 12.284812055089871 8.774776808928962 0 0 0
412 1 10.529784114803597 10.529784114803595 10.529817725459054 0 0 0
413 1 12.284843664740972 12.284843664740972 10.529860880681005 0 0 0
377 1 14.039805884961684 10.529807821723569 7.019693942853951 0 0 0
378 1 15.794745242570897 12.284917502025625 7.019619590547493 0 0 0
379 1 15.79471881820204 10.529805067006002 8.774776808928962 0 0 0
380 1 14.039805707350421 12.284841486400483 8.774776808928964 0 0 0
414 1 14.039805884961684 10.529807821723569 10.529859675003973 0 0 0
415 1 15.794745242570896 12.284917502025623 10.52993402731043 0 0 0
381 1 6.363535893585948e-05 14.039931490532176 7.019559066913964 0 0 0
382 1 1.754882929236665 15.794806053577421 7.019622060421973 0 0 0
383 1 1.7549056970800283 14.039832697663435 8.774776808928962 0 0 0
384 1 4.712920733223429e-05 15.794696004484136 8.774776808928962 0 0 0
385 1 3.5097226882478347 14.039923344870882 7.019563319057921 0 0 0
388 1 3.509782002488294 15.794726977155422 8.774776808928962 0 0 0
416 1 6.363535893649282e-05 14.039931490532178 10.529994550943961 0 0 0
417 1 1.7548829292366646 15.794806053577423 10.529931557435955 0 0 0
418 1 3.5097226882478347 14.03992334487088 10.529990298800003 0 0 0
421 1 8.774683912807657 15.794730635319258 10.529884180623895 0 0 0
391 1 8.77470845269663 14.039798449095686 8.774776808928962 0 0 0
390 1 8.774683912807657 15.794730635319256 7.019669437234028 0 0 0
386 1 5.2645856347728355 15.794786291395882 7.019563319057921 0 0 0
387 1 5.264674080448779 14.039834899194938 8.774776808928962 0 0 0
389 1 7.019620509537278 14.039841166270232 7.0196524445251445 0 0 0
392 1 7.0196329152855945 15.794732269148792 8.774776808928962 0 0 0
419 1 5.264585634772836 15.794786291395884 10.529990298800003 0 0 0
420 1 7.019620509537277 14.039841166270232 10.52990117333278 0 0 0
423 1 12.284917502025623 15.794745242570897 10.529934027310432 0 0 0
422 1 10.529807821723569 14.039805884961684 10.529859675003975 0 0 0
396 1 10.529805067006002 15.79471881820204 8.774776808928962 0 0 0
395 1 12.284841486400483 14.03980570735042 8.774776808928962 0 0 0
394 1 12.284917502025623 15.794745242570897 7.019619590547492 0 0 0
393 1 10.52980782172357 14.039805884961684 7.019693942853951 0 0 0
425 1 15.79479092352491 15.794790923524909 10.529928710994195 0 0 0
424 1 14.03986754070385 14.03986754070385 10.52993458073558 0 0 0
400 1 14.039821093401562 15.794733000243344 8.774776808928962 0 0 0
399 1 15.794733000243344 14.03982109340156 8.774776808928962 0 0 0
398 1 15.794790923524909 15.794790923524909 7.019624906863732 0 0 0
397 1 14.03986754070385 14.03986754070385 7.019619037122344 0 0 0
431 1 1.7548955330072447 10.529858665819491 12.284926417259582 0 0 0
432 1 6.174154672670722e-05 12.285044083002113 12.285059451889483 0 0 0
434 1 3.5096900664223294 12.28502539905288 12.285036346016318 0 0 0
461 1 4.288652426907718e-05 10.52984971787885 14.039835257799712 0 0 0
462 1 1.7548217493778397 12.285100892539688 14.040070794021217 0 0 0
463 1 1.7548889255840778 10.529790757145095 15.794680370875213 0 0 0
464 1 5.1076547852054294e-05 12.284953993110795 15.794914010554095 0 0 0
465 1 3.509752025902218 10.529850914075531 14.039822400785054 0 0 0
468 1 3.5095461098109633 12.285038676897248 15.794796342219168 0 0 0
433 1 5.2646776717169015 10.529829425857546 12.284874436374567 0 0 0
436 1 7.019620856154438 12.28488812348928 12.284886107760041 0 0 0
466 1 5.264546392482118 12.285011792620182 14.039910285924721 0 0 0
467 1 5.2646589277736116 10.529858412322284 15.794696007187069 0 0 0
469 1 7.019646195957621 10.529819630135568 14.039789731064216 0 0 0
472 1 7.019551083624432 12.284957896019286 15.794709420065468 0 0 0
435 1 8.774717317741066 10.52979166190265 12.28482136148984 0 0 0
470 1 8.774689349508147 12.284862783686096 14.039789731064216 0 0 0
471 1 8.774701704625974 10.529807275017745 15.794673014034581 0 0 0
437 1 12.284845520082012 10.529812782795016 12.284847748836608 0 0 0
438 1 10.529812782795016 12.284845520082012 12.284847748836608 0 0 0
473 1 10.52980857316303 10.52980857316303 14.039774707282804 0 0 0
474 1 12.284952291009555 12.284952291009553 14.039855671064068 0 0 0
475 1 12.284892780734037 10.529845027016961 15.794687824233693 0 0 0
476 1 10.529845027016961 12.284892780734035 15.794687824233694 0 0 0
439 1 15.794738997669183 10.52985145769175 12.284911905297923 0 0 0
440 1 14.039896195275492 12.284965316362145 12.284970648536616 0 0 0
477 1 14.03984465564551 10.529839983324466 14.03982099666845 0 0 0
478 1 15.794836120606915 12.285085839257766 14.040040138339778 0 0 0
479 1 15.794724178586987 10.529785607355372 15.794703587200454 0 0 0
480 1 14.040059560348276 12.285083153857029 15.794771030694667 0 0 0
441 1 1.754819471469524 14.040203894725428 12.285253583788723 0 0 0
442 1 0.00013966906103695648 15.795172158852784 12.285252701699925 0 0 0
444 1 3.509453642435365 15.795055337208352 12.285330169482897 0 0 0
481 1 0.00012760852583653572 14.040363741144846 14.040379437484303 0 0 0
482 1 1.7543790284134368 15.79565057845403 14.041025677937165 0 0 0
483 1 1.7543845452830173 14.04067264153422 15.795410889350537 0 0 0
484 1 0.0005200604010751436 15.799071945629676 15.798830025257251 0 0 0
485 1 3.509391305804386 14.040336169407029 14.04034457929009 0 0 0
488 1 3.5084673763935985 15.796041603250117 15.795782954502078 0 0 0
491 1 8.774650567321432 14.039850051870104 15.794696007187069 0 0 0
490 1 8.774658065568184 15.794756953741501 14.039822400785056 0 0 0
445 1 8.774679553786171 14.039831307926814 12.284874436374565 0 0 0
443 1 5.264497677076658 14.04001130256706 12.285096106935942 0 0 0
446 1 7.019483580590837 15.79481891322139 12.285036346016321 0 0 0
486 1 5.264172810236688 15.795117673839332 14.040344579290089 0 0 0
487 1 5.264256717442437 14.04025226220128 15.794865872261962 0 0 0
489 1 7.019497187023536 14.039962587161599 14.039910285924723 0 0 0
492 1 7.019470302746471 15.794962869832755 15.794796342219168 0 0 0
496 1 10.52978560735537 15.794724178586987 15.794703587200452 0 0 0
495 1 12.28508315385703 14.040059560348277 15.794771030694667 0 0 0
494 1 12.285085839257764 15.794836120606913 14.040040138339778 0 0 0
493 1 10.529839983324466 14.03984465564551 14.039820996668448 0 0 0
448 1 10.52985145769175 15.794738997669183 12.284911905297921 0 0 0
447 1 12.284965316362143 14.039896195275492 12.284970648536616 0 0 0
500 1 14.0407292189687 15.795412478573937 15.795253903161347 0 0 0
499 1 15.795412478573937 14.0407292189687 15.795253903161347 0 0 0
498 1 15.795516842440422 15.795516842440424 14.040860848026663 0 0 0
497 1 14.040190624073407 14.040190624073405 14.04014334347206 0 0 0
450 1 14.040141185100861 15.794884862114262 12.285185863555581 0 0 0
449 1 15.794884862114262 14.040141185100863 12.285185863555581 0 0 0

Velocities

1 -8.635598408542138e-09 -8.635597045819735e-09 -1.3692794353251264e-15
2 8.635596457397342e-09 8.6356004634591e-09 -5.1529307957509646e-15
3 -4.1391361172200043e-10 4.139077904869959e-10 -6.064362062220502e-09
4 4.139112569102193e-10 -4.1391062354498337e-10 -6.064366701703286e-09
5 4.1086857565789956e-09 -1.5365512395272435e-09 -3.093419291749565e-16
8 -3.4863674442600575e-09 3.9241918446326095e-09 5.5890349709808754e-09
21 -1.536548143734058e-09 4.108681521098854e-09 -1.990019782951814e-15
23 3.924189382230199e-09 -3.486373139769964e-09 5.589037234026192e-09
25 -1.7796181522064968e-09 -1.7796203876698276e-09 1.1607716929888636e-15
51 -5.084262702258065e-09 -5.084264811577122e-09 2.0020901045164083e-09
52 5.084257819980279e-09 5.084263618584392e-09 2.0020915381309766e-09
53 1.6406492121345392e-10 -1.6407439021856665e-10 8.555889183203279e-09
54 -1.6406810572470172e-10 1.640688195719849e-10 8.555885273304492e-09
55 3.1332928061050157e-09 -7.020386051475829e-09 -7.632732933631852e-09
58 2.9206946203308285e-09 -2.3120322858698798e-09 4.012259144127766e-09
71 -7.020375507745123e-09 3.1332928470017355e-09 -7.632728132586066e-09
73 -2.3120372342037274e-09 2.920690594814035e-09 4.012257538067977e-09
75 6.615771614411047e-09 6.6157692451803846e-09 9.647690608850503e-10
6 1.7917516750563693e-08 9.436534608289177e-10 2.0828663905386982e-15
7 7.092034398832546e-09 -3.835233254626325e-09 6.677475107372013e-09
9 2.6633500283220648e-09 4.236830112052254e-10 3.764821279390689e-16
12 4.628188099677898e-09 -4.512984337824406e-09 2.980458375075334e-10
27 -1.5150883190024392e-09 3.4791237931199917e-09 5.261536510073002e-09
29 3.6025301501344086e-09 3.066365647444091e-09 -1.1174570925744467e-15
56 -1.6525041642236712e-09 -6.635047548833819e-10 1.6255164954668336e-09
57 3.727878815018018e-09 2.1707381057355878e-09 6.851900151458068e-10
59 -2.7521477988427735e-09 2.626172976953804e-09 1.0438016779078686e-09
62 5.04709729753856e-09 -1.6280105632211044e-09 7.282206765011559e-09
77 -5.2850216380348524e-09 1.2709790001277256e-09 -1.6013222776039907e-09
79 -1.5366427145539883e-09 -1.687010873269533e-09 1.0930507529975012e-09
11 1.2584019089600577e-09 3.803854706617878e-09 2.505102697677678e-09
31 -2.779423022897519e-09 -3.015810251653425e-09 2.3090124839482348e-09
60 -6.903372421104353e-10 4.741141638845565e-10 3.268056973064748e-10
61 8.661392720499973e-10 -8.074174174877241e-10 3.9372632670394875e-09
81 2.0239002037847344e-09 3.906305401267989e-09 2.0732615656402384e-09
10 -3.736925148349986e-09 1.50677902085292e-09 -2.5733272837236517e-16
13 3.736924094973164e-09 -1.5067775389041617e-09 -1.7457260454754277e-15
14 -2.6633436975735037e-09 -4.2367707589186746e-10 -9.610857999502966e-16
15 -4.6281848395229985e-09 4.512982779823649e-09 2.9804489360096604e-10
16 -1.2584093555580844e-09 -3.803848476677952e-09 2.5051019595508947e-09
33 -3.138621009151776e-09 5.085194713019205e-09 -6.18811703487653e-16
35 7.851137869477389e-10 -2.6071450139430545e-09 -3.3765058168213124e-09
63 6.903369110774338e-10 -4.741124085666097e-10 3.2681119578898625e-10
64 2.752148610990653e-09 -2.6261706509177267e-09 1.043805156995399e-09
65 -5.047099301289474e-09 1.6280168728515586e-09 7.282204834805337e-09
66 -8.661380280528703e-10 8.074180601451145e-10 3.9372628805907746e-09
83 -3.057953329768366e-09 7.814481394866629e-10 -3.5328772257691446e-09
85 4.663871058493682e-10 7.221195905850021e-09 -3.24303893345907e-09
17 -1.791752350678427e-08 -9.436491633573666e-10 -2.2241221252451365e-16
18 -4.1086826001877554e-09 1.536548650306348e-09 -7.697500832384784e-16
19 3.486377864830493e-09 -3.924191799389339e-09 5.589038698589629e-09
20 -7.092040764108205e-09 3.835232807403925e-09 6.677474303300908e-09
37 -6.657717623096333e-09 2.940038974305795e-09 4.951819071300492e-16
39 -1.7365732499050886e-09 1.7365774692785173e-09 7.647046222261085e-09
67 1.6525060399315717e-09 6.635099094812426e-10 1.6255160329573406e-09
68 -3.13329224570942e-09 7.020375698833783e-09 -7.632726092358674e-09
69 -2.920692888177698e-09 2.3120355268452874e-09 4.012255666747973e-09
70 -3.727879544901761e-09 -2.170740013624715e-09 6.851884402005673e-10
87 -4.0798362270756973e-10 4.265775634716994e-10 -1.991913783913751e-09
89 2.0787605435947043e-09 -2.0787570385041287e-09 -5.9332776252658266e-09
22 9.436549571655282e-10 1.7917521659062312e-08 3.4763909792505165e-16
24 -3.835233969222976e-09 7.092037574801007e-09 6.677475010703632e-09
28 3.479127253220429e-09 -1.5150850396413802e-09 5.26153740197815e-09
41 4.2368221987336417e-10 2.6633472341937083e-09 2.1094689294356668e-15
42 -4.512985416913308e-09 4.628188511031658e-09 2.980422216604718e-10
43 3.0663652115277695e-09 3.6025269943580213e-09 -8.070012484558025e-16
72 -6.635091671580024e-10 -1.6525069178984883e-09 1.625516516449118e-09
74 2.1707360434767977e-09 3.7278802113890315e-09 6.85186287792892e-10
78 1.2709835665846664e-09 -5.285021825915046e-09 -1.6013228564152878e-09
91 2.626168456770293e-09 -2.7521491014679387e-09 1.0438053156364552e-09
92 -1.6280129036450336e-09 5.047098371212259e-09 7.2822071390957116e-09
93 -1.6870054531099544e-09 -1.5366464460105215e-09 1.0930489986373396e-09
252 3.803857190920328e-09 1.2584026656196312e-09 2.5050985436350267e-09
254 -3.0158050333499774e-09 -2.7794215074596533e-09 2.3090126633591068e-09
301 4.741112383546452e-10 -6.90332185649247e-10 3.268093102310039e-10
302 -8.074153312491807e-10 8.661371047767483e-10 3.937259651117489e-09
304 3.906303823287812e-09 2.023900046229639e-09 2.073264021554547e-09
26 2.1562210991641387e-09 2.1562216349447842e-09 -8.702314555646973e-16
32 -3.365783026878901e-09 -2.373552790041171e-09 -1.437302850696672e-09
44 -2.373555494914303e-09 -3.365784057708549e-09 -1.4372999647333537e-09
45 5.027201436207555e-09 5.027198624052231e-09 4.241418877657504e-17
76 -2.601451814816074e-09 -2.6014471819986253e-09 5.999070904801219e-09
82 -2.9408291944426324e-09 1.3920864712870902e-09 6.851542415355966e-10
94 1.392085558316525e-09 -2.9408319348419424e-09 6.851530361180054e-10
95 -4.449439787664315e-09 -4.449437336588763e-09 3.5785396069423397e-09
30 -1.0234988967629462e-09 -2.326580718189046e-09 -2.6588845380577597e-15
46 -7.200256262879214e-10 4.0468708942574185e-09 9.171951661434198e-10
80 -2.4881675299879274e-10 -6.3242529845760665e-09 -1.4120092979504348e-10
96 -1.4585504361420093e-09 1.1094176733936708e-09 -2.9584566305524634e-09
253 -2.326580541425596e-09 -1.023497792920211e-09 -1.8344511329515143e-15
256 4.046871310145581e-09 -7.200225007944729e-10 9.172005404557709e-10
303 -6.324250677587554e-09 -2.488165308400771e-10 -1.4120431765413153e-10
306 1.1094209483009526e-09 -1.4585498905581265e-09 -2.958462397758086e-09
255 -7.926910513590463e-10 -7.926931918721257e-10 -1.5011325610818925e-15
305 -2.2663208581871586e-09 -2.266311847717915e-09 -8.683652698254183e-09
34 -6.246748268986001e-09 4.700337801033737e-10 5.6823643653714e-16
36 -2.1767036299135865e-09 -4.307949359137706e-09 4.8175355314181e-09
47 -3.733067685527356e-09 4.90661821546761e-09 -1.9018941893100255e-16
48 -4.548151900612908e-09 4.5481471016370245e-09 -1.3415448939253175e-09
84 4.98725108535739e-10 -4.3277640853661576e-09 -9.558957181871406e-11
86 1.9813927810072097e-09 3.4726472519040274e-09 -2.599213358764628e-09
97 1.893918065371199e-09 -2.900450609928036e-09 -1.181660738100583e-10
98 5.010174294870423e-10 -5.010144034970277e-10 -2.1213877180338608e-09
257 -4.906622475840797e-09 3.733071041664664e-09 5.445008129786059e-16
258 -1.6147645381909027e-09 1.6147651730425355e-09 -6.8979390526110316e-09
307 2.900449113675289e-09 -1.8939186818220985e-09 -1.1816306337449087e-10
308 2.9014218890627427e-10 -2.9014060876434827e-10 -4.163226383683309e-09
38 -2.9400398826888275e-09 6.657712348449831e-09 7.21790576494648e-16
40 5.159026640936176e-10 -5.159056243941713e-10 -8.212959299573525e-09
49 -4.700323377592621e-10 6.2467493033002066e-09 -2.575575385602269e-15
50 2.607145165549425e-09 -7.851106760553877e-10 -3.3765008609781214e-09
88 -4.265763123280672e-10 4.079825290642757e-10 -1.991912747980209e-09
90 2.1648199972859563e-09 -2.16481976442007e-09 -5.893599767045762e-09
99 4.32776720438446e-09 -4.987209056764921e-10 -9.558590081294389e-11
100 -7.22119620195884e-09 -4.663857123844946e-10 -3.243039502310222e-09
259 -5.08519773279142e-09 3.1386191983472793e-09 -3.287624187289576e-15
260 4.307952895736835e-09 2.176707175621109e-09 4.81753716683728e-09
309 -7.814566711737986e-10 3.0579461247055284e-09 -3.532874168135732e-09
310 -3.4726450442000714e-09 -1.9813975565853394e-09 -2.5992181760792956e-09
101 6.731836962623546e-09 6.7318305600293954e-09 -8.743883033900364e-09
102 -6.731832341725071e-09 -6.731829523204809e-09 -8.743879765235169e-09
103 3.6432658185139568e-09 -3.643269318209088e-09 1.020188632516418e-15
104 -3.643264876109649e-09 3.6432687137694296e-09 7.464897224677208e-15
105 -2.9099471387511214e-09 1.883041572809383e-09 -3.0538046949408225e-09
108 2.2958494481228583e-09 -1.4265585957460256e-09 1.5631585115334137e-15
121 1.883046057598169e-09 -2.90994551521878e-09 -3.053805108230935e-09
123 -1.426561216092736e-09 2.2958488142892677e-09 1.3377704912357202e-15
125 -2.007358247385199e-09 -2.007358391627865e-09 3.4929140409877602e-09
151 6.731834207349884e-09 6.7318377827311116e-09 8.74387832547579e-09
152 -6.731837626862714e-09 -6.731832425354461e-09 8.743873783410754e-09
153 -2.9099430300639254e-09 1.8830486406028287e-09 3.0538014584513845e-09
161 1.8830452135108502e-09 -2.909950251220071e-09 3.0537960495793517e-09
163 -2.007355388029103e-09 -2.007355077690348e-09 -3.4929179158741168e-09
106 -3.4083806560945927e-09 -1.3096461300464605e-09 8.51669460723748e-10
107 -5.5096666719291675e-09 -1.897089203064572e-09 7.535637497124357e-16
109 4.316785206174752e-09 -2.4642404625028733e-09 2.2012235014519694e-09
112 1.7380472328007478e-09 -4.89027636754576e-09 1.8119701141653435e-15
127 -7.0900181585449835e-09 1.9029356537820124e-09 1.0837425897135615e-15
129 1.0750517429973986e-09 -1.0955519006832115e-10 2.039035599041203e-09
154 -3.4083795596985265e-09 -1.3096476311790216e-09 -8.516747524558233e-10
155 4.316788296809012e-09 -2.464235899155807e-09 -2.2012239540698142e-09
165 1.0750564160288217e-09 -1.0955515991097115e-10 -2.039037942550418e-09
110 1.6683245448551513e-09 -2.450711932135733e-09 9.461036558933563e-09
111 -1.9106834951724864e-09 2.804341009802918e-09 -1.156273732902037e-15
131 3.134431714279529e-09 -7.964438408090963e-09 1.3090146922581389e-15
156 1.6683174803993175e-09 -2.450710968149647e-09 -9.461036025009365e-09
113 -1.6683252291205753e-09 2.4507125268336163e-09 9.461036537576595e-09
114 -4.316785609722504e-09 2.464239707140642e-09 2.2012210286897763e-09
115 -1.7380464822854008e-09 4.890277345248779e-09 8.916768253343904e-16
116 1.9106795373125823e-09 -2.804343465329663e-09 -2.1252056425859862e-16
133 4.418921807213554e-09 3.193656585713584e-10 -6.055390036672096e-14
135 1.3234928164094388e-09 2.3040641951744e-09 1.146306562463637e-15
157 -1.6683193576522026e-09 2.4507122055049213e-09 -9.461035458038071e-09
158 -4.316787074443426e-09 2.464236560416465e-09 -2.201222660530142e-09
167 4.418926772641143e-09 3.193677523785114e-10 5.864729218878421e-14
117 3.408382018622306e-09 1.3096470702026662e-09 8.516741220880565e-10
118 2.9099425435278436e-09 -1.8830463603425553e-09 -3.0538048306652895e-09
119 -2.295853797431892e-09 1.4265616333404447e-09 1.760113897498577e-15
120 5.509667555674408e-09 1.897084179006494e-09 -8.377926334312878e-16
137 2.408335159268091e-09 2.7839556579704392e-09 1.6407895017849316e-09
139 -8.128851177892653e-10 8.128865469825662e-10 1.6090414512555111e-15
159 3.4083806212021784e-09 1.309644771593432e-09 -8.516758093634532e-10
160 2.909948745291559e-09 -1.8830486655462215e-09 3.0537999214102805e-09
169 2.4083328463459414e-09 2.7839621028079752e-09 -1.6407891683164863e-09
122 -1.3096472043394117e-09 -3.4083790084138904e-09 8.516761251468305e-10
124 -1.8970841912961172e-09 -5.509666640200488e-09 -3.695364298432583e-15
128 1.9029333603434126e-09 -7.090018482146662e-09 1.3021070479701693e-15
141 -2.4642401435721534e-09 4.316782148156703e-09 2.2012213696518944e-09
142 -4.890277556941526e-09 1.7380407743172627e-09 1.0491142100212908e-15
143 -1.0955328239463658e-10 1.0750521666967004e-09 2.0390363923044415e-09
162 -1.309643588192603e-09 -3.408378266003419e-09 -8.516789312275953e-10
171 -2.464236556201049e-09 4.3167940271270296e-09 -2.2012239266429713e-09
172 -1.0955287488401918e-10 1.075051750008282e-09 -2.039033328733464e-09
351 -2.4507109058022886e-09 1.6683291943226687e-09 9.461036593629268e-09
352 2.804349302001634e-09 -1.91067861352932e-09 6.891781119088433e-15
354 -7.964438333688158e-09 3.13443456423048e-09 -4.176835125875858e-15
401 -2.450717111762461e-09 1.6683218769009273e-09 -9.461037363079604e-09
126 -1.9679880970840735e-09 -1.967986661146467e-09 6.339025790452192e-10
132 -1.415986717971827e-09 1.222942052241892e-09 4.96380894798645e-15
144 1.2229438019106047e-09 -1.4159883833656987e-09 7.710989443656487e-16
145 3.3536739088679218e-09 3.3536729537773953e-09 1.3304838819786285e-09
164 -1.967989760148064e-09 -1.967985870377802e-09 -6.33906163887209e-10
173 3.3536729226786526e-09 3.3536723478390022e-09 -1.3304845124962687e-09
130 2.3411108770937706e-10 9.798463049223185e-10 -1.5752541154390767e-09
146 -2.23196589886245e-09 -2.1726205499469377e-09 -2.1431904576149224e-16
166 2.341035616138257e-10 9.798433313087864e-10 1.5752477224631727e-09
353 9.798443797239773e-10 2.341109926896043e-10 -1.5752500342349263e-09
356 -2.1726218448536198e-09 -2.231965811450027e-09 2.110218296728539e-16
402 9.79845686094808e-10 2.3410644206304743e-10 1.5752535728971568e-09
355 -4.897902757768381e-10 -4.897972137939192e-10 -1.066936833641966e-09
403 -4.897897022366337e-10 -4.897955341620689e-10 1.0669324329076017e-09
134 -1.6112230774406915e-10 1.523483842632256e-09 -3.757491513651683e-09
136 2.4100259030620602e-09 -1.1002911464984921e-08 3.191016692601589e-16
147 -2.749789276799348e-09 1.191975112249827e-09 3.211755646750877e-10
148 2.701743915545559e-10 -2.7017295155631527e-10 1.1405797571051392e-15
168 -1.611224801594326e-10 1.5234830381103593e-09 3.75749012896651e-09
174 -2.7497818573836807e-09 1.1919787480300587e-09 -3.211754413292313e-10
357 -1.1919765539575619e-09 2.7497864907965896e-09 3.2117809768641107e-10
358 8.505438600928778e-10 -8.505445339239475e-10 -2.6377728709106738e-17
404 -1.191976824607952e-09 2.7497797002352215e-09 -3.2117428823855303e-10
138 -2.783955068497197e-09 -2.4083316411385243e-09 1.6407894280471902e-09
140 -9.217449814352675e-10 9.217470332029153e-10 4.432582474069241e-15
149 -1.5234821936003506e-09 1.6112491832193264e-10 -3.75748915536271e-09
150 -2.3040684887890514e-09 -1.3234947949170668e-09 -7.601581818897124e-16
170 -2.783962720436498e-09 -2.408335470705138e-09 -1.6407925623508292e-09
175 -1.523483495101465e-09 1.6112212647914632e-10 3.757488759397032e-09
359 -3.193711935199557e-10 -4.418928995548548e-09 -6.061796892848875e-14
360 1.1002911531734813e-08 -2.410030396392462e-09 -2.180883632446402e-15
405 -3.193598255431861e-10 -4.41892301102641e-09 6.391323666216563e-14
176 1.640624560948073e-10 -1.6406219471549553e-10 -8.555878692735609e-09
177 -1.6406525932797646e-10 1.640617404490426e-10 -8.555883292576863e-09
179 2.920695015191189e-09 -2.3120413016275604e-09 -4.012250979405794e-09
186 -2.3120388120714994e-09 2.9206944216829263e-09 -4.012250797659051e-09
201 -5.08426280776898e-09 -5.084262949249525e-09 -2.002099074742651e-09
202 5.084261392963531e-09 5.084257022053985e-09 -2.0020923292380276e-09
203 -4.139146092797407e-10 4.139214325686892e-10 6.0643684361888215e-09
204 4.139184196625515e-10 -4.1391465064481526e-10 6.064374543682132e-09
205 3.1332969196912e-09 -7.0203720603447055e-09 7.632722086197364e-09
208 -3.486373966912215e-09 3.9241864594284536e-09 -5.589036344481551e-09
221 -7.020375124368816e-09 3.133298467855926e-09 7.63272207470087e-09
223 3.924188331917002e-09 -3.4863745473814874e-09 -5.589036294919101e-09
225 6.615772742700594e-09 6.6157727610156e-09 -9.647678462829896e-10
178 3.727874166280548e-09 2.1707400193199066e-09 -6.851839698499817e-10
181 5.047102956760356e-09 -1.628011584758598e-09 -7.282209572965742e-09
188 -5.28502313480706e-09 1.2709819882017047e-09 1.6013237201120263e-09
206 -1.6525099260499491e-09 -6.635128168764655e-10 -1.6255183177782166e-09
207 7.092035749042535e-09 -3.8352291636804005e-09 -6.6774748041780065e-09
209 -2.752150646719499e-09 2.626174238288831e-09 -1.0438028834899694e-09
212 4.628189056896407e-09 -4.512984548846236e-09 -2.980442438281116e-10
227 -1.5150867319397697e-09 3.4791327781743397e-09 -5.261539075113337e-09
229 -1.5366435665360544e-09 -1.6870021325604417e-09 -1.09304845100382e-09
180 8.661388776017885e-10 -8.074153552289341e-10 -3.937261640238031e-09
190 2.02389403768408e-09 3.90630261912951e-09 -2.0732604248912883e-09
210 -6.903380556235685e-10 4.741110561085196e-10 -3.2681313275356485e-10
211 1.2584026315468369e-09 3.8038546682502725e-09 -2.5050970607870277e-09
231 -2.7794280231699597e-09 -3.015803684502901e-09 -2.309007278367101e-09
182 -5.047101289285966e-09 1.6280177898745616e-09 -7.282208376213753e-09
183 -8.661342463862678e-10 8.07415503903405e-10 -3.937260249787019e-09
192 4.663823777580003e-10 7.221200444932655e-09 3.2430405879221313e-09
213 6.90337099170966e-10 -4.741101688576448e-10 -3.268139258839076e-10
214 2.7521476075316452e-09 -2.626171189137463e-09 -1.0438045541124341e-09
215 -4.628184939010874e-09 4.512985041251386e-09 -2.980455975524651e-10
216 -1.2584031769131545e-09 -3.803851100062971e-09 -2.5050979972713336e-09
233 -3.0579472524117395e-09 7.814518357689363e-10 3.532873206526546e-09
235 7.85112759209487e-10 -2.607146425629262e-09 3.3765042308570783e-09
184 -2.9206894350932123e-09 2.3120398432008944e-09 -4.012251876148459e-09
185 -3.727877649302257e-09 -2.1707398038018733e-09 -6.851845057974695e-10
194 2.078754934130897e-09 -2.078754754957177e-09 5.93328508446786e-09
217 1.6525051908234922e-09 6.635083404560048e-10 -1.6255138497506695e-09
218 -3.133294549564225e-09 7.020375098740454e-09 7.632720032225376e-09
219 3.4863752798130793e-09 -3.924192060768651e-09 -5.589037320353304e-09
220 -7.0920407946823905e-09 3.8352311932667765e-09 -6.677473215519345e-09
237 -4.079824117133576e-10 4.265772892521547e-10 1.9919086493907376e-09
239 -1.7365733240924507e-09 1.7365786086329418e-09 -7.647042291979507e-09
187 2.1707385973205315e-09 3.727877036319812e-09 -6.851770708749366e-10
189 1.2709827631739412e-09 -5.285021533724536e-09 1.6013230918512696e-09
196 -1.628012836501724e-09 5.047100334554566e-09 -7.282208953763548e-09
222 -6.635114500305233e-10 -1.6525075839500425e-09 -1.6255189427505387e-09
224 -3.835232703091998e-09 7.092033568983206e-09 -6.677475281375098e-09
228 3.4791311018724905e-09 -1.5150873264833157e-09 -5.261539045738139e-09
241 2.626174722679849e-09 -2.7521523636136378e-09 -1.0438059037399065e-09
242 -4.512984524866482e-09 4.628187089032283e-09 -2.9804389244978797e-10
243 -1.6870034436628243e-09 -1.5366446142970948e-09 -1.0930489292242897e-09
426 -8.074155233869547e-10 8.661389224420539e-10 -3.937264783983698e-09
427 3.906306271597214e-09 2.0238978029482997e-09 -2.0732574064392474e-09
451 4.741114589683762e-10 -6.903329495542653e-10 -3.2681459791649587e-10
452 3.803850369579734e-09 1.2584068788622984e-09 -2.5050981590597323e-09
454 -3.015802497195995e-09 -2.77942786901365e-09 -2.3090087521020914e-09
191 -2.9408245840733565e-09 1.3920860789019833e-09 -6.851520360124163e-10
197 1.3920846243613337e-09 -2.9408249804137177e-09 -6.851543044970853e-10
226 -2.6014510951144578e-09 -2.6014536157488917e-09 -5.999065651134661e-09
232 -3.3657826788844393e-09 -2.373558556504868e-09 1.4372992450129043e-09
244 -2.373557942994156e-09 -3.365780459246809e-09 1.437300292656481e-09
245 -4.44943875229638e-09 -4.449439334554766e-09 -3.5785442186704326e-09
198 -1.4585565176921156e-09 1.1094208869803696e-09 2.9584583802501555e-09
230 -2.4882295309477703e-10 -6.324255486288591e-09 1.4120313335347644e-10
246 -7.200219488679395e-10 4.046868662042126e-09 -9.171934282107942e-10
428 1.109415713273643e-09 -1.4585567220151785e-09 2.9584625791049708e-09
453 -6.324255871233007e-09 -2.4882004062005283e-10 1.4120074913195627e-10
456 4.0468691362540435e-09 -7.200218792692402e-10 -9.171936546695901e-10
455 -2.2663134262424076e-09 -2.2663112832201187e-09 8.683652612557007e-09
193 1.9814014167261386e-09 3.4726426259168806e-09 2.5992153986243612e-09
199 5.010118144123471e-10 -5.01013032433945e-10 2.1213838358206825e-09
234 4.98724583988001e-10 -4.3277665808253975e-09 9.558636918477251e-11
236 -2.176708892475975e-09 -4.307951464275499e-09 -4.817532435313458e-09
247 1.893922061446214e-09 -2.9004441143584803e-09 1.1816526853996538e-10
248 -4.54815070722757e-09 4.548149611717708e-09 1.341545854014693e-09
429 2.901437862315435e-10 -2.9014131182074244e-10 4.1632286286378455e-09
457 2.9004439370933057e-09 -1.8939191026068516e-09 1.1816402804320319e-10
458 -1.614765194640523e-09 1.6147653041818117e-09 6.8979373313143596e-09
195 2.1648221644936356e-09 -2.1648231842326477e-09 5.8935998425819844e-09
200 -7.221200624724603e-09 -4.66385812499965e-10 3.243040043353407e-09
238 -4.265756984463809e-10 4.0798099915601054e-10 1.9919078024558233e-09
240 5.158998253404387e-10 -5.159023067952923e-10 8.212961849820296e-09
249 4.327769176569301e-09 -4.987213145312871e-10 9.558889381489106e-11
250 2.607138987165969e-09 -7.851056517724992e-10 3.376503675751547e-09
430 -3.472644692147317e-09 -1.981396869522685e-09 2.599215595857833e-09
459 -7.814577038393966e-10 3.057951443489763e-09 3.532880934875551e-09
460 4.3079591676413295e-09 2.176702402850741e-09 -4.817538697345039e-09
251 1.5067764550193092e-09 -3.736925612884527e-09 9.225460742551507e-16
261 -1.5067782966643682e-09 3.736924821777476e-09 -1.509525474762063e-15
262 -4.2368058925013484e-10 -2.6633498386197346e-09 -1.2171223570832717e-15
263 -3.803849987402415e-09 -1.2584079870266513e-09 2.5051043800072507e-09
264 4.512982460209717e-09 -4.628185506968054e-09 2.9804432431015884e-10
265 5.0851971504112615e-09 -3.1386205717993626e-09 2.6870793430030213e-16
268 -2.6071452115512097e-09 7.851085592233392e-10 -3.376499227390208e-09
311 -4.741081377725343e-10 6.903372976830455e-10 3.2681177609901783e-10
312 -2.626172679604862e-09 2.7521521322090177e-09 1.0438012539158542e-09
313 8.074116671428655e-10 -8.661410941084687e-10 3.937263665328203e-09
314 1.6280122633856186e-09 -5.0471043118964104e-09 7.282209264601101e-09
315 7.814527286400657e-10 -3.0579533775476162e-09 -3.532881715014324e-09
318 7.221204243489513e-09 4.663896428417053e-10 -3.2430395560281476e-09
266 4.70040796917011e-10 -6.246755320419821e-09 -6.300100609705142e-16
267 -4.307955875071318e-09 -2.1767093856538897e-09 4.817532512442087e-09
269 4.906614613783591e-09 -3.733063414847454e-09 -1.3021006080949963e-15
272 4.54815170295462e-09 -4.5481454761094925e-09 -1.3415528486090049e-09
316 -4.327770381407889e-09 4.987327234984476e-10 -9.558530059872173e-11
317 3.472643054688453e-09 1.9813952152621696e-09 -2.5992120006933084e-09
319 -2.900442229654074e-09 1.893909542920889e-09 -1.1816443359492766e-10
322 -5.010152868511457e-10 5.010190011444327e-10 -2.121384664920655e-09
270 3.733058371973304e-09 -4.906611226868237e-09 1.3092500404235565e-15
271 1.6147643637153213e-09 -1.6147662576767552e-09 -6.897931901548829e-09
320 -1.8939173480977514e-09 2.9004423269676136e-09 -1.1816416157460034e-10
321 -2.901410692458662e-10 2.901386568124238e-10 -4.163233642054908e-09
273 7.926988069842893e-10 7.926880602049042e-10 9.472002581906511e-16
274 -5.027200211305828e-09 -5.02720214245467e-09 -1.1688051445457343e-15
275 -4.046872388357636e-09 7.200259445996837e-10 9.1719308685402e-10
276 7.200281287184753e-10 -4.046875598785283e-09 9.17200089186787e-10
323 2.2663152428042994e-09 2.2663181726032623e-09 -8.68365326001035e-09
324 4.449436695342584e-09 4.449442427643204e-09 3.578536688952937e-09
325 -1.1094204989954537e-09 1.4585514145206305e-09 -2.958458428246545e-09
326 1.4585527731061888e-09 -1.1094199517699881e-09 -2.9584610719774714e-09
277 2.3265801982124487e-09 1.023502138051522e-09 2.1180117165744117e-15
278 -3.0663628062929368e-09 -3.6025259593644082e-09 1.8920025410441106e-15
279 3.0158012948783254e-09 2.7794285351478982e-09 2.3090106587073422e-09
280 2.373555825716951e-09 3.3657759999119225e-09 -1.4372992894035494e-09
327 6.324256394025293e-09 2.488157221662174e-10 -1.4120391063762818e-10
328 1.6870061822349631e-09 1.5366426505648823e-09 1.093050424843124e-09
329 -3.906305464411551e-09 -2.0238946208883027e-09 2.073259851948474e-09
330 -1.3920835541337002e-09 2.9408315160954993e-09 6.851571732249559e-10
281 -9.436595804619783e-10 -1.7917517747831056e-08 6.111090273374018e-16
282 1.536551222734391e-09 -4.108684916032437e-09 7.574604596353719e-16
283 3.835233652690231e-09 -7.092036597626057e-09 6.677474063203627e-09
284 -3.924192319749988e-09 3.486375903286667e-09 5.58903666061034e-09
285 2.9400396039335614e-09 -6.657705014721156e-09 -2.413308094535527e-16
288 1.7365759725812738e-09 -1.7365714475221922e-09 7.647046643832877e-09
331 6.635079034249996e-10 1.652504616620804e-09 1.6255139591582943e-09
332 7.02038023925021e-09 -3.13328677697679e-09 -7.632727310979766e-09
333 -2.170738801148435e-09 -3.727879467567056e-09 6.851880398136227e-10
334 2.3120375771142007e-09 -2.920686380072633e-09 4.012256097484293e-09
335 4.2658069186470406e-10 -4.0798835839370933e-10 -1.9919137508180617e-09
338 -2.078762018077891e-09 2.07876222425108e-09 -5.933277488787309e-09
341 -1.981397168966885e-09 -3.4726471552052035e-09 -2.599209296741353e-09
340 3.057951892106146e-09 -7.814515289404983e-10 -3.5328800609587306e-09
291 2.1766970256479393e-09 4.307956457132996e-09 4.817530196363001e-09
286 6.6577050804863315e-09 -2.940039594931787e-09 -3.9566593063660106e-16
287 -5.159025899670319e-10 5.159036743718677e-10 -8.212954075725343e-09
289 6.24675832893739e-09 -4.700420672444459e-10 2.2048709965798854e-15
292 -7.851081262695068e-10 2.607142194233172e-09 -3.376501051317414e-09
336 4.079808318013753e-10 -4.2657708375837246e-10 -1.991916199804821e-09
337 -2.1648196829792223e-09 2.1648136394758688e-09 -5.8936032700211315e-09
339 -4.987280828470462e-10 4.327765783644959e-09 -9.558831577520818e-11
342 -4.663866817660247e-10 -7.221196760687094e-09 -3.2430371690802186e-09
290 3.138620504274344e-09 -5.085199859795544e-09 -2.9495096647455716e-16
346 -2.023902097475657e-09 -3.906302769087271e-09 2.0732613626729363e-09
345 2.9408329627958937e-09 -1.3920860646335617e-09 6.851535677220901e-10
344 1.5366446121762219e-09 1.6870032763185698e-09 1.0930439358258487e-09
343 2.4882308271111935e-10 6.3242547146744564e-09 -1.4120354038051775e-10
296 2.779428072962594e-09 3.0158014676074864e-09 2.309012986242154e-09
295 3.3657825448905417e-09 2.3735615594603967e-09 -1.4372973817739766e-09
294 -3.6025265547343808e-09 -3.0663687869211087e-09 1.7357863908673131e-15
293 1.0235016470243587e-09 2.3265856115293672e-09 -3.855261715435616e-15
350 5.285023559493447e-09 -1.2709850316539267e-09 -1.6013187975352574e-09
349 -1.2709852234919537e-09 5.285022240607011e-09 -1.6013192248994245e-09
348 -6.615765267434e-09 -6.6157650665286286e-09 9.647683615333407e-10
347 2.6014434921714485e-09 2.601449426036357e-09 5.999070644086971e-09
300 1.5150800962741328e-09 -3.4791327882064946e-09 5.261537160171961e-09
299 -3.479122078249145e-09 1.5150862117107363e-09 5.261532780869501e-09
298 1.7796215323775449e-09 1.7796137974083478e-09 -8.584751707145648e-16
297 -2.1562219232896097e-09 -2.156215995269766e-09 8.887496093466078e-16
361 2.450717680082616e-09 -1.6683185790853448e-09 9.461035022056181e-09
362 2.4642348872102142e-09 -4.316785622073599e-09 2.201224033502747e-09
363 -2.8043448753391616e-09 1.910677586896129e-09 -7.671272977134252e-16
364 4.890280448899783e-09 -1.7380420836117968e-09 9.492984866106936e-16
365 3.1936925988069446e-10 4.41891979706854e-09 -5.852480693387783e-14
368 2.304061750661012e-09 1.323493877018826e-09 1.0016675515185198e-15
406 2.450705289744049e-09 -1.6683258857161973e-09 -9.461036772278431e-09
407 2.4642353859890844e-09 -4.316785168556514e-09 -2.201230394731823e-09
408 3.193697252939859e-10 4.4189229698510195e-09 5.393262192436956e-14
366 1.523482884699653e-09 -1.611273822415916e-10 -3.757495046963303e-09
367 -1.1002910562161257e-08 2.4100268658233985e-09 1.3548560655132096e-16
369 1.191968012748778e-09 -2.749782848047242e-09 3.211778577390039e-10
372 -2.701668160417908e-10 2.701687498398535e-10 2.1277845198712224e-15
409 1.5234855237618162e-09 -1.61128245512713e-10 3.757490114552845e-09
410 1.1919723764702522e-09 -2.7497794501161893e-09 -3.2118117548775634e-10
370 2.7497845317256755e-09 -1.1919695861156626e-09 3.21177699922252e-10
371 -8.505412173741828e-10 8.505476560878365e-10 6.3738184462550645e-15
411 2.749781087276038e-09 -1.1919818445655861e-09 -3.211811633480062e-10
373 4.89795222137237e-10 4.897931985340905e-10 -1.0669314952992449e-09
374 -3.3536701554151136e-09 -3.3536730368072912e-09 1.3304865676360694e-09
375 2.1726197378014e-09 2.2319664560996805e-09 -5.780783221312628e-15
376 2.2319648607295356e-09 2.1726147804182765e-09 -5.881409198108643e-16
412 4.897881711749907e-10 4.897949466581113e-10 1.0669341754863047e-09
413 -3.353671085006265e-09 -3.3536705237291377e-09 -1.3304813212407153e-09
377 -9.798440515748688e-10 -2.3410091362457844e-10 -1.5752496743887522e-09
378 1.0954993005790002e-10 -1.0750578509401738e-09 2.0390350876624243e-09
379 7.964437682188234e-09 -3.1344286911837526e-09 8.728630227377139e-16
380 -1.2229445977386697e-09 1.415983165371365e-09 -5.824007663474621e-15
414 -9.798437864487206e-10 -2.3410133476899704e-10 1.5752548267385111e-09
415 1.0955574409897849e-10 -1.0750537865218507e-09 -2.0390312344158045e-09
381 1.309645245193561e-09 3.408379473696043e-09 8.516760113928754e-10
382 -1.8830448562125247e-09 2.9099535267045084e-09 -3.053807815395217e-09
383 1.8970858027355438e-09 5.509661351812463e-09 2.296819534301718e-15
384 1.426560547057617e-09 -2.2958523082892075e-09 6.138816863210295e-16
385 2.7839578754491013e-09 2.4083316074637377e-09 1.6407904997559948e-09
388 8.128877572107442e-10 -8.128860883264602e-10 1.8728122984714054e-15
416 1.309643003086621e-09 3.4083735405805012e-09 -8.516779386156791e-10
417 -1.8830434318151746e-09 2.9099460294346164e-09 3.0537960232016232e-09
418 2.7839587218219903e-09 2.4083389157220904e-09 -1.6407930054528805e-09
421 -4.418925877099991e-09 -3.193695222060824e-10 5.871352689038297e-14
391 -2.410035185630408e-09 1.1002912907423289e-08 -3.229890120919342e-16
390 -4.418924369179692e-09 -3.1936653837539566e-10 -5.722603281403134e-14
386 -2.4083333341465806e-09 -2.7839538575945885e-09 1.6407911761712109e-09
387 9.217406543035648e-10 -9.21739700372309e-10 1.4653321241081136e-15
389 1.6112909026896971e-10 -1.523482592165396e-09 -3.757491544808139e-09
392 -1.3234891661945198e-09 -2.3040658150465508e-09 -4.1245175799694175e-16
419 -2.4083359807831348e-09 -2.7839597772215183e-09 -1.6407917771637798e-09
420 1.6112909835496367e-10 -1.5234802076646194e-09 3.757489285242698e-09
423 -1.0750535109622998e-09 1.0954863927273804e-10 -2.039039075795157e-09
422 -2.341001958472076e-10 -9.798417286111977e-10 1.5752496975676194e-09
396 -3.134428873084613e-09 7.964438144997474e-09 9.591901348766087e-18
395 1.4159842351400111e-09 -1.222939097491047e-09 1.482295340757314e-16
394 -1.0750519481740078e-09 1.0954861933956804e-10 2.039039819617132e-09
393 -2.3410663446643214e-10 -9.79844022560304e-10 -1.5752516907353303e-09
425 2.0073517781207778e-09 2.0073570801941217e-09 -3.4929183502062292e-09
424 1.9679857831877466e-09 1.967987683058644e-09 -6.338974147055837e-10
400 7.09001595569805e-09 -1.9029310615562038e-09 1.3272793491355073e-15
399 -1.902928867708517e-09 7.090020217499717e-09 7.409743791921802e-16
398 2.0073565199671334e-09 2.0073558495831534e-09 3.4929121045295897e-09
397 1.9679863087939655e-09 1.9679861960891248e-09 6.339000611711152e-10
431 8.074145878768262e-10 -8.661413908579166e-10 -3.937255723233887e-09
432 1.6280097610983542e-09 -5.047100904373456e-09 -7.282210674910346e-09
434 7.221199016825937e-09 4.663878878158946e-10 3.2430474479330046e-09
461 -4.741098235491962e-10 6.903357776664286e-10 -3.268125446501134e-10
462 -2.626167183445389e-09 2.752150539054153e-09 -1.043804605386135e-09
463 -3.803850059341675e-09 -1.258402322109664e-09 -2.50509904646048e-09
464 4.5129863067120316e-09 -4.628189756180351e-09 -2.980440908822471e-10
465 7.814504185374107e-10 -3.0579482792875398e-09 3.532877024064058e-09
468 -2.607145882211519e-09 7.85105835557755e-10 3.3764979511995594e-09
433 3.472645501911272e-09 1.981394874749672e-09 2.5992139142776276e-09
436 -5.010145962136118e-10 5.010128863073229e-10 2.1213885041541066e-09
466 -4.327768553011263e-09 4.987256686550056e-10 9.558674762696428e-11
467 -4.307952776161232e-09 -2.1767049398076146e-09 -4.817531795372524e-09
469 -2.900441542821482e-09 1.89392018273746e-09 1.1816298341934247e-10
472 4.54814763724115e-09 -4.548148315312292e-09 1.3415538189647124e-09
435 -2.901393816402796e-10 2.901450666005001e-10 4.163233280260379e-09
470 -1.893917993365999e-09 2.9004421734971917e-09 1.1816232037916176e-10
471 1.614764316070783e-09 -1.6147711111788376e-09 6.897931364702101e-09
437 -1.109419088021145e-09 1.458552556749581e-09 2.9584585208963385e-09
438 1.458553698767772e-09 -1.109421942089518e-09 2.9584586847180865e-09
473 2.2663125174022904e-09 2.26631349894933e-09 8.68365223697412e-09
474 4.44943315767707e-09 4.449438269635556e-09 -3.578532542216031e-09
475 -4.046872804907496e-09 7.200268843296868e-10 -9.171939905909765e-10
476 7.200295123620269e-10 -4.046867014033576e-09 -9.172012148113977e-10
439 -3.906302227144846e-09 -2.0238999563834276e-09 -2.073267207138327e-09
440 -1.3920834180485998e-09 2.9408289041008634e-09 -6.851605864716417e-10
477 6.324256868674537e-09 2.488164556469237e-10 1.412041878285898e-10
478 1.6870017444818548e-09 1.536644732232285e-09 -1.0930478470945732e-09
479 3.0158030813699517e-09 2.7794218471946828e-09 -2.309013357928331e-09
480 2.3735553539153035e-09 3.365780816844881e-09 1.4372997770917836e-09
441 -2.1707355446979275e-09 -3.727874767235649e-09 -6.851779616478376e-10
442 2.3120377809421044e-09 -2.920689298408618e-09 -4.012245096472687e-09
444 -2.078754235767415e-09 2.0787542890076194e-09 5.9332806512373e-09
481 6.635107929852809e-10 1.65251263960932e-09 -1.6255149920861708e-09
482 7.020371836744629e-09 -3.1332998116213556e-09 7.632723218684978e-09
483 3.835229470621243e-09 -7.092034718512633e-09 -6.677476207068515e-09
484 -3.924192058970169e-09 3.4863700258491156e-09 -5.589034323783373e-09
485 4.2657562473674056e-10 -4.079843700013692e-10 1.9919083695853695e-09
488 1.7365805920934191e-09 -1.7365794801166604e-09 -7.647040302518823e-09
491 2.176708319922472e-09 4.307955441571706e-09 -4.817531925568652e-09
490 3.0579521254906927e-09 -7.814586846113095e-10 3.532873338089683e-09
445 -1.9813989235460174e-09 -3.4726389192839712e-09 2.5992196603546055e-09
443 -2.1648200796808525e-09 2.1648218177988577e-09 5.893602286118853e-09
446 -4.663848582088329e-10 -7.221202454971083e-09 3.243036883714128e-09
486 4.0798193170847997e-10 -4.2657887576370266e-10 1.991914579134126e-09
487 -5.159044940747087e-10 5.159058075020693e-10 8.212956129097107e-09
489 -4.987262469598577e-10 4.3277679806446714e-09 9.558311441183378e-11
492 -7.851107885784484e-10 2.6071429923842758e-09 3.376499086176625e-09
496 2.779426213440698e-09 3.0157997134135904e-09 -2.309007979569397e-09
495 3.3657766056981003e-09 2.3735515484051362e-09 1.4372998138217992e-09
494 1.5366489300754546e-09 1.6870056390088736e-09 -1.0930484689505813e-09
493 2.488160242943785e-10 6.324253445002718e-09 1.4120876406770112e-10
448 -2.0239034360433664e-09 -3.906302411490956e-09 -2.0732611879649774e-09
447 2.9408331567766427e-09 -1.392084354236086e-09 -6.851597999979086e-10
500 1.51508544615711e-09 -3.4791275300460737e-09 -5.261538078896262e-09
499 -3.4791268430261395e-09 1.5150871157474386e-09 -5.261537215625141e-09
498 -6.615766527420167e-09 -6.615771344353124e-09 -9.647714248718972e-10
497 2.6014515139235086e-09 2.60145451139268e-09 -5.999071110942795e-09
450 5.285021950751743e-09 -1.2709864755348265e-09 1.6013229105061778e-09
449 -1.2709848805814804e-09 5.28501842542825e-09 1.601322240353411e-09
