LAMMPS data file via write_data, version 29 Aug 2024, timestep = 25, units = metal

500 atoms
3 atom types

0 17.57782962319932 xlo xhi
0 17.57782962319932 ylo yhi
0 17.57782962319932 zlo zhi

Masses

1 55.5704
2 55.845
3 55.845

Atoms # atomic

1 2 0.0013821049122069093 0.0013821049122078708 5.113873119832475e-19 0 0 0
3 1 1.7560788744733433 0.0017040878465882203 1.7542716560770686 0 0 0
4 1 0.001704087846586702 1.7560788744733424 1.7542716560770701 0 0 0
5 1 3.5137745689189903 0.0016725978141032456 0 0 0 0
8 1 3.5143561399311434 1.7580378428456287 1.7564484761630745 0 0 0
21 1 0.001672597814103072 3.513774568918991 0 0 0 0
23 1 1.7580378428456285 3.5143561399311434 1.7564484761630743 0 0 0
25 1 3.512515513670324 3.5125155136703246 0 0 0 0
52 1 1.7579912778332414 1.757991277833243 3.515625816310188 0 0 0
53 1 1.7577062958449872 7.66664749452615e-05 5.27337930391875 0 0 0
54 1 7.666647494480804e-05 1.7577062958449874 5.273379303918748 0 0 0
58 1 3.5154503804929904 1.7576118757192878 5.273204412342158 0 0 0
73 1 1.757611875719288 3.515450380492991 5.273204412342158 0 0 0
75 1 3.5159189404925923 3.515918940492593 3.5160302691137564 0 0 0
6 1 5.273173129499031 1.7577357551209534 0 0 0 0
9 1 7.031211857595773 7.534990262528142e-05 0 0 0 0
12 1 7.031130191871336 1.75779534049757 1.757721820034814 0 0 0
27 1 5.273551968585918 3.5157721373204667 1.7578494397255857 0 0 0
29 1 7.031184414885217 3.5154593634052373 5.159473896192104e-19 0 0 0
31 1 8.78888746380463 3.51555925532626 1.757799839654925 0 0 0
56 1 5.271755912461506 1.757616519439802 3.514082028186047 0 0 0
57 1 5.27285573225595 0.0001652488937386708 5.272743519266025 0 0 0
59 1 7.031015018326659 0.00016400913919769111 3.5154860620082875 0 0 0
61 1 8.788838473743791 6.639858685668492e-05 5.273251519634811 0 0 0
62 1 7.03061631868092 1.7577134637342582 5.272851437426898 0 0 0
77 1 5.273311458758381 3.5153541862805207 5.273202529531445 0 0 0
79 1 7.03088571099273 3.5153505246169825 3.5154847738326818 0 0 0
81 1 8.788839691685636 3.5154446413912286 5.273245164023491 0 0 0
10 1 8.788968377306745 1.7577819575191673 6.385338388749131e-19 0 0 0
60 1 8.788937784082671 1.7577930674282942 3.5155054149941427 0 0 0
13 1 10.546644208212507 1.0048007648897955e-06 4.722740846018226e-19 0 0 0
14 1 12.304400727923477 1.7577076124173068 2.1992851051256992e-16 0 0 0
16 1 10.546726637573316 1.757787902098542 1.7577849590483645 0 0 0
33 1 10.54667578848851 3.515515705566062 1.5961839995837747e-18 0 0 0
35 1 12.30465263315178 3.5155378110570763 1.7576212593931484 0 0 0
64 1 12.304597567192593 1.7576189531807318 3.515486062008287 0 0 0
65 1 12.304996266838334 6.949858566992889e-05 5.272851437426899 0 0 0
66 1 10.546774111775461 1.757716563733076 5.27325151963481 0 0 0
83 1 10.54680563606345 3.515521324899767 3.5154968968152644 0 0 0
85 1 12.304572624392598 3.5154481855510613 5.27327689905456 0 0 0
71 1 17.57760972061854 3.514280743924594 3.514376785538671 -1 0 0
17 1 14.062439456020222 4.720719897608978e-05 2.2588134550200054e-18 0 0 0
18 1 15.82183801660026 1.7561103645058265 5.421513726296433e-19 0 0 0
20 1 14.061892119021083 1.7580006196165394 1.7579362296094425 0 0 0
37 1 14.063709448691839 3.514019679174573 0 0 0 0
39 1 15.819515068877982 3.516097516641272 1.7581980271512956 0 0 0
67 1 14.063856673057746 0.00016644288012696674 3.5140820281860474 0 0 0
68 1 15.821331841594656 1.7580028649007122 3.5143767855386696 0 0 0
69 1 15.820162205026262 0.0001710866006429896 5.273204412342158 0 0 0
70 1 14.062756853263302 1.7576177134261903 5.272743519266027 0 0 0
87 1 14.06230282914624 3.5155093839276352 3.51563601820521 0 0 0
89 1 15.820258493140196 3.515354092379058 5.273040019610323 0 0 0
22 1 1.757735755120954 5.27317312949903 3.0928686490040126e-15 0 0 0
28 1 3.5157721373204667 5.2735519685859185 1.7578494397255848 0 0 0
41 1 7.534990262468563e-05 7.031211857595774 0 0 0 0
42 1 1.7577953404975717 7.031130191871337 1.7577218200348141 0 0 0
43 1 3.515459363405236 7.031184414885218 0 0 0 0
72 1 1.7576165194398032 5.271755912461505 3.5140820281860474 0 0 0
74 1 0.00016524889373829344 5.27285573225595 5.272743519266026 0 0 0
78 1 3.5153541862805198 5.273311458758381 5.273202529531444 0 0 0
91 1 0.00016400913919830204 7.03101501832666 3.515486062008288 0 0 0
92 1 1.757713463734258 7.03061631868092 5.272851437426898 0 0 0
93 1 3.515350524616982 7.03088571099273 3.5154847738326818 0 0 0
254 1 3.51555925532626 8.78888746380463 1.757799839654924 0 0 0
302 1 6.639858685504089e-05 8.78883847374379 5.273251519634811 0 0 0
304 1 3.5154446413912295 8.788839691685636 5.273245164023492 0 0 0
26 1 5.271456537824529 5.271456537824526 1.9650928306214101e-19 0 0 0
32 1 7.030918961691036 5.273263726121645 1.757555771497866 0 0 0
44 1 5.273263726121645 7.030918961691037 1.7575557714978665 0 0 0
45 1 7.030558565105899 7.030558565105898 0 0 0 0
46 1 8.788841709842126 7.031037463510625 1.7576581804417615 0 0 0
76 1 5.273468442312269 5.273468442312269 3.515646646328477 0 0 0
80 1 8.788810091747203 5.273248380291193 3.5154623780144214 0 0 0
82 1 7.031118476734944 5.273273607697038 5.273319238626865 0 0 0
94 1 5.273273607697037 7.031118476734944 5.273319238626865 0 0 0
95 1 7.0311162150674 7.031116215067401 3.515468357531754 0 0 0
96 1 8.788908486936272 7.031086550848086 5.2732868060308595 0 0 0
255 1 8.788778284970697 8.788778284970697 0 0 0 0
256 1 7.031037463510625 8.788841709842126 1.7576581804417615 0 0 0
303 1 5.273248380291194 8.788810091747203 3.5154623780144214 0 0 0
305 1 8.788903039545135 8.788903039545136 3.515452466854642 0 0 0
306 1 7.031086550848087 8.788908486936272 5.273286806030859 0 0 0
30 1 8.788939917343395 5.273266729022636 0 0 0 0
34 1 12.304904113759832 5.272857315663637 1.673129962626263e-18 0 0 0
36 1 10.546776054460539 5.273274063362171 1.7577262316807079 0 0 0
47 1 10.546839271456706 7.030953533392806 2.844788730270545e-19 0 0 0
48 1 12.304621819762415 7.030990765756835 1.7576497150557198 0 0 0
84 1 12.304601903951932 5.273282070048028 3.5154622922125496 0 0 0
86 1 10.546712027043652 5.273261972812161 5.273272636876915 0 0 0
97 1 10.54671468063515 7.031068608911745 3.5154574932328133 0 0 0
98 1 12.304525791393557 7.031086794125695 5.273289424974444 0 0 0
257 1 12.304659052126448 8.788773314062544 1.108398361820604e-18 0 0 0
258 1 10.546736505555524 8.788876079963726 1.7576636559530465 0 0 0
307 1 12.304543976607507 8.788897904884102 3.515457493232814 0 0 0
308 1 10.546715144104814 8.788897441414438 5.273278118652813 0 0 0
310 1 14.06235061270709 8.788900558475602 5.273272636876916 0 0 0
100 1 15.82016439996819 7.031039961126652 5.273276899054559 0 0 0
99 1 14.062330515471226 7.031010681567319 3.5154622922125496 0 0 0
90 1 14.062327078704612 5.27328550681464 5.2733271393030385 0 0 0
88 1 15.820103201591618 5.2733097563730125 3.515636018205211 0 0 0
50 1 15.820074774462176 7.030959952367471 1.7576212593931502 0 0 0
309 1 15.820091260619485 8.7888069494558 3.5154968968152644 0 0 0
40 1 14.062450553150649 5.273162032368603 1.7574470465993286 0 0 0
24 1 17.57761196590271 5.273720466498169 1.7579362296094418 -1 0 0
38 1 15.821592906344678 5.271903136827413 0 0 0 0
252 1 17.577824683420708 8.788885947945936 1.7577849590483645 -1 0 0
260 1 14.06233852215708 8.788836531058713 1.7577262316807074 0 0 0
102 1 1.7577872345084253 1.7577872345084247 7.0311481346485065 0 0 0
103 1 1.7577766083419621 6.353977968737256e-06 8.788914811599659 0 0 0
104 1 6.353977967590612e-06 1.75777660834196 8.78891481159966 0 0 0
108 1 3.515541443816096 1.7577910829830337 8.78891481159966 0 0 0
123 1 1.7577910829830345 3.515541443816097 8.78891481159966 0 0 0
125 1 3.515510577039679 3.515510577039679 7.030984516308472 0 0 0
152 1 1.757787234508426 1.7577872345084267 10.546681488550814 0 0 0
163 1 3.515510577039679 3.515510577039679 10.54684510689085 0 0 0
106 1 5.2732321539822005 1.7577124971108533 7.031067985825911 0 0 0
109 1 7.030922554819997 6.726643471896393e-05 7.0309112452764415 0 0 0
110 1 8.78877546420106 1.7577201974688286 7.030959246925186 0 0 0
111 1 8.788870875772668 6.205113608799694e-05 8.78891481159966 0 0 0
112 1 7.031046160120843 1.7577189698524396 8.788914811599659 0 0 0
127 1 5.2732773466135425 3.515515414404725 8.788914811599659 0 0 0
129 1 7.031056708069152 3.5154381936727246 7.03104526579791 0 0 0
131 1 8.788879048220487 3.5154405414529375 8.78891481159966 0 0 0
154 1 5.2732321539822 1.757712497110853 10.546761637373411 0 0 0
155 1 7.03092255482 6.726643471814454e-05 10.546918377922879 0 0 0
156 1 8.788775464201061 1.7577201974688275 10.546870376274134 0 0 0
165 1 7.031056708069152 3.515438193672724 10.546784357401412 0 0 0
113 1 10.546837121318191 6.276485110166645e-05 7.030959246925186 0 0 0
114 1 12.304690030699255 1.7577156958852131 7.0309112452764415 0 0 0
115 1 12.30456642539841 6.399246749016463e-05 8.788914811599659 0 0 0
116 1 10.546741709746584 1.7577209111838428 8.788914811599662 0 0 0
133 1 10.546717025633425 3.5154440405819076 7.031081780536122 0 0 0
135 1 12.304576798626469 3.5154459977225003 8.78891481159966 0 0 0
157 1 10.546837121318191 6.276485110387489e-05 10.546870376274134 0 0 0
158 1 12.304690030699254 1.7577156958852138 10.546918377922879 0 0 0
167 1 10.546717025633424 3.515444040581906 10.546747842663198 0 0 0
121 1 17.577827292810618 3.5155165977564176 7.031116024460007 -1 0 0
161 1 17.57782729281062 3.5155165977564167 10.546713598739315 -1 0 0
117 1 14.06238043153705 7.046520907807122e-05 7.03106798582591 0 0 0
118 1 15.820095987762835 1.7577852927086326 7.031116024460009 0 0 0
120 1 14.062328511016188 1.7577900959251698 8.78891481159966 0 0 0
137 1 14.06238969270289 3.5154375974904255 7.0309395383843425 0 0 0
139 1 15.820059958682862 3.515552626836391 8.788914811599659 0 0 0
159 1 14.062380431537054 7.046520907734181e-05 10.54676163737341 0 0 0
160 1 15.820095987762837 1.7577852927086295 10.546713598739313 0 0 0
169 1 14.06238969270289 3.5154375974904286 10.546890084814976 0 0 0
122 1 1.7577124971108524 5.2732321539822005 7.031067985825911 0 0 0
128 1 3.515515414404725 5.273277346613542 8.78891481159966 0 0 0
141 1 6.726643471832797e-05 7.030922554819997 7.0309112452764415 0 0 0
142 1 1.7577189698524385 7.031046160120844 8.788914811599659 0 0 0
143 1 3.5154381936727246 7.031056708069152 7.031045265797908 0 0 0
162 1 1.757712497110853 5.2732321539822 10.54676163737341 0 0 0
171 1 6.72664347180295e-05 7.030922554819998 10.546918377922879 0 0 0
172 1 3.5154381936727255 7.031056708069152 10.546784357401414 0 0 0
351 1 1.7577201974688288 8.788775464201061 7.030959246925188 0 0 0
352 1 6.205113608821568e-05 8.788870875772666 8.78891481159966 0 0 0
354 1 3.515440541452936 8.788879048220487 8.78891481159966 0 0 0
401 1 1.7577201974688283 8.788775464201061 10.546870376274132 0 0 0
126 1 5.273261888583096 5.273261888583097 7.031018154573307 0 0 0
130 1 8.788904525329304 5.273251122363255 7.031106555612193 0 0 0
132 1 7.031067070408609 5.273254268896091 8.788914811599659 0 0 0
144 1 5.273254268896091 7.031067070408608 8.788914811599659 0 0 0
145 1 7.031087218278828 7.031087218278827 7.031112007863051 0 0 0
146 1 8.788901590653031 7.031074686050418 8.788914811599659 0 0 0
164 1 5.273261888583097 5.2732618885830975 10.546811468626014 0 0 0
166 1 8.788904525329304 5.273251122363256 10.546723067587127 0 0 0
173 1 7.031087218278827 7.031087218278826 10.54671761533627 0 0 0
353 1 5.273251122363256 8.788904525329304 7.031106555612193 0 0 0
355 1 8.788900412446548 8.788900412446548 7.031102548934253 0 0 0
356 1 7.0310746860504185 8.788901590653031 8.788914811599659 0 0 0
402 1 5.273251122363254 8.788904525329304 10.546723067587129 0 0 0
403 1 8.788900412446548 8.78890041244655 10.546727074265068 0 0 0
134 1 12.304532556667587 5.273254542488491 7.031107733229465 0 0 0
136 1 10.546719590119443 5.273245713332965 8.788914811599659 0 0 0
147 1 10.546717294133536 7.0310756704845065 7.031103664208594 0 0 0
148 1 12.304540386564879 7.031072198954372 8.78891481159966 0 0 0
168 1 12.304532556667588 5.273254542488489 10.546721889969852 0 0 0
174 1 10.546717294133536 7.031075670484507 10.546725958990727 0 0 0
357 1 12.304536915034745 8.788895291385716 7.031103664208594 0 0 0
358 1 10.54671789863632 8.788894686882932 8.78891481159966 0 0 0
404 1 12.304536915034744 8.788895291385716 10.546725958990727 0 0 0
175 1 14.06235804303076 7.031080028851665 10.546721889969852 0 0 0
170 1 15.820174988028825 5.273222892816359 10.546890084814978 0 0 0
150 1 15.82016658779675 7.031035786892784 8.78891481159966 0 0 0
149 1 14.06235804303076 7.031080028851666 7.031107733229466 0 0 0
140 1 14.062374985408475 5.273237600110776 8.788914811599662 0 0 0
138 1 15.820174988028826 5.27322289281636 7.030939538384342 0 0 0
124 1 17.57782248959408 5.273284074503064 8.78891481159966 -1 0 0
359 1 15.820168544937344 8.788895559885828 7.031081780536121 0 0 0
360 1 14.062366872186288 8.788892995399808 8.78891481159966 0 0 0
405 1 15.820168544937346 8.788895559885828 10.546747842663198 0 0 0
176 1 1.7577062958449876 7.666647494139876e-05 12.304450319280571 0 0 0
177 1 7.666647494136618e-05 1.757706295844988 12.30445031928057 0 0 0
179 1 3.5154503804929913 1.7576118757192882 12.30462521085716 0 0 0
186 1 1.7576118757192878 3.515450380492991 12.30462521085716 0 0 0
202 1 1.7579912778332427 1.7579912778332423 14.062203806889134 0 0 0
203 1 1.7560788744733429 0.0017040878465897403 15.82355796712225 0 0 0
204 1 0.0017040878465904104 1.7560788744733422 15.823557967122253 0 0 0
208 1 3.5143561399311425 1.7580378428456285 15.821381147036247 0 0 0
223 1 1.758037842845628 3.5143561399311416 15.821381147036245 0 0 0
225 1 3.515918940492592 3.5159189404925937 14.061799354085565 0 0 0
2 3 1.756400857407723 1.756400857407724 17.577829623199317 0 0 -1
178 1 5.272855732255949 0.00016524889374145332 12.305086103933295 0 0 0
180 1 8.788838473743791 6.639858685690675e-05 12.30457810356451 0 0 0
181 1 7.03061631868092 1.7577134637342597 12.304978185772423 0 0 0
188 1 5.273311458758382 3.5153541862805198 12.304627093667875 0 0 0
190 1 8.788839691685636 3.5154446413912295 12.304584459175828 0 0 0
206 1 5.271755912461506 1.7576165194398023 14.063747595013272 0 0 0
209 1 7.031015018326658 0.00016400913919951455 14.062343561191032 0 0 0
212 1 7.031130191871336 1.7577953404975708 15.820107803164506 0 0 0
227 1 5.2735519685859185 3.5157721373204667 15.819980183473737 0 0 0
229 1 7.030885710992731 3.5153505246169816 14.062344849366637 0 0 0
231 1 8.78888746380463 3.51555925532626 15.820029783544395 0 0 0
210 1 8.788937784082671 1.7577930674282938 14.062324208205178 0 0 0
182 1 12.304996266838334 6.949858567391829e-05 12.304978185772425 0 0 0
183 1 10.546774111775461 1.757716563733075 12.304578103564511 0 0 0
192 1 12.304572624392598 3.5154481855510613 12.30455272414476 0 0 0
214 1 12.304597567192593 1.757618953180731 14.06234356119103 0 0 0
216 1 10.546726637573315 1.7577879020985432 15.820044664150956 0 0 0
233 1 10.54680563606345 3.5155213248997668 14.062332726384055 0 0 0
235 1 12.304652633151779 3.5155378110570776 15.820208363806172 0 0 0
221 1 17.57760972061854 3.5142807439245973 14.063452837660648 -1 0 0
184 1 15.820162205026262 0.00017108660064323205 12.304625210857163 0 0 0
185 1 14.062756853263302 1.7576177134261892 12.305086103933297 0 0 0
194 1 15.820258493140198 3.5153540923790563 12.304789603588999 0 0 0
217 1 14.063856673057744 0.00016644288012825854 14.063747595013272 0 0 0
218 1 15.821331841594652 1.7580028649007142 14.063452837660646 0 0 0
220 1 14.061892119021085 1.7580006196165376 15.81989339358988 0 0 0
237 1 14.06230282914624 3.515509383927634 14.062193604994107 0 0 0
239 1 15.81951506887798 3.516097516641273 15.819631596048023 0 0 0
187 1 0.000165248893739211 5.272855732255949 12.305086103933293 0 0 0
189 1 3.5153541862805198 5.273311458758381 12.304627093667875 0 0 0
196 1 1.757713463734259 7.030616318680918 12.304978185772425 0 0 0
222 1 1.7576165194398037 5.271755912461505 14.063747595013274 0 0 0
228 1 3.5157721373204676 5.2735519685859185 15.819980183473733 0 0 0
241 1 0.000164009139198017 7.031015018326659 14.06234356119103 0 0 0
242 1 1.757795340497572 7.0311301918713385 15.820107803164504 0 0 0
243 1 3.51535052461698 7.030885710992729 14.062344849366639 0 0 0
426 1 6.639858685372897e-05 8.78883847374379 12.304578103564511 0 0 0
427 1 3.515444641391231 8.788839691685636 12.304584459175826 0 0 0
454 1 3.515559255326259 8.78888746380463 15.820029783544395 0 0 0
191 1 7.031118476734943 5.273273607697039 12.304510384572456 0 0 0
197 1 5.273273607697039 7.031118476734942 12.304510384572454 0 0 0
198 1 8.788908486936272 7.0310865508480855 12.304542817168464 0 0 0
226 1 5.273468442312269 5.273468442312269 14.062182976870842 0 0 0
230 1 8.788810091747205 5.273248380291193 14.062367245184898 0 0 0
232 1 7.030918961691035 5.273263726121645 15.820273851701455 0 0 0
244 1 5.273263726121644 7.030918961691035 15.820273851701453 0 0 0
245 1 7.031116215067401 7.031116215067402 14.062361265667565 0 0 0
246 1 8.788841709842126 7.031037463510626 15.820171442757559 0 0 0
428 1 7.031086550848086 8.788908486936272 12.304542817168462 0 0 0
453 1 5.273248380291195 8.788810091747205 14.0623672451849 0 0 0
455 1 8.788903039545135 8.788903039545135 14.062377156344679 0 0 0
456 1 7.031037463510624 8.788841709842126 15.820171442757559 0 0 0
248 1 12.304621819762417 7.030990765756835 15.820179908143603 0 0 0
193 1 10.546712027043649 5.2732619728121595 12.304556986322407 0 0 0
199 1 12.304525791393559 7.031086794125696 12.304540198224878 0 0 0
234 1 12.304601903951932 5.273282070048027 14.06236733098677 0 0 0
236 1 10.546776054460539 5.2732740633621695 15.820103391518614 0 0 0
247 1 10.546714680635148 7.031068608911747 14.062372129966505 0 0 0
429 1 10.546715144104814 8.788897441414438 12.304551504546508 0 0 0
457 1 12.304543976607505 8.788897904884104 14.062372129966503 0 0 0
458 1 10.546736505555524 8.788876079963726 15.820165967246275 0 0 0
250 1 15.820074774462176 7.030959952367472 15.820208363806172 0 0 0
249 1 14.062330515471224 7.031010681567319 14.06236733098677 0 0 0
240 1 14.062450553150649 5.273162032368603 15.820382576599993 0 0 0
238 1 15.820103201591618 5.273309756373012 14.062193604994109 0 0 0
200 1 15.820164399968192 7.031039961126654 12.304552724144761 0 0 0
195 1 14.06232707870461 5.2732855068146405 12.304502483896282 0 0 0
224 1 17.57761196590271 5.273720466498168 15.819893393589876 -1 0 0
452 1 17.577824683420708 8.788885947945936 15.820044664150954 -1 0 0
430 1 14.062350612707089 8.788900558475602 12.304556986322407 0 0 0
459 1 15.820091260619485 8.7888069494558 14.062332726384055 0 0 0
460 1 14.06233852215708 8.788836531058713 15.820103391518616 0 0 0
49 1 14.062755269855614 7.030708471759419 17.577829623199317 0 0 -1
251 1 1.7577819575191687 8.788968377306745 0 0 0 0
261 1 1.0048007643063688e-06 10.546644208212507 0 0 0 0
262 1 1.7577076124173054 12.30440072792348 9.83101155701753e-19 0 0 0
263 1 1.7577879020985416 10.546726637573315 1.7577849590483647 0 0 0
265 1 3.515515705566063 10.54667578848851 0 0 0 0
268 1 3.5155378110570767 12.30465263315178 1.7576212593931495 0 0 0
301 1 1.7577930674282936 8.78893778408267 3.515505414994142 0 0 0
312 1 1.7576189531807327 12.304597567192593 3.5154860620082893 0 0 0
313 1 1.7577165637330765 10.546774111775463 5.27325151963481 0 0 0
314 1 6.949858567292753e-05 12.304996266838334 5.272851437426898 0 0 0
315 1 3.5155213248997677 10.546805636063452 3.515496896815266 0 0 0
318 1 3.51544818555106 12.304572624392598 5.27327689905456 0 0 0
253 1 5.273266729022635 8.788939917343395 4.0135289564287828e-16 0 0 0
267 1 5.2732740633621695 10.54677605446054 1.7577262316807079 0 0 0
269 1 7.030953533392806 10.546839271456706 7.710597299621592e-20 0 0 0
270 1 8.788773314062546 12.304659052126446 0 0 0 0
271 1 8.788876079963728 10.546736505555524 1.7576636559530465 0 0 0
272 1 7.030990765756834 12.304621819762415 1.7576497150557195 0 0 0
316 1 5.273282070048027 12.304601903951932 3.51546229221255 0 0 0
317 1 5.27326197281216 10.546712027043652 5.273272636876913 0 0 0
319 1 7.031068608911745 10.54671468063515 3.515457493232814 0 0 0
320 1 8.788897904884104 12.304543976607507 3.5154574932328146 0 0 0
321 1 8.788897441414438 10.546715144104814 5.273278118652813 0 0 0
322 1 7.031086794125695 12.304525791393557 5.273289424974443 0 0 0
273 1 10.546834300548554 10.546834300548555 0 0 0 0
274 1 12.305054020413355 12.305054020413353 1.5511553161348126e-19 0 0 0
275 1 12.304575122008627 10.546770875677126 1.7576581804417626 0 0 0
276 1 10.546770875677126 12.304575122008629 1.757658180441762 0 0 0
323 1 10.546709545974116 10.546709545974116 3.515452466854642 0 0 0
324 1 12.304496370451853 12.30449637045185 3.5154683575317534 0 0 0
325 1 12.304526034671166 10.546704098582978 5.27328680603086 0 0 0
326 1 10.546704098582978 12.304526034671166 5.273286806030859 0 0 0
264 1 17.577817245021677 12.304482393647914 1.7577218200348141 -1 0 0
311 1 17.577819518090955 10.54667480143658 3.5155054149941405 -1 0 0
259 1 15.820096879953189 8.78893679703074 2.1259863687257428e-18 0 0 0
277 1 14.062345856496616 10.546672668175855 8.481415838109384e-19 0 0 0
278 1 15.820153222114016 12.304428170634033 5.705890129058057e-16 0 0 0
279 1 15.820053330192993 10.546725121714625 1.7577998396549257 0 0 0
280 1 14.062348859397607 12.304693623828216 1.7575557714978665 0 0 0
327 1 14.062364205228057 10.546802493772047 3.5154623780144205 0 0 0
328 1 15.820262060902271 12.30472687452652 3.51548477383268 0 0 0
329 1 15.820167944128023 10.546772893833614 5.273245164023494 0 0 0
330 1 14.062338977822211 12.304494108784308 5.273319238626867 0 0 0
281 1 4.7207198976040726e-05 14.06243945602022 2.2539292068832617e-16 0 0 0
282 1 1.7561103645058285 15.82183801660026 2.2667634889654168e-15 0 0 0
283 1 1.7580006196165392 14.061892119021083 1.757936229609442 0 0 0
288 1 3.5160975166412705 15.819515068877982 1.7581980271512958 0 0 0
331 1 0.00016644288012727875 14.063856673057746 3.5140820281860474 0 0 0
332 1 1.758002864900714 15.821331841594654 3.514376785538671 0 0 0
333 1 1.7576177134261917 14.062756853263302 5.272743519266026 0 0 0
334 1 0.00017108660064182312 15.82016220502626 5.273204412342158 0 0 0
335 1 3.5155093839276326 14.06230282914624 3.5156360182052118 0 0 0
338 1 3.5153540923790563 15.820258493140196 5.273040019610323 0 0 0
55 1 3.514280743924597 17.57760972061854 3.514376785538671 0 -1 0
11 1 8.788885947945936 17.577824683420708 1.7577849590483645 0 -1 0
287 1 5.273162032368604 14.062450553150647 1.7574470465993275 0 0 0
289 1 7.030708471759417 14.062755269855616 2.167576014713341e-18 0 0 0
291 1 8.788836531058715 14.06233852215708 1.7577262316807087 0 0 0
292 1 7.030959952367472 15.820074774462176 1.7576212593931508 0 0 0
336 1 5.273309756373013 15.82010320159162 3.5156360182052118 0 0 0
337 1 5.2732855068146405 14.062327078704612 5.2733271393030385 0 0 0
339 1 7.031010681567319 14.062330515471226 3.5154622922125496 0 0 0
340 1 8.788806949455799 15.820091260619485 3.515496896815263 0 0 0
341 1 8.788900558475603 14.062350612707089 5.273272636876915 0 0 0
342 1 7.031039961126651 15.82016439996819 5.27327689905456 0 0 0
7 1 5.27372046649817 17.577611965902715 1.7579362296094425 0 -1 0
63 1 10.546674801436582 17.57781951809096 3.515505414994141 0 -1 0
346 1 10.546772893833616 15.820167944128025 5.2732451640234945 0 0 0
345 1 12.304494108784311 14.062338977822213 5.273319238626867 0 0 0
344 1 12.304726874526521 15.820262060902273 3.5154847738326795 0 0 0
343 1 10.546802493772047 14.062364205228057 3.515462378014419 0 0 0
296 1 10.546725121714625 15.82005333019299 1.757799839654926 0 0 0
295 1 12.304693623828216 14.062348859397607 1.7575557714978642 0 0 0
294 1 12.304428170634035 15.820153222114012 2.314188784920612e-16 0 0 0
293 1 10.546672668175857 14.062345856496616 2.4236350651358744e-16 0 0 0
15 1 12.304482393647913 17.577817245021677 1.7577218200348168 0 -1 0
290 1 8.78893679703074 15.82009687995319 1.1939378006132811e-18 0 0 0
350 1 14.06230112676087 15.820258399238732 5.273202529531446 0 0 0
349 1 15.820258399238734 14.062301126760872 5.273202529531447 0 0 0
348 1 15.81969364502666 15.81969364502666 3.516030269113755 0 0 0
347 1 14.062144143206984 14.062144143206982 3.5156466463284772 0 0 0
300 1 14.062060616933334 15.819840448198786 1.7578494397255864 0 0 0
299 1 15.819840448198786 14.062060616933334 1.7578494397255857 0 0 0
19 1 15.82125644558811 17.577574742673626 1.7564484761630754 0 -1 0
298 1 15.82309707184893 15.823097071848927 5.24079660208655e-19 0 0 0
284 1 17.577574742673622 15.821256445588109 1.756448476163076 -1 0 0
51 1 17.57762130768601 17.57762130768601 3.5156258163101866 -1 -1 0
361 1 6.276485110264372e-05 10.546837121318193 7.030959246925187 0 0 0
362 1 1.7577156958852138 12.304690030699254 7.0309112452764415 0 0 0
363 1 1.7577209111838423 10.546741709746582 8.78891481159966 0 0 0
364 1 6.399246749068305e-05 12.30456642539841 8.78891481159966 0 0 0
365 1 3.515444040581906 10.546717025633425 7.031081780536122 0 0 0
368 1 3.5154459977225017 12.304576798626469 8.788914811599659 0 0 0
406 1 6.276485110203967e-05 10.546837121318193 10.546870376274136 0 0 0
407 1 1.757715695885213 12.304690030699252 10.54691837792288 0 0 0
408 1 3.515444040581906 10.546717025633424 10.5467478426632 0 0 0
366 1 5.27325454248849 12.304532556667588 7.031107733229467 0 0 0
367 1 5.273245713332965 10.546719590119443 8.78891481159966 0 0 0
369 1 7.031075670484507 10.546717294133536 7.031103664208595 0 0 0
370 1 8.788895291385716 12.304536915034742 7.031103664208595 0 0 0
371 1 8.78889468688293 10.54671789863632 8.788914811599659 0 0 0
372 1 7.031072198954371 12.304540386564879 8.78891481159966 0 0 0
409 1 5.273254542488491 12.304532556667588 10.546721889969852 0 0 0
410 1 7.031075670484509 10.546717294133536 10.546725958990727 0 0 0
411 1 8.788895291385716 12.304536915034742 10.546725958990727 0 0 0
373 1 10.546712173072702 10.546712173072704 7.031102548934253 0 0 0
374 1 12.304525367240425 12.304525367240423 7.031112007863049 0 0 0
375 1 12.304537899468832 10.54671099486622 8.78891481159966 0 0 0
376 1 10.546710994866219 12.304537899468832 8.788914811599662 0 0 0
412 1 10.546712173072702 10.546712173072704 10.546727074265068 0 0 0
413 1 12.304525367240425 12.304525367240423 10.546717615336268 0 0 0
377 1 14.062361463155998 10.546708060189946 7.031106555612192 0 0 0
378 1 15.820174391846528 12.304555877450099 7.03104526579791 0 0 0
379 1 15.820172044066314 10.546733537298767 8.788914811599662 0 0 0
380 1 14.062358316623161 12.304545515110643 8.788914811599662 0 0 0
414 1 14.062361463155998 10.54670806018995 10.546723067587127 0 0 0
415 1 15.820174391846527 12.304555877450097 10.546784357401412 0 0 0
381 1 7.046520907816332e-05 14.06238043153705 7.03106798582591 0 0 0
382 1 1.757785292708633 15.820095987762834 7.031116024460008 0 0 0
383 1 1.7577900959251702 14.062328511016188 8.788914811599659 0 0 0
385 1 3.515437597490425 14.06238969270289 7.030939538384343 0 0 0
388 1 3.515552626836391 15.820059958682862 8.78891481159966 0 0 0
416 1 7.046520907955846e-05 14.06238043153705 10.54676163737341 0 0 0
417 1 1.7577852927086328 15.820095987762835 10.546713598739315 0 0 0
418 1 3.5154375974904286 14.062389692702892 10.546890084814978 0 0 0
105 1 3.515516597756417 17.577827292810618 7.031116024460007 0 -1 0
153 1 3.515516597756417 17.57782729281062 10.546713598739315 0 -1 0
421 1 8.788895559885828 15.820168544937346 10.546747842663198 0 0 0
420 1 7.0310800288516635 14.062358043030763 10.546721889969852 0 0 0
419 1 5.273222892816359 15.820174988028825 10.546890084814978 0 0 0
386 1 5.27322289281636 15.820174988028826 7.030939538384342 0 0 0
387 1 5.273237600110776 14.062374985408473 8.78891481159966 0 0 0
389 1 7.031080028851665 14.06235804303076 7.031107733229467 0 0 0
390 1 8.78889555988583 15.820168544937344 7.031081780536122 0 0 0
391 1 8.78889299539981 14.062366872186287 8.78891481159966 0 0 0
392 1 7.031035786892782 15.820166587796752 8.78891481159966 0 0 0
107 1 5.273284074503064 17.57782248959408 8.788914811599659 0 -1 0
423 1 12.304555877450099 15.820174391846527 10.54678435740141 0 0 0
422 1 10.546708060189948 14.062361463155998 10.546723067587125 0 0 0
396 1 10.546733537298767 15.820172044066314 8.78891481159966 0 0 0
395 1 12.304545515110645 14.062358316623161 8.788914811599662 0 0 0
394 1 12.304555877450099 15.82017439184653 7.031045265797907 0 0 0
393 1 10.546708060189946 14.062361463156 7.031106555612192 0 0 0
425 1 15.82010200847957 15.820102008479573 10.54684510689085 0 0 0
424 1 14.062350696936157 14.062350696936157 10.546811468626014 0 0 0
400 1 14.062335238905709 15.820097171114528 8.788914811599662 0 0 0
399 1 15.820097171114528 14.06233523890571 8.78891481159966 0 0 0
398 1 15.820102008479571 15.82010200847957 7.03098451630847 0 0 0
397 1 14.062350696936157 14.062350696936157 7.031018154573305 0 0 0
384 1 17.57782150253622 15.820071141703153 8.78891481159966 -1 0 0
101 1 17.57782535101083 17.57782535101083 7.031148134648506 -1 -1 0
151 1 17.577825351010826 17.577825351010826 10.546681488550814 -1 -1 0
119 1 15.820071141703155 17.577821502536224 8.788914811599664 0 -1 0
431 1 1.7577165637330747 10.546774111775463 12.30457810356451 0 0 0
432 1 6.949858567366502e-05 12.30499626683833 12.304978185772422 0 0 0
434 1 3.51544818555106 12.3045726243926 12.30455272414476 0 0 0
451 1 1.7577930674282936 8.78893778408267 14.062324208205181 0 0 0
462 1 1.7576189531807325 12.304597567192593 14.062343561191033 0 0 0
463 1 1.7577879020985425 10.546726637573315 15.820044664150954 0 0 0
465 1 3.5155213248997685 10.546805636063452 14.062332726384057 0 0 0
468 1 3.5155378110570763 12.30465263315178 15.820208363806172 0 0 0
433 1 5.27326197281216 10.546712027043649 12.304556986322407 0 0 0
435 1 8.788897441414436 10.546715144104814 12.304551504546504 0 0 0
436 1 7.031086794125696 12.304525791393557 12.304540198224876 0 0 0
466 1 5.273282070048027 12.30460190395193 14.06236733098677 0 0 0
467 1 5.2732740633621695 10.546776054460539 15.820103391518613 0 0 0
469 1 7.031068608911745 10.546714680635148 14.062372129966507 0 0 0
470 1 8.788897904884102 12.304543976607508 14.062372129966507 0 0 0
471 1 8.788876079963725 10.546736505555524 15.820165967246274 0 0 0
472 1 7.030990765756835 12.304621819762417 15.8201799081436 0 0 0
266 1 5.272857315663636 12.304904113759834 17.577829623199317 0 0 -1
437 1 12.304526034671165 10.54670409858298 12.304542817168464 0 0 0
438 1 10.54670409858298 12.304526034671165 12.304542817168462 0 0 0
473 1 10.54670954597412 10.546709545974116 14.062377156344679 0 0 0
474 1 12.304496370451849 12.30449637045185 14.062361265667567 0 0 0
475 1 12.304575122008629 10.546770875677128 15.820171442757559 0 0 0
476 1 10.546770875677126 12.304575122008629 15.820171442757559 0 0 0
461 1 17.57781951809096 10.546674801436582 14.06232420820518 -1 0 0
464 1 17.57781724502168 12.304482393647914 15.820107803164506 -1 0 0
439 1 15.820167944128023 10.546772893833616 12.304584459175826 0 0 0
440 1 14.062338977822215 12.304494108784308 12.304510384572456 0 0 0
477 1 14.062364205228057 10.546802493772049 14.062367245184898 0 0 0
478 1 15.82026206090227 12.30472687452652 14.062344849366639 0 0 0
479 1 15.820053330192993 10.546725121714623 15.820029783544395 0 0 0
480 1 14.062348859397607 12.304693623828218 15.820273851701455 0 0 0
441 1 1.7576177134261917 14.062756853263304 12.305086103933293 0 0 0
442 1 0.00017108660064317653 15.82016220502626 12.304625210857164 0 0 0
444 1 3.5153540923790554 15.820258493140196 12.304789603588997 0 0 0
481 1 0.0001664428801279289 14.063856673057748 14.063747595013274 0 0 0
482 1 1.7580028649007113 15.821331841594656 14.063452837660646 0 0 0
483 1 1.758000619616538 14.061892119021081 15.819893393589878 0 0 0
485 1 3.5155093839276335 14.06230282914624 14.062193604994107 0 0 0
488 1 3.516097516641274 15.819515068877982 15.819631596048024 0 0 0
205 1 3.5142807439245956 17.57760972061854 14.063452837660648 0 -1 0
285 1 3.5140196791745733 14.063709448691837 17.577829623199317 0 0 -1
492 1 7.03095995236747 15.820074774462176 15.820208363806172 0 0 0
491 1 8.788836531058713 14.062338522157082 15.820103391518613 0 0 0
443 1 5.27328550681464 14.062327078704612 12.30450248389628 0 0 0
445 1 8.788900558475602 14.06235061270709 12.304556986322407 0 0 0
446 1 7.031039961126653 15.820164399968188 12.304552724144761 0 0 0
486 1 5.2733097563730125 15.82010320159162 14.062193604994109 0 0 0
487 1 5.273162032368603 14.062450553150649 15.820382576599997 0 0 0
489 1 7.031010681567322 14.062330515471226 14.06236733098677 0 0 0
490 1 8.788806949455802 15.820091260619485 14.062332726384057 0 0 0
207 1 5.273720466498169 17.57761196590271 15.819893393589878 0 -1 0
211 1 8.788885947945937 17.577824683420708 15.820044664150956 0 -1 0
286 1 5.271903136827414 15.821592906344678 17.577829623199317 0 0 -1
496 1 10.546725121714623 15.820053330192993 15.820029783544394 0 0 0
495 1 12.304693623828218 14.062348859397607 15.820273851701455 0 0 0
494 1 12.304726874526521 15.82026206090227 14.062344849366639 0 0 0
493 1 10.546802493772047 14.062364205228057 14.062367245184898 0 0 0
448 1 10.546772893833614 15.820167944128023 12.304584459175828 0 0 0
447 1 12.304494108784308 14.062338977822213 12.304510384572458 0 0 0
213 1 10.54667480143658 17.577819518090955 14.06232420820518 0 -1 0
215 1 12.304482393647914 17.577817245021677 15.820107803164504 0 -1 0
500 1 14.062060616933334 15.819840448198784 15.819980183473737 0 0 0
499 1 15.819840448198784 14.062060616933334 15.819980183473735 0 0 0
498 1 15.81969364502666 15.819693645026657 14.061799354085565 0 0 0
497 1 14.062144143206984 14.062144143206984 14.062182976870842 0 0 0
450 1 14.062301126760872 15.820258399238732 12.304627093667877 0 0 0
449 1 15.82025839923873 14.062301126760874 12.304627093667875 0 0 0
484 1 17.577574742673622 15.82125644558811 15.821381147036245 -1 0 0
201 1 17.577621307686012 17.57762130768601 14.062203806889134 -1 -1 0
219 1 15.821256445588109 17.577574742673626 15.821381147036247 0 -1 0
297 1 14.064156047694723 14.064156047694725 17.577829623199317 0 0 -1

Velocities

1 4.149092541446736e-09 4.149085492169327e-09 5.113873119832475e-16
3 -3.200287983911344e-09 3.2002839465401914e-09 -2.3609807896606312e-09
4 3.2002899583965234e-09 -3.2002845079680574e-09 -2.360986329242879e-09
5 -5.663803907619331e-09 3.8317836141185715e-09 -4.861290641245801e-16
8 5.699425618840047e-09 -7.007957274686083e-09 -9.540168874432735e-09
21 3.831782031638954e-09 -5.66380585514754e-09 -1.4071840071809407e-15
23 -7.007958210198396e-09 5.699424676249647e-09 -9.540167983497312e-09
25 3.2423399923269703e-09 3.242339899408249e-09 -1.6014549157065627e-15
52 -5.590625023301115e-09 -5.590629517133604e-09 -1.501295588654624e-08
53 3.8548739211967935e-09 -3.8548792171121186e-09 -3.0470789181120656e-09
54 -3.854878537916927e-09 3.8548744079282475e-09 -3.0470736713668584e-09
58 -5.227412019599865e-09 -4.5497327574108175e-10 4.739053218501964e-10
73 -4.549740201450359e-10 -5.227413438229291e-09 4.739065376246496e-10
75 -4.319982326048405e-09 -4.319984044367061e-09 1.8535594262263674e-09
6 -2.2174806122073435e-08 2.1730042657999243e-09 -1.4674230485842344e-15
9 1.2864450650447431e-08 -6.928160067697647e-09 -4.626358379772956e-16
12 7.277264052331944e-09 3.629576015809986e-09 3.829620742481209e-09
27 1.1233273768428681e-09 -6.008306924234619e-09 -1.5627966246801367e-09
29 2.297916329740852e-09 2.1610374958968846e-09 5.159473896192104e-16
31 -6.295762919122674e-11 -3.3966205939596703e-09 -3.3994898951606687e-10
56 5.394253826864213e-09 2.3275731271714356e-11 2.3472769959220257e-09
57 5.406550460583537e-10 -9.433331162214463e-10 -8.17921316760406e-10
59 2.1374852694487843e-09 4.150285356168459e-10 4.095895713631235e-09
61 2.8715444812141765e-09 -1.5227915466295226e-10 6.987483967222189e-10
62 -2.1275113577082677e-09 -3.335520471602941e-09 -7.934346384858705e-10
77 1.9182622528797886e-09 -6.0518156495115235e-09 3.7081660138251907e-09
79 1.1734969978772882e-11 2.0032528433655935e-09 8.442586858687309e-09
81 9.662307627735117e-10 -3.0165934657151676e-10 1.6157235907616951e-09
10 -2.2876960483291414e-10 2.2451612810731594e-09 6.385338388749131e-16
60 -3.89549861507298e-09 -4.484935576233774e-09 9.330249304470797e-09
13 2.287696964292003e-10 -2.2451667531876805e-09 4.722740846018226e-16
14 -1.2864445928181908e-08 6.928153173322583e-09 -1.0042730609762115e-15
16 1.3520787249847955e-09 4.006214525089504e-09 -4.307441063636187e-10
33 2.541847350603571e-09 -6.66950128511319e-09 1.5961839995837746e-15
35 -1.0212630841679308e-08 -2.2714171202599936e-09 -3.1374183787181723e-09
64 -2.1374805826254668e-09 -4.150226201429801e-10 4.095896156990579e-09
65 2.12750772555997e-09 3.335529521785337e-09 -7.93436778975619e-10
66 -2.871543449136445e-09 1.5227385121774712e-10 6.987539459427129e-10
83 -1.8043931565494107e-09 -1.247105352031502e-09 3.6758554903656425e-09
85 -4.358795069919338e-09 -3.0592381363161345e-09 2.088431256104655e-09
71 6.093833779096121e-10 -1.8748569916330505e-09 2.809959891637878e-09
17 2.21747989226044e-08 -2.173002410437449e-09 2.2588134550200054e-15
18 5.663804830029652e-09 -3.831777242635163e-09 5.421513726296433e-16
20 -1.155221567517751e-09 -1.622906839126707e-09 -6.273168206167957e-09
37 -7.095411476467928e-09 3.776005660164642e-09 -4.510398225071615e-16
39 -1.6469385155109439e-09 1.646934090200365e-09 -5.4146817409419714e-09
67 -5.394254515817659e-09 -2.3269513407273058e-11 2.3472763256471223e-09
68 1.8748571660250757e-09 -6.09378881968757e-10 2.8099659032894912e-09
69 5.227413156912967e-09 4.5497503426929793e-10 4.739072928716312e-10
70 -5.40652242159226e-10 9.43339483078525e-10 -8.179276233897808e-10
87 -1.31678894480896e-09 2.4343212002998436e-10 -1.91318871410818e-09
89 8.662847066412074e-10 -8.662937295460239e-10 -2.1873841906179153e-09
22 2.173002090266944e-09 -2.2174802592366802e-08 -1.175685371068083e-14
28 -6.008303953852062e-09 1.1233262649336997e-09 -1.562794721184079e-09
41 -6.928157291882619e-09 1.286444711023897e-08 -1.9652987257824566e-15
42 3.6295709222978398e-09 7.277261096915156e-09 3.829620993979207e-09
43 2.161042977649652e-09 2.2979107867966306e-09 -1.8686150643301704e-15
72 2.3270428438311974e-11 5.394255711863826e-09 2.347274670447428e-09
74 -9.433331284620475e-10 5.406552276061179e-10 -8.179255162281125e-10
78 -6.051813857984783e-09 1.918262041054847e-09 3.708167862106049e-09
91 4.15026222437656e-10 2.1374805079290553e-09 4.095893198048865e-09
92 -3.335520871590176e-09 -2.127510988141749e-09 -7.934334815950804e-10
93 2.003255125145183e-09 1.1736304366486925e-11 8.442587144521561e-09
254 -3.396619003648977e-09 -6.295602005583324e-11 -3.3994455772979083e-10
302 -1.5227472829818995e-10 2.871550023808376e-09 6.987513050631378e-10
304 -3.0166256469170614e-10 9.662315907591358e-10 1.6157208656980597e-09
26 2.638648546930282e-09 2.6386571381210027e-09 1.9650928306214102e-16
32 9.990255589834737e-10 3.2559949653232305e-10 2.8153128168509367e-09
44 3.2559826118488763e-10 9.99023173908635e-10 2.8153106575853e-09
45 -1.7716189617198208e-09 -1.7716152442929828e-09 -1.238401743049087e-15
46 -3.567879378011195e-12 -9.931533412846212e-09 -5.875965272151713e-09
76 -8.645773368074475e-10 -8.645766060819913e-10 -1.6154720941356864e-09
80 -2.5596812884398035e-09 1.373298441292255e-09 2.9424865368373292e-09
82 1.0785243791762282e-08 -4.086805759751961e-09 7.811039771413802e-09
94 -4.086803601384755e-09 1.0785244142456595e-08 7.811039411157861e-09
95 2.0668797420520063e-09 2.066877192414355e-09 2.0982375677251653e-09
96 1.2445638397859532e-09 7.550580888268855e-10 3.816263122537663e-09
255 3.733007151684274e-09 3.733008309177454e-09 -3.4215775517070815e-16
256 -9.931533785123487e-09 -3.5660114964989307e-12 -5.875966784754042e-09
303 1.3732952374082451e-09 -2.5596800148414065e-09 2.942485531051821e-09
305 2.150298213451852e-09 2.150293766716038e-09 8.636770023235825e-09
306 7.550561891698902e-10 1.2445633825528043e-09 3.816266582216408e-09
30 -5.3640991324226265e-09 4.814488794985594e-09 -8.6045411444151385e-16
34 8.814993853619677e-10 6.340259637599141e-09 1.673129962626263e-15
36 -6.047795829428515e-09 3.0951088043601604e-10 -5.80786431041428e-09
47 -9.228889166179515e-09 2.0787919274363466e-09 2.844788730270545e-16
48 -5.18605646131202e-10 5.18610804920915e-10 -1.6437277708392083e-09
84 -5.597715287176995e-09 5.839447331965229e-09 -3.775745364353616e-09
86 -4.894919847624325e-09 -2.006218398931927e-09 3.586222474920612e-10
97 -2.162731570447115e-09 -1.0322106505389068e-10 -1.3299290305062521e-09
98 -1.1095616545027609e-08 1.1095620029743005e-08 -1.2286696236556118e-10
257 -2.078797740373246e-09 9.228892589743404e-09 1.108398361820604e-15
258 1.5518020831066312e-09 -1.5517978295153603e-09 -2.8642004598663537e-09
307 1.0322142080074971e-10 2.1627280935720058e-09 -1.3299313373521067e-09
308 3.93270390138686e-09 -3.932704651786187e-09 -1.723252368455335e-09
310 2.0062170078795116e-09 4.894911962089556e-09 3.5861971339265797e-10
100 3.0592361009142243e-09 4.358798639383737e-09 2.0884358104773804e-09
99 -5.8394511239328804e-09 5.59771681838813e-09 -3.775744509161594e-09
90 1.9553005507349473e-09 -1.9552997765126677e-09 8.333694872089103e-10
88 -2.434357134394017e-10 1.3167881319595717e-09 -1.9131915176331673e-09
50 2.2714164142584283e-09 1.0212628858007674e-08 -3.1374247479426177e-09
309 1.2471047405684151e-09 1.804398470746167e-09 3.675857228842023e-09
40 -4.869273413669542e-09 4.869274525757545e-09 1.57877016601682e-09
24 1.6229075178211325e-09 1.1552224153822587e-09 -6.273164558995195e-09
38 -3.776006189967012e-09 7.095415163699653e-09 -3.9177966552667134e-16
252 -4.006213185222626e-09 -1.3520803247807846e-09 -4.3074466417714213e-10
260 -3.0951173517565736e-10 6.0477929705683215e-09 -5.8078638361847795e-09
102 6.562412424404257e-09 6.562416272474222e-09 7.64205722690018e-09
103 1.6593853319915e-09 -1.6593873825284696e-09 4.228780706511217e-15
104 -1.6593802326060477e-09 1.6593936257027204e-09 -1.1373131016941849e-15
108 -9.728898446550024e-09 -3.793096894237792e-09 -1.0644238615961994e-15
123 -3.793100217926901e-09 -9.728902319619191e-09 -2.0698134626171713e-15
125 -4.406006568646296e-10 -4.406003144056792e-10 5.328437491284e-09
152 6.5624093738992e-09 6.562405511371865e-09 -7.642055212958427e-09
163 -4.4059772201853244e-10 -4.4059926534277314e-10 -5.328441713739607e-09
106 6.323601255420025e-09 -3.3805076107128517e-09 2.993493282398251e-09
109 3.432241206570869e-09 -8.854607729747763e-10 9.69790727956947e-09
110 7.088628106203546e-09 -1.8932294209630665e-09 -2.034134203684824e-10
111 -3.903066113324967e-09 -4.513919189812953e-09 -3.896261197965036e-15
112 -1.1214573903595792e-08 -3.74076472911109e-09 4.5170245196259775e-15
127 -9.523334469759681e-10 -7.325537225692003e-09 4.802914656914033e-15
129 -3.821060362963953e-09 3.1366174300324397e-09 2.972434416109337e-09
131 -1.4747357179205684e-09 9.884833186055676e-09 -8.862351299639685e-16
154 6.323607059668148e-09 -3.3805067045153032e-09 -2.993500339998085e-09
155 3.432231604467669e-09 -8.854579586067619e-10 -9.697904366409427e-09
156 7.088621116366376e-09 -1.8932262355225573e-09 2.0341652538987153e-10
165 -3.821060511302593e-09 3.136618320516069e-09 -2.9724379476231394e-09
113 -7.088622981367098e-09 1.8932383556176874e-09 -2.0341246256772408e-10
114 -3.432244374542056e-09 8.854561417972731e-10 9.697909405254643e-09
115 1.1214572216902633e-08 3.740767890455983e-09 2.664975191681713e-15
116 3.9030677587883196e-09 4.513918194663989e-09 -7.711500885242642e-15
133 -3.0455483724276114e-09 2.621180549873983e-09 9.165023645509128e-10
135 5.390224025314996e-09 -2.1499828965724673e-09 -2.6322413907066652e-15
157 -7.088619548005284e-09 1.8932263800962566e-09 2.0341702447032957e-10
158 -3.432235501131245e-09 8.8545386977398e-10 -9.697905073442233e-09
167 -3.0455452361164544e-09 2.621187577991181e-09 -9.16500966115685e-10
121 -3.3863303371191207e-09 1.9291202794677846e-09 -2.7739712011649806e-11
161 -3.386341312371269e-09 1.9291236489385655e-09 2.7736391936882863e-11
117 -6.3235981970603624e-09 3.3805042738035082e-09 2.9934978838052857e-09
118 -1.9291235513513186e-09 3.386336940296943e-09 -2.774526559947438e-11
120 -2.9772026640873907e-10 -1.538837712247469e-09 1.6957290155027175e-16
137 -3.440389587188351e-09 4.397885954913753e-09 -1.0803913424764687e-09
139 6.343864335683978e-09 -6.343867657415319e-09 4.181493059009632e-15
159 -6.323613025502794e-09 3.380510130393711e-09 -2.993490268988062e-09
160 -1.9291301017446806e-09 3.386349553599225e-09 2.774669763208614e-11
169 -3.440385853572565e-09 4.397873191917454e-09 1.0803997091269324e-09
122 -3.3805061307472583e-09 6.323602004770169e-09 2.9934948110117836e-09
128 -7.32553762204472e-09 -9.523300166390482e-10 4.9892986042278e-16
141 -8.854600211915396e-10 3.4322399801039857e-09 9.69790848916942e-09
142 -3.7407602039543e-09 -1.1214576395082544e-08 2.9901907164577448e-15
143 3.1366158883647723e-09 -3.8210604513647464e-09 2.972439679344982e-09
162 -3.38050629527514e-09 6.323607313034498e-09 -2.993495223046827e-09
171 -8.854566044331111e-10 3.4322366163559137e-09 -9.697904963980718e-09
172 3.1366130498258426e-09 -3.821061088242012e-09 -2.972441831384736e-09
351 -1.8932316907701465e-09 7.088623790226826e-09 -2.0342010208295484e-10
352 -4.513921618199309e-09 -3.9030619279163706e-09 -2.6673847533378447e-15
354 9.88483821300368e-09 -1.4747372525101482e-09 -8.94470936405825e-16
401 -1.8932314112609946e-09 7.088620514879548e-09 2.0342363841588043e-10
126 1.8993799092978096e-09 1.8993788893596567e-09 6.684001205979884e-09
130 -1.727616193044864e-09 5.214118347766099e-09 2.166715529147531e-09
132 -3.3923032578132207e-09 -3.0789126784324675e-09 3.2625464824023863e-15
144 -3.078912622699589e-09 -3.3922995484654148e-09 3.349287571454062e-15
145 1.8594740932330265e-09 1.8594763198369594e-09 3.1016367887142412e-09
146 1.3110371697110599e-09 5.324629264023532e-10 3.599885114260831e-15
164 1.899379282002317e-09 1.8993747247388236e-09 -6.684005379684811e-09
166 -1.7276177790831901e-09 5.214118279592446e-09 -2.1667168053245653e-09
173 1.8594780633447008e-09 1.8594796406647144e-09 -3.101641919311047e-09
353 5.21411755712868e-09 -1.7276150789237934e-09 2.1667163637594495e-09
355 1.542213869110165e-09 1.542212873961201e-09 -6.012733913981562e-09
356 5.324592571225372e-10 1.311034891524635e-09 5.130137953646212e-15
402 5.214124320523602e-09 -1.7276172773476093e-09 -2.1667228469862806e-09
403 1.5422128483596085e-09 1.5422061535431444e-09 6.012730875223118e-09
134 -5.031890570260766e-10 5.278192704721999e-09 3.552060886293165e-09
136 1.2243543262942243e-09 1.0591165449733717e-08 3.1661640161571164e-15
147 7.130776113108136e-09 6.404785966899675e-09 -4.0602027717018276e-09
148 -6.302591000535459e-10 6.302593387883968e-10 -1.1373131016941849e-15
168 -5.031993447390668e-10 5.278196888116352e-09 -3.552053676171704e-09
174 7.130775824979761e-09 6.404781226990702e-09 4.060205174411292e-09
357 -6.4047878371713124e-09 -7.13077625371969e-09 -4.0602006166501216e-09
358 5.2783594876237615e-09 -5.278360754620572e-09 -1.3086261114912432e-15
404 -6.404782057611784e-09 -7.130773668269002e-09 4.060204162842484e-09
175 -5.278189255735683e-09 5.031933820386517e-10 -3.5520523775285665e-09
170 -4.397882521890784e-09 3.4403957346954747e-09 1.080394106143094e-09
150 2.1499838495635146e-09 -5.390230460204114e-09 -1.5062925253584651e-15
149 -5.278190074685451e-09 5.031884274115058e-10 3.552057813800858e-09
140 3.3074140089462725e-09 -3.307409538155217e-09 -9.117480111595516e-15
138 -4.397889323480949e-09 3.440395680367389e-09 -1.0803879243373663e-09
124 1.538841786213839e-09 2.9771698548934903e-10 -2.6339520853590165e-16
359 -2.6211815144516335e-09 3.045542861109268e-09 9.165061424423943e-10
360 -1.0591168067116901e-08 -1.2243480198354482e-09 5.869576893046751e-16
405 -2.621189548080793e-09 3.045544054143483e-09 -9.165009920043543e-10
176 3.854871265859848e-09 -3.8548661859014865e-09 3.04707100240083e-09
177 -3.8548669768401e-09 3.854869952648746e-09 3.0470783515638814e-09
179 -5.227417547134304e-09 -4.549721132781803e-10 -4.739013435133046e-10
186 -4.5497295240802703e-10 -5.227415225822844e-09 -4.739016182033334e-10
202 -5.590628784626861e-09 -5.590625991944901e-09 1.501295066818868e-08
203 -3.200283998948157e-09 3.20027661183451e-09 2.360985722033341e-09
204 3.2002759925771645e-09 -3.2002830622310633e-09 2.360974406731804e-09
208 5.699431748313107e-09 -7.007957732502798e-09 9.5401664886655e-09
223 -7.00795613556581e-09 5.6994333946461085e-09 9.540171759280426e-09
225 -4.319980552611026e-09 -4.3199870409581756e-09 -1.853560809526536e-09
2 -4.14908897724576e-09 -4.149089572328256e-09 8.063510178225517e-15
178 5.406587679792948e-10 -9.433430708404393e-10 8.179176722178079e-10
180 2.8715437200938885e-09 -1.522788510581836e-10 -6.987469292991703e-10
181 -2.1275085011729245e-09 -3.3355243317207145e-09 7.93429929600004e-10
188 1.918259897127362e-09 -6.051811832463378e-09 -3.7081669156824687e-09
190 9.662290384420437e-10 -3.0166314069459633e-10 -1.615724707898836e-09
206 5.3942514710917855e-09 2.3275777541063218e-11 -2.3472684468026907e-09
209 2.137488109644288e-09 4.1502057201557237e-10 -4.0958925571054645e-09
212 7.277263348499925e-09 3.629572857477045e-09 -3.8296194828828535e-09
227 1.1233258975896718e-09 -6.008307555545338e-09 1.5627917616093846e-09
229 1.1734653750277751e-11 2.003256838945911e-09 -8.442583177178295e-09
231 -6.295901197842215e-11 -3.3966192156904027e-09 3.3994652543807824e-10
210 -3.8954971380116846e-09 -4.484935234076018e-09 -9.330248164748134e-09
182 2.1275068707267937e-09 3.3355159387039045e-09 7.934242227513347e-10
183 -2.8715456685100935e-09 1.5227671618655627e-10 -6.987532201752122e-10
192 -4.3587957432529315e-09 -3.0592388011104303e-09 -2.0884345658123062e-09
214 -2.1374845819130736e-09 -4.150194706132844e-10 -4.095883783520275e-09
216 1.3520844257817774e-09 4.006209101166216e-09 4.307394390426908e-10
233 -1.804393758252282e-09 -1.2471071832983609e-09 -3.6758522362526257e-09
235 -1.0212624355892317e-08 -2.2714233176525734e-09 3.1374153895063403e-09
221 6.093846606999988e-10 -1.8748671934159075e-09 -2.809958420148694e-09
184 5.227414296635631e-09 4.549722439969001e-10 -4.739041633028327e-10
185 -5.406527861177699e-10 9.433440431739592e-10 8.179100161203691e-10
194 8.662793928047675e-10 -8.662881816809083e-10 2.1873736461878612e-09
217 -5.394249719133389e-09 -2.3274902391916995e-11 -2.3472677327170293e-09
218 1.874869594845293e-09 -6.093863151652709e-10 -2.8099508974972034e-09
220 -1.1552275480497815e-09 -1.6229012116986459e-09 6.27316199100486e-09
237 -1.3167927690103813e-09 2.434359378298309e-10 1.9131982544663624e-09
239 -1.6469345937987509e-09 1.6469292783057376e-09 5.414683948778138e-09
187 -9.433351332173452e-10 5.406576853590071e-10 8.179227084863927e-10
189 -6.051812622030251e-09 1.9182610647305836e-09 -3.7081671036094534e-09
196 -3.3355237148729304e-09 -2.1275054338009362e-09 7.934261483953751e-10
222 2.327031285465128e-11 5.394254837192945e-09 -2.3472741668490416e-09
228 -6.008310344009574e-09 1.123325101416615e-09 1.5628041490458514e-09
241 4.1502608509264164e-10 2.137481283807909e-09 -4.095887848821989e-09
242 3.6295687067058973e-09 7.277253416776221e-09 -3.829612674365199e-09
243 2.003262687102648e-09 1.1740006356776364e-11 -8.442590870607467e-09
426 -1.522675538283588e-10 2.8715507677605375e-09 -6.987520592559362e-10
427 -3.0166821614444213e-10 9.662290322729214e-10 -1.6157147677310768e-09
454 -3.3966144254818303e-09 -6.295726369084302e-11 3.3994681616616355e-10
191 1.0785247520059647e-08 -4.086809270029148e-09 -7.811041245888464e-09
197 -4.08680908406062e-09 1.0785248798934496e-08 -7.811034081358076e-09
198 1.2445620122796996e-09 7.550619344872888e-10 -3.816271638380348e-09
226 -8.645760968832568e-10 -8.645778008557263e-10 1.6154723677980043e-09
230 -2.5596868283544247e-09 1.3732972965786929e-09 -2.942478692226399e-09
232 9.990289278652888e-10 3.255995023468024e-10 -2.8153161161680207e-09
244 3.2560025724082084e-10 9.99028450671592e-10 -2.8153099820029035e-09
245 2.066877612625035e-09 2.06687468411538e-09 -2.0982326363784013e-09
246 -3.5681347120059518e-12 -9.931536871771969e-09 5.875966277541314e-09
428 7.550587626168146e-10 1.244561689835741e-09 -3.816267227376542e-09
453 1.37329139052306e-09 -2.559688383245902e-09 -2.9424857729092193e-09
455 2.1502993457127594e-09 2.1503018216447574e-09 -8.63677121666183e-09
456 -9.931533328048547e-09 -3.569062453348404e-12 5.875968877608939e-09
248 -5.186142843138647e-10 5.186108799185216e-10 1.6437171762978014e-09
193 -4.8949090290882795e-09 -2.0062139629465663e-09 -3.5863001502172595e-10
199 -1.1095623902742989e-08 1.1095615517169552e-08 1.2286018630286667e-10
234 -5.597717737885329e-09 5.8394504163203015e-09 3.7757497623536734e-09
236 -6.04779624291355e-09 3.095171549392748e-10 5.807860436559182e-09
247 -2.16272375563535e-09 -1.0322547316064222e-10 1.3299377392644676e-09
429 3.932701453093088e-09 -3.932703282552776e-09 1.7232493601176074e-09
457 1.0322519045364411e-10 2.162724242746588e-09 1.329943889302925e-09
458 1.5518034157346265e-09 -1.5517966557576383e-09 2.8641964976434053e-09
250 2.271418753039211e-09 1.0212626764399791e-08 3.1374160735206554e-09
249 -5.8394465362451414e-09 5.5977175343742315e-09 3.7757512128633164e-09
240 -4.869273929240438e-09 4.86927180189869e-09 -1.5787779264619265e-09
238 -2.4343863096677446e-10 1.3167928723956362e-09 1.913192294716801e-09
200 3.0592294613670806e-09 4.358792765474809e-09 -2.0884397841833958e-09
195 1.9553065793076134e-09 -1.955301032496681e-09 -8.333722066468926e-10
224 1.6229103418273936e-09 1.1552261179749384e-09 6.273171529857066e-09
452 -4.006213900561242e-09 -1.3520805731162328e-09 4.3074567980738016e-10
430 2.006221534542278e-09 4.894915023719192e-09 -3.586303376017927e-10
459 1.2471038556937136e-09 1.804399973913792e-09 -3.675851200743504e-09
460 -3.09512591577755e-10 6.04779652802699e-09 5.807853299472853e-09
49 -6.34025848901659e-09 -8.815006405335775e-10 1.0418958719639006e-14
251 2.2451572787912484e-09 -2.2876802144971084e-10 -6.800987774431858e-16
261 -2.2451620593615744e-09 2.2876584621792577e-10 -1.2963441709988802e-15
262 6.928157976198129e-09 -1.2864456774689577e-08 9.83101155701753e-16
263 4.0062141419692004e-09 1.352084322243572e-09 -4.3074342445767e-10
265 -6.66950522836084e-09 2.5418509605675476e-09 -5.882342393031629e-16
268 -2.2714198719794048e-09 -1.0212628450942352e-08 -3.1374222602208054e-09
301 -4.484933114866542e-09 -3.895492395994346e-09 9.330253116397336e-09
312 -4.150272886686889e-10 -2.137482606657258e-09 4.095888381335114e-09
313 1.5227114046088396e-10 -2.8715523321684427e-09 6.98751864081442e-10
314 3.335519864393404e-09 2.127507486446272e-09 -7.934344833703389e-10
315 -1.2471079495389674e-09 -1.804399493808632e-09 3.675852108545858e-09
318 -3.0592331132460176e-09 -4.3587934979815534e-09 2.0884347472582994e-09
253 4.8144907808785425e-09 -5.364099367927968e-09 -1.6240410266014656e-15
267 3.095147341110354e-10 -6.047798811681091e-09 -5.8078647436141695e-09
269 2.0787903303487617e-09 -9.228888397106122e-09 7.710597299621593e-17
270 9.22888569689109e-09 -2.0787894267631407e-09 -5.329649188156409e-16
271 -1.5518021054331167e-09 1.5518024135558134e-09 -2.864199419839304e-09
272 5.186148898809102e-10 -5.186078011011155e-10 -1.6437264202799e-09
316 5.839449006474101e-09 -5.597712989208752e-09 -3.775745149938514e-09
317 -2.006215951711458e-09 -4.894918349704487e-09 3.5862903485722353e-10
319 -1.0322127630662765e-10 -2.162729290098203e-09 -1.3299328653236278e-09
320 2.1627235514259234e-09 1.0322015646284796e-10 -1.3299338054291676e-09
321 -3.932705030482686e-09 3.93270394337506e-09 -1.7232526894470676e-09
322 1.1095620310375222e-08 -1.1095617111998173e-08 -1.2286377270831888e-10
273 -3.733002432858965e-09 -3.733007636909752e-09 -1.3276684725285929e-15
274 1.7716104914326162e-09 1.7716128443695734e-09 1.5511553161348126e-16
275 9.931529179246382e-09 3.566531961816655e-12 -5.875969381056727e-09
276 3.5688036140850444e-12 9.931526363673586e-09 -5.875967846165952e-09
323 -2.150292833977427e-09 -2.1502939110538404e-09 8.636770195007686e-09
324 -2.0668858150854504e-09 -2.0668811080067553e-09 2.098239444896056e-09
325 -7.550631442084241e-10 -1.2445595074199794e-09 3.816261329259237e-09
326 -1.2445555374863585e-09 -7.550619224394805e-10 3.816265499118443e-09
264 -3.6295649465849327e-09 -7.277260807315964e-09 3.829619592819104e-09
311 4.484938579677079e-09 3.89549474531696e-09 9.330257598596161e-09
259 6.669506676507395e-09 -2.541844138119615e-09 2.1259863687257426e-15
277 -4.814485054865874e-09 5.364103490398554e-09 8.481415838109383e-16
278 -2.1610450339093305e-09 -2.297914525683333e-09 -2.2984206247426707e-15
279 3.3966159838658316e-09 6.295034433335223e-11 -3.3995272674619553e-10
280 -3.25595461295421e-10 -9.990232114250864e-10 2.815309395764678e-09
327 -1.373291835493093e-09 2.559684540753885e-09 2.9424896799753335e-09
328 -2.003261715679866e-09 -1.1733223588958868e-11 8.442596828321741e-09
329 3.016603295220749e-10 -9.662248509139886e-10 1.6157148256799758e-09
330 4.086819351183325e-09 -1.0785250324789414e-08 7.811034762511037e-09
281 -2.1730008779562357e-09 2.217480688891643e-08 -1.6944983507115485e-15
282 -3.8317856834049424e-09 5.663804240590632e-09 -8.631049852263921e-15
283 -1.6229057582387332e-09 -1.1552214556990303e-09 -6.2731665422150355e-09
288 1.6469410255212016e-09 -1.6469390011882152e-09 -5.414681726861096e-09
331 -2.327021880644789e-11 -5.394257276422329e-09 2.3472760583549417e-09
332 -6.093840315032113e-10 1.874864445612034e-09 2.8099615670362167e-09
333 9.433356295870466e-10 -5.406527445528312e-10 -8.179231906999192e-10
334 4.549787714994266e-10 5.22741669655904e-09 4.73906848156908e-10
335 2.43440646866295e-10 -1.316788537361261e-09 -1.9131933717908613e-09
338 -8.662877338036355e-10 8.662854644483483e-10 -2.187382927405217e-09
55 -1.8748645468136234e-09 6.093842592067878e-10 2.809960452915146e-09
11 -1.3520791445473657e-09 -4.00621144175417e-09 -4.307437125508855e-10
287 4.869269124682737e-09 -4.869267675589064e-09 1.578774952569008e-09
289 -8.814912977206251e-10 -6.3402625008390186e-09 2.167576014713341e-15
291 6.047789068571472e-09 -3.0951299048727585e-10 -5.807868085246999e-09
292 1.0212624804789048e-08 2.271417923547611e-09 -3.137426616407084e-09
336 1.3167851358108375e-09 -2.4344125710719737e-10 -1.9131950732355266e-09
337 -1.955303491402921e-09 1.955300524648619e-09 8.333694513660924e-10
339 5.597717322883042e-09 -5.83945166637133e-09 -3.775744506029046e-09
340 1.8044036412666327e-09 1.2471072561717176e-09 3.6758623829167596e-09
341 4.894908321557404e-09 2.006221179790798e-09 3.5862328092575974e-10
342 4.358803264958539e-09 3.0592354238273988e-09 2.088435699637544e-09
7 1.1552199664675663e-09 1.6228991639238152e-09 -6.273169502474478e-09
63 3.895490153848294e-09 4.484929521299468e-09 9.330256931744089e-09
346 -9.66229693530527e-10 3.01655700151743e-10 1.615708020324871e-09
345 -1.0785258785056878e-08 4.086813555386315e-09 7.811033086563252e-09
344 -1.1737088528208391e-11 -2.003267827601246e-09 8.44259597556503e-09
343 2.5596898017352717e-09 -1.3732901807972184e-09 2.9424946064640216e-09
296 6.295120935806508e-11 3.39662192554368e-09 -3.3995266801313016e-10
295 -9.990216179118412e-10 -3.255967631269922e-10 2.81531656058053e-09
294 -2.297919417846483e-09 -2.161034228832474e-09 -6.197091384363838e-16
293 5.3640981314484076e-09 -4.814485607747326e-09 -2.7300621817198166e-15
15 -7.277256175686668e-09 -3.6295669709179193e-09 3.829610238147767e-09
290 -2.5418446076829422e-09 6.66950159112752e-09 1.193937800613281e-15
350 -1.9182592417089434e-09 6.051814988144498e-09 3.708160486802548e-09
349 6.051810690691284e-09 -1.918267937553415e-09 3.7081590781125647e-09
348 4.31997678255062e-09 4.319978175578452e-09 1.8535637323302662e-09
347 8.645793279230734e-10 8.645823167937077e-10 -1.6154731663412654e-09
300 -1.1233220348026151e-09 6.008300495227499e-09 -1.5627996827727241e-09
299 6.008298075274609e-09 -1.1233247029353561e-09 -1.562798909905823e-09
19 -5.699430565218334e-09 7.007954497666274e-09 -9.540172661887164e-09
298 -3.242343482878224e-09 -3.2423401248528614e-09 5.240796602086551e-16
284 7.007963233230863e-09 -5.699424730615381e-09 -9.54017393458751e-09
51 5.590633284445604e-09 5.590630756758953e-09 -1.5012951691951188e-08
361 1.893232996752564e-09 -7.0886275779071525e-09 -2.034152624783685e-10
362 8.854549996650481e-10 -3.432239188864177e-09 9.697910467796035e-09
363 4.513918582754013e-09 3.903072643237055e-09 -2.6806373424465692e-17
364 3.740767169997048e-09 1.1214573384034059e-08 -1.3493545274337787e-16
365 2.621187549650594e-09 -3.0455485029972915e-09 9.165022901556965e-10
368 -2.1499882104724405e-09 5.3902225928292826e-09 5.679232699378229e-15
406 1.893233256985223e-09 -7.088628479083212e-09 2.0341179873348782e-10
407 8.854607874321462e-10 -3.432232556244523e-09 -9.697914293652854e-09
408 2.6211876647354006e-09 -3.0455422898490258e-09 -9.165062045266358e-10
366 5.278194416626138e-09 -5.031961531851539e-10 3.552053812422533e-09
367 1.0591165329459763e-08 1.2243526010480784e-09 4.481784680405051e-16
369 6.404779980042545e-09 7.130776584582625e-09 -4.060206589953467e-09
370 -7.130776571480633e-09 -6.404778337022691e-09 -4.060204174066712e-09
371 -5.278357493220044e-09 5.278358812975083e-09 3.2384508658410687e-15
372 6.302615066333989e-10 -6.302589511501653e-10 -5.090198998578317e-17
409 5.278191903384723e-09 -5.03199010925278e-10 -3.5520528985962745e-09
410 6.404775174295653e-09 7.130774676209793e-09 4.060202356654832e-09
411 -7.130777384369693e-09 -6.404775657590129e-09 4.0602035222802835e-09
373 -1.54220913688167e-09 -1.5422140496766915e-09 -6.012733287194336e-09
374 -1.8594794120575524e-09 -1.859472609112009e-09 3.101647637464403e-09
375 -5.324587491872074e-10 -1.3110381196495643e-09 -1.995117051277087e-15
376 -1.3110323718927034e-09 -5.324580241491638e-10 -6.3577578495191315e-15
412 -1.542209471641318e-09 -1.5422149942248608e-09 6.012732332706725e-09
413 -1.8594766651772654e-09 -1.8594728930064167e-09 -3.1016345375783226e-09
377 -5.214118841425043e-09 1.7276212043307184e-09 2.166723153753599e-09
378 -3.1366214884872563e-09 3.821063177030772e-09 2.972436410172205e-09
379 -9.884833983921778e-09 1.4747295262506977e-09 -5.341998191644085e-15
380 3.078909528483578e-09 3.3923063789314934e-09 -7.720047299241734e-15
414 -5.214122200353992e-09 1.7276100467048723e-09 -2.166714554178646e-09
415 -3.1366158651727413e-09 3.821070473183467e-09 -2.972434446981846e-09
381 3.3805055468050506e-09 -6.323603652910342e-09 2.9934966230021493e-09
382 3.3863354532209072e-09 -1.9291204731363027e-09 -2.7743929045743242e-11
383 -1.5388372128658156e-09 -2.9772185280389443e-10 5.365114923782598e-15
385 4.397886595254764e-09 -3.4403887323963537e-09 -1.0803943409247577e-09
388 -6.3438657122966716e-09 6.343863333607524e-09 -1.179179235469474e-16
416 3.3805019372816897e-09 -6.323602496320747e-09 -2.9934915340079314e-09
417 3.386337630786955e-09 -1.929123224855714e-09 2.7737979838014254e-11
418 4.3978752612038246e-09 -3.440394134934782e-09 1.0803904883368648e-09
105 1.929122791134616e-09 -3.386331689636198e-09 -2.7740500239506567e-11
153 1.929122159829462e-09 -3.3863391666566145e-09 2.7738319887402975e-11
421 3.045544310611202e-09 -2.6211884589589244e-09 -9.165016642720564e-10
420 5.031986757507909e-10 -5.278193815793468e-09 -3.5520556836348173e-09
419 3.4403956014401265e-09 -4.397878179184167e-09 1.0803932049164431e-09
386 3.4403930649388087e-09 -4.397889282530754e-09 -1.0803886883678353e-09
387 -3.3074113389931244e-09 3.3074197653014166e-09 -3.1859570121244525e-15
389 5.031945129293285e-10 -5.278189981456122e-09 3.5520559583472005e-09
390 3.0455366872099146e-09 -2.621183204608538e-09 9.165035401911045e-10
391 -1.224355150196065e-09 -1.0591164139481916e-08 2.4082439271010505e-16
392 -5.390225384400639e-09 2.1499795500031114e-09 -2.4749327814920954e-15
107 2.9771729205665494e-10 1.5388439651893863e-09 4.472725881590897e-15
423 3.821061962310502e-09 -3.1366144844939127e-09 -2.9724275074442763e-09
422 1.7276163885312096e-09 -5.2141213594922724e-09 -2.1667107464847224e-09
396 1.474732603863323e-09 -9.88483304313855e-09 -5.06007947787667e-16
395 3.3923016204543068e-09 3.07890716264523e-09 -9.493159363800247e-15
394 3.821064152150255e-09 -3.1366256362464523e-09 2.9724439344049705e-09
393 1.7276242219033003e-09 -5.2141258921036445e-09 2.1667215464489077e-09
425 4.406102875813739e-10 4.405997252678543e-10 -5.328442645938773e-09
424 -1.899382130706585e-09 -1.899382728692019e-09 -6.684002096434688e-09
400 9.523350658754986e-10 7.325536732464677e-09 -7.650358258218299e-15
399 7.325535744996191e-09 9.523300533848634e-10 2.1806532987992316e-16
398 4.406056167967011e-10 4.4061314742986455e-10 5.328448406598302e-09
397 -1.899381987864758e-09 -1.899382130631286e-09 6.6840123165904525e-09
384 3.79308966133609e-09 9.728910001000554e-09 -1.5222405762612316e-15
101 -6.562420866755312e-09 -6.562421948497898e-09 7.642059754680954e-09
151 -6.562407636605246e-09 -6.562415289373066e-09 -7.642054653337733e-09
119 9.728904326482856e-09 3.793079264378739e-09 -1.2724895106031759e-14
431 1.522785378151683e-10 -2.8715542474687642e-09 -6.987450305645853e-10
432 3.3355173774245794e-09 2.1275196426848274e-09 7.934379001287673e-10
434 -3.0592344153176038e-09 -4.358799301832005e-09 -2.0884340114825292e-09
451 -4.48493315582909e-09 -3.895490853874886e-09 -9.330260617362773e-09
462 -4.150233302859795e-10 -2.137480987431825e-09 -4.095897393095709e-09
463 4.0062140142624326e-09 1.3520837005766647e-09 4.307482652670372e-10
465 -1.2471117277316442e-09 -1.8043985051353652e-09 -3.6758582077488e-09
468 -2.2714199105323914e-09 -1.0212630581747844e-08 3.1374151599955924e-09
433 -2.006215042474897e-09 -4.894908691260205e-09 -3.5862957166238124e-10
435 -3.932699856338466e-09 3.932703319298591e-09 1.7232636933951188e-09
436 1.109561594083826e-08 -1.1095617410783817e-08 1.228659527980532e-10
466 5.839451381850102e-09 -5.597708217641927e-09 3.7757482267352055e-09
467 3.0951575492747843e-10 -6.047795913249024e-09 5.807866604312271e-09
469 -1.0322001671297808e-10 -2.1627245263948084e-09 1.3299305947635596e-09
470 2.1627295994721904e-09 1.0321367474199296e-10 1.3299315689794568e-09
471 -1.5517937891857883e-09 1.5518021436849078e-09 2.864197783144549e-09
472 5.186107019953947e-10 -5.18610326321731e-10 1.6437243664674328e-09
266 6.34026136952982e-09 8.814927839459979e-10 6.477679427119004e-15
437 -7.550577996336016e-10 -1.2445606401680914e-09 -3.816272874368044e-09
438 -1.2445641249236907e-09 -7.550576816109657e-10 -3.816267365775739e-09
473 -2.150307429653614e-09 -2.1502947784960366e-09 -8.636768486327277e-09
474 -2.06687567703597e-09 -2.06687828362293e-09 -2.098236233847483e-09
475 9.931528233794627e-09 3.5626308814953782e-12 5.875968244647211e-09
476 3.5663501887444053e-12 9.93152799735639e-09 5.8759679021882605e-09
461 4.48493004267543e-09 3.89549116470834e-09 -9.330254480209234e-09
464 -3.629575413419572e-09 -7.277260543770158e-09 -3.829618269367365e-09
439 3.0165982592368877e-10 -9.662317759941882e-10 -1.615716435267162e-09
440 4.086806153712939e-09 -1.0785246504128215e-08 -7.811040638980123e-09
477 -1.3732922546062237e-09 2.559681542355599e-09 -2.9424812015460253e-09
478 -2.003254232553187e-09 -1.1732811104475947e-11 -8.44259000888798e-09
479 3.396616639567797e-09 6.29554817446995e-11 3.3994748354003177e-10
480 -3.2559524066993186e-10 -9.990293927217933e-10 -2.815314081458514e-09
441 9.433355669384433e-10 -5.406587961669307e-10 8.17922643428228e-10
442 4.549722042391328e-10 5.227415552619643e-09 -4.739132234805561e-10
444 -8.662836287388602e-10 8.662874076092263e-10 2.187381206074609e-09
481 -2.3271772973716097e-11 -5.3942636325447825e-09 -2.3472754945175143e-09
482 -6.093763085569083e-10 1.874857303671285e-09 -2.8099506493123528e-09
483 -1.6229037058945926e-09 -1.1552115185914617e-09 6.273165233973654e-09
485 2.4343817638790823e-10 -1.3167876652858354e-09 1.9131993568408202e-09
488 1.6469247079696662e-09 -1.6469386846320526e-09 5.4146783491074465e-09
205 -1.874861038491852e-09 6.093847691302733e-10 -2.8099584514729953e-09
285 3.776004111117693e-09 -7.095407226276478e-09 8.677433914144456e-15
492 1.0212632393487311e-08 2.2714193434571153e-09 3.1374156084752557e-09
491 6.047794201826565e-09 -3.09514546777029e-10 5.8078685933424725e-09
443 -1.955298853535797e-09 1.955300108570971e-09 -8.333654319395857e-10
445 4.894914562810926e-09 2.0062152656205427e-09 -3.5863202764751346e-10
446 4.358796913986993e-09 3.0592431347258937e-09 -2.0884374968693442e-09
486 1.3167892244157654e-09 -2.4344152614040373e-10 1.913192957642746e-09
487 4.869273950870018e-09 -4.869273705593584e-09 -1.5787901589284169e-09
489 5.597707285721489e-09 -5.839450423253999e-09 3.775749618970636e-09
490 1.8043914958287495e-09 1.2471096579181816e-09 -3.6758563837106265e-09
207 1.1552216555985242e-09 1.6229118169238607e-09 6.273165855988818e-09
211 -1.3520849302816903e-09 -4.006210334447641e-09 4.307415642760715e-10
286 7.095412259427222e-09 -3.7760039241773625e-09 1.17159323415588e-14
496 6.295783804260108e-11 3.3966146024716638e-09 3.3995398950710095e-10
495 -9.990306943531866e-10 -3.255964150676934e-10 -2.8153161806020362e-09
494 -1.1737666694762591e-11 -2.003259154556492e-09 -8.442589578835934e-09
493 2.5596867964635263e-09 -1.3732923898758148e-09 -2.942482265695752e-09
448 -9.662246545347135e-10 3.016611535921613e-10 -1.6157238284047135e-09
447 -1.0785247883072817e-08 4.086810725109664e-09 -7.811046372246014e-09
213 3.89549618170749e-09 4.484939912239974e-09 -9.330252723638786e-09
215 -7.277260976592376e-09 -3.629566229224722e-09 -3.829614418887838e-09
500 -1.1233221153673325e-09 6.008307427805409e-09 1.562792243552306e-09
499 6.008306986210107e-09 -1.1233261775870896e-09 1.562797527721018e-09
498 4.319978364729042e-09 4.319990072487934e-09 -1.853557573786427e-09
497 8.645766733497052e-10 8.645761392965569e-10 1.6154763082543044e-09
450 -1.918268021888073e-09 6.051815044166807e-09 -3.7081701019392423e-09
449 6.051820885546652e-09 -1.9182723783755472e-09 -3.7081685844356885e-09
484 7.007964554724834e-09 -5.699428485616028e-09 9.540174597744058e-09
201 5.590620690909258e-09 5.590634983826612e-09 1.501295539635104e-08
219 -5.699425756486257e-09 7.0079558084678154e-09 9.540164080609818e-09
297 -2.638644082146261e-09 -2.638652412375445e-09 9.956152871085874e-15
