LAMMPS data file via write_data, version 29 Aug 2024, timestep = 31, units = metal

500 atoms
3 atom types

0 17.678815452346594 xlo xhi
0 17.678815452346594 ylo yhi
0 17.678815452346594 zlo zhi

Masses

1 54.9054
2 55.845
3 55.845

Atoms # atomic

1 2 0.001798413393563238 0.0017984133935632955 4.39830552577533e-20 0 0 0
2 3 1.7660831318410954 1.7660831318410959 3.903664698790749e-16 0 0 0
3 1 1.7642425755012954 0.003638969733363989 1.7602807085970347 0 0 0
4 1 0.003638969733364021 1.7642425755012956 1.7602807085970356 0 0 0
5 1 3.529665929752846 0.003602645089201858 2.653752550029158e-16 0 0 0
8 1 3.5337216347021236 1.7688435477898903 1.7656453198304283 0 0 0
21 1 0.003602645089203638 3.529665929752846 4.0402510631724213e-16 0 0 0
23 1 1.7688435477898898 3.533721634702124 1.765645319830428 0 0 0
25 1 3.5293291553022907 3.5293291553022903 5.708206483473787e-16 0 0 0
52 1 1.768631192812103 1.7686311928121023 3.5335718220605625 0 0 0
53 1 1.767400947129467 0.0004805981051944151 5.302855096504506 0 0 0
54 1 0.000480598105192219 1.767400947129466 5.302855096504506 0 0 0
58 1 3.5352308602666414 1.767459546435959 5.302884501426732 0 0 0
73 1 1.7674595464359593 3.535230860266641 5.302884501426732 0 0 0
75 1 3.537175524552218 3.5371755245522185 3.537330676406522 0 0 0
6 1 5.300383969962493 1.7675281486232468 1.6576447553891532e-16 0 0 0
9 1 7.0712620955945 0.00048733194321755297 3.559044423516802e-19 0 0 0
12 1 7.070973768500749 1.767856981747298 1.767384129814523 0 0 0
27 1 5.304360048620921 3.5366088446866866 1.7683310698931471 0 0 0
29 1 7.07111593630748 3.5351115017848067 3.5726535830293604e-17 0 0 0
56 1 5.300005620188433 1.7674819156902248 3.5323990581384397 0 0 0
57 1 5.302419725362715 0.0004037460753695031 5.30214261266555 0 0 0
59 1 7.071192499522038 0.00040096605280903947 3.535494908114042 0 0 0
62 1 7.070286966985169 1.7676850400458095 5.302416355244329 0 0 0
77 1 5.303721080644939 3.5352781330139944 5.303459052441749 0 0 0
79 1 7.070962310521335 3.5352141645961144 3.535605901144995 0 0 0
11 1 8.839217951004619 6.185239669600165e-05 1.7677883571018147 0 0 0
31 1 8.83922279624489 3.5356048016028265 1.7678286314118263 0 0 0
60 1 8.83935478111745 1.76788123381309 3.5354123452244233 0 0 0
61 1 8.839265504888903 0.00018217711992265216 5.303324055345614 0 0 0
81 1 8.839271414871561 3.5354187908315855 5.303380952065255 0 0 0
10 1 8.839511792722757 1.7678585385276013 8.671975425319849e-16 0 0 0
13 1 10.607185204858498 2.3006707057994466e-05 6.661290055914641e-16 0 0 0
14 1 12.375434901986754 1.7673942132914433 1.3704070179422594e-16 0 0 0
15 1 12.375723229080506 2.4563487359893875e-05 1.767384129814523 0 0 0
16 1 10.607479046576636 1.7678196928379648 1.767788357101815 0 0 0
33 1 10.607346680291892 3.535480734498116 1.875435562844191e-16 0 0 0
35 1 12.37566086154848 3.5356663828796937 1.7674078009240912 0 0 0
63 1 10.607342216463804 3.1142157040015625e-07 3.5354123452244233 0 0 0
64 1 12.375504498059216 1.7674805791818506 3.535494908114043 0 0 0
65 1 12.376410030596086 0.00019650518885084688 5.302416355244329 0 0 0
66 1 10.607431492692351 1.7676993681147382 5.303324055345614 0 0 0
83 1 10.607582843119488 3.5355954035101553 3.5354836195266923 0 0 0
85 1 12.375275137255594 3.5354701048986463 5.303557145392314 0 0 0
71 1 17.678037908560505 3.532967040614107 3.533074025837665 -1 0 0
17 1 14.146313027618762 0.00035339661141219574 0 0 0 0
18 1 15.91703106782841 1.764278900145457 9.92604783514309e-16 0 0 0
20 1 14.142428021674222 1.7686368603239333 1.7682415235242048 0 0 0
37 1 14.146890016467779 3.531799820647055 4.175103308728527e-16 0 0 0
39 1 15.909347341650845 3.5373496559304076 1.7693081471077232 0 0 0
67 1 14.146691377392822 0.00039962954443410585 3.532399058138439 0 0 0
68 1 15.913729956967147 1.7686590890207474 3.533074025837665 0 0 0
69 1 15.911466137314614 0.0004219987987012523 5.302884501426732 0 0 0
70 1 14.144277272218538 1.767477799159291 5.30214261266555 0 0 0
87 1 14.142866447146995 3.5358714569885796 3.536214942436767 0 0 0
89 1 15.911418578825861 3.535278418755391 5.302968805818213 0 0 0
22 1 1.767528148623247 5.300383969962492 7.053655122567805e-17 0 0 0
28 1 3.536608844686686 5.30436004862092 1.7683310698931471 0 0 0
41 1 0.000487331943216545 7.0712620955945 3.693914029294043e-16 0 0 0
42 1 1.7678569817472987 7.070973768500749 1.7673841298145232 0 0 0
43 1 3.5351115017848067 7.07111593630748 5.308787906895296e-17 0 0 0
72 1 1.7674819156902244 5.300005620188432 3.5323990581384384 0 0 0
74 1 0.0004037460753701459 5.302419725362715 5.302142612665549 0 0 0
78 1 3.535278133013995 5.303721080644939 5.303459052441749 0 0 0
91 1 0.00040096605280900163 7.071192499522036 3.5354949081140425 0 0 0
92 1 1.7676850400458095 7.070286966985169 5.302416355244328 0 0 0
93 1 3.535214164596114 7.070962310521335 3.5356059011449945 0 0 0
252 1 6.185239669421773e-05 8.839217951004619 1.7677883571018147 0 0 0
254 1 3.535604801602827 8.83922279624489 1.7678286314118261 0 0 0
301 1 1.7678812338130903 8.83935478111745 3.5354123452244237 0 0 0
302 1 0.00018217711992224016 8.839265504888903 5.303324055345615 0 0 0
304 1 3.535418790831585 8.83927141487156 5.303380952065254 0 0 0
26 1 5.2992176817007435 5.299217681700743 8.867157024249821e-16 0 0 0
32 1 7.07112059691517 5.30351607457789 1.76732086262722 0 0 0
44 1 5.30351607457789 7.07112059691517 1.7673208626272194 0 0 0
45 1 7.0700717999240945 7.0700717999240945 6.746415780292622e-16 0 0 0
76 1 5.304326180088325 5.304326180088324 3.536279373291764 0 0 0
82 1 7.071637314789747 5.303500902171264 5.303700526592035 0 0 0
94 1 5.303500902171264 7.071637314789747 5.303700526592035 0 0 0
95 1 7.071641936288993 7.071641936288992 3.535550572098053 0 0 0
30 1 8.839362163313478 5.303228959549384 0 0 0 0
46 1 8.839281082804584 7.071309737224851 1.767519907056934 0 0 0
80 1 8.83913104255134 5.3033443279032175 3.5354625009504965 0 0 0
253 1 5.303228959549384 8.839362163313478 3.1542727933828033e-16 0 0 0
256 1 7.071309737224851 8.839281082804584 1.7675199070569334 0 0 0
303 1 5.303344327903217 8.83913104255134 3.5354625009504956 0 0 0
255 1 8.839035601769476 8.839035601769476 4.591067306089105e-16 0 0 0
34 1 12.376371101852733 5.302257430041346 2.1511913666405814e-16 0 0 0
36 1 10.607443796453387 5.303387723135049 1.7676921100781688 0 0 0
47 1 10.607692051239074 7.070944859706233 7.495375959838403e-16 0 0 0
48 1 12.375489125510963 7.071207872070293 1.767506673557423 0 0 0
84 1 12.375416829638342 5.303533348929985 3.535486807359794 0 0 0
86 1 10.6073075334796 5.303407271921039 5.303438211047444 0 0 0
96 1 8.839434973635607 7.071432962934696 5.30350871183982 0 0 0
97 1 10.607302595605603 7.0713777346443685 3.5354573916928524 0 0 0
98 1 12.375254491519273 7.071442506061982 5.303510744724118 0 0 0
257 1 12.37575213787502 8.83900494634218 8.955387628327026e-19 0 0 0
258 1 10.607389078618054 8.8393079189632 1.7675108010807778 0 0 0
307 1 12.375319262936886 8.839394401975651 3.5354573916928542 0 0 0
308 1 10.607329725561218 8.839367272020036 5.303472707722081 0 0 0
100 1 15.911226892682608 7.0714218603256604 5.303557145392314 0 0 0
99 1 14.143163648651269 7.071280167942912 3.5354868073597943 0 0 0
90 1 14.143100264163627 5.303596733417627 5.303773393219108 0 0 0
88 1 15.910825540592676 5.303830550434259 3.536214942436768 0 0 0
24 1 17.678060137257322 5.304268975907034 1.7682415235242055 -1 0 0
38 1 15.914897176934197 5.299806981113473 8.063405227026226e-17 0 0 0
40 1 14.143449271304215 5.303247726277037 1.767034361391828 0 0 0
49 1 14.144439567539909 7.070325895728523 0 0 0 0
50 1 15.91103061470156 7.071036136032776 1.7674078009240908 0 0 0
259 1 15.911216263083139 8.83935031728936 5.068031252210517e-16 0 0 0
260 1 14.143309274446207 8.839253201127867 1.7676921100781695 0 0 0
309 1 15.911101594071098 8.839114154461768 3.535483619526691 0 0 0
310 1 14.143289725660212 8.839389464101652 5.303438211047444 0 0 0
101 1 5.8737142140217236e-05 5.873714214226161e-05 7.071424731613528 0 0 0
102 1 1.7678228080925193 1.7678228080925185 7.0714247316135275 0 0 0
103 1 1.767837718121057 4.3827113602407685e-05 8.839407726173299 0 0 0
104 1 4.3827113603570235e-05 1.7678377181210563 8.839407726173297 0 0 0
105 1 3.5354354303066318 6.966366660453745e-05 7.071251498155543 0 0 0
108 1 3.535598261058097 1.7678755988986437 8.839407726173297 0 0 0
121 1 6.966366660439609e-05 3.5354354303066318 7.071251498155543 0 0 0
123 1 1.7678755988986439 3.535598261058097 8.839407726173297 0 0 0
125 1 3.535518898269168 3.535518898269168 7.071002950183775 0 0 0
151 1 5.8737142139979064e-05 5.8737142139925525e-05 10.607390720733067 0 0 0
152 1 1.767822808092519 1.767822808092519 10.607390720733068 0 0 0
153 1 3.5354354303066313 6.966366660299504e-05 10.607563954191052 0 0 0
161 1 6.966366660444199e-05 3.535435430306632 10.607563954191052 0 0 0
163 1 3.535518898269168 3.5355188982691677 10.607812502162819 0 0 0
106 1 5.3032227324815855 1.7676815701141269 7.071283465007845 0 0 0
107 1 5.3033040357758034 1.2147012669267119e-05 8.839407726173299 0 0 0
109 1 7.070951592832725 0.00018531831022815424 7.070966465107267 0 0 0
112 1 7.071208643591502 1.7676775767802344 8.839407726173297 0 0 0
127 1 5.303355405530433 3.535577984126137 8.839407726173297 0 0 0
129 1 7.071391987854522 3.535410006564525 7.071408350437484 0 0 0
154 1 5.303222732481586 1.767681570114127 10.607531987338747 0 0 0
155 1 7.070951592832725 0.00018531831022800584 10.607848987239327 0 0 0
165 1 7.071391987854523 3.535410006564524 10.60740710190911 0 0 0
110 1 8.839023193554166 1.767683344976483 7.071071564176154 0 0 0
111 1 8.839282113940339 0.00019419386067061548 8.839407726173297 0 0 0
131 1 8.83933301392756 3.5353865550662618 8.839407726173297 0 0 0
156 1 8.839023193554166 1.7676833449764828 10.60774388817044 0 0 0
113 1 10.607673804027089 0.000198200258176452 7.071071564176154 0 0 0
114 1 12.375745404748528 1.767696226924432 7.070966465107267 0 0 0
115 1 12.375488353989752 0.00020396845442547203 8.839407726173295 0 0 0
116 1 10.607414883640915 1.7676873513739881 8.839407726173297 0 0 0
133 1 10.607313136730497 3.535402524616984 7.071443743296604 0 0 0
135 1 12.375452126438226 3.535394528325161 8.839407726173297 0 0 0
157 1 10.607673804027089 0.00019820025817664122 10.60774388817044 0 0 0
158 1 12.375745404748528 1.767696226924433 10.607848987239327 0 0 0
167 1 10.607313136730497 3.5354025246169845 10.607371709049989 0 0 0
117 1 14.143474265099668 0.00019997512053313948 7.071283465007846 0 0 0
118 1 15.911261567274622 1.7678118815680546 7.071251498155542 0 0 0
119 1 15.911098736523158 5.946336016637087e-06 8.839407726173297 0 0 0
120 1 14.143392961805452 1.7678693982219902 8.839407726173297 0 0 0
137 1 14.143405057861248 3.535384730810091 7.071053711061197 0 0 0
139 1 15.911078762937347 3.535618234643908 8.839407726173297 0 0 0
159 1 14.143474265099668 0.00019997512053376138 10.607531987338747 0 0 0
160 1 15.91126156727462 1.767811881568055 10.607563954191052 0 0 0
169 1 14.143405057861248 3.5353847308100907 10.6077617412854 0 0 0
122 1 1.7676815701141273 5.3032227324815855 7.071283465007846 0 0 0
124 1 1.2147012668778992e-05 5.3033040357758034 8.839407726173297 0 0 0
128 1 3.5355779841261374 5.303355405530432 8.839407726173297 0 0 0
141 1 0.00018531831022759902 7.070951592832726 7.070966465107267 0 0 0
142 1 1.7676775767802342 7.071208643591502 8.839407726173297 0 0 0
143 1 3.535410006564525 7.071391987854521 7.0714083504374825 0 0 0
162 1 1.7676815701141273 5.3032227324815855 10.607531987338747 0 0 0
171 1 0.00018531831022672353 7.070951592832725 10.607848987239326 0 0 0
172 1 3.5354100065645246 7.071391987854522 10.60740710190911 0 0 0
351 1 1.7676833449764833 8.839023193554166 7.071071564176155 0 0 0
352 1 0.00019419386067156118 8.839282113940337 8.839407726173297 0 0 0
354 1 3.5353865550662613 8.83933301392756 8.839407726173297 0 0 0
401 1 1.7676833449764828 8.839023193554166 10.607743888170441 0 0 0
126 1 5.3034101296022795 5.3034101296022795 7.071264349828706 0 0 0
132 1 7.071353824210075 5.303384420661318 8.839407726173297 0 0 0
144 1 5.3033844206613185 7.071353824210075 8.839407726173297 0 0 0
145 1 7.071434494530124 7.071434494530124 7.071522083986452 0 0 0
164 1 5.303410129602279 5.30341012960228 10.607551102517888 0 0 0
173 1 7.0714344945301235 7.071434494530124 10.607293368360143 0 0 0
146 1 8.839391972609507 7.071384469002939 8.839407726173297 0 0 0
356 1 7.071384469002938 8.839391972609507 8.839407726173297 0 0 0
355 1 8.839378615258653 8.839378615258653 7.071462589357635 0 0 0
403 1 8.839378615258655 8.839378615258653 10.60735286298896 0 0 0
130 1 8.839435637449437 5.303385432170489 7.071518185551931 0 0 0
134 1 12.375266598066762 5.303394189163798 7.071534051376743 0 0 0
136 1 10.60735193692359 5.303359395296486 8.839407726173297 0 0 0
147 1 10.607346217192955 7.071383100887168 7.071469131480527 0 0 0
148 1 12.375324580869073 7.071372416712182 8.839407726173297 0 0 0
166 1 8.839435637449437 5.303385432170489 10.607297266794664 0 0 0
168 1 12.375266598066762 5.303394189163798 10.607281400969852 0 0 0
174 1 10.607346217192955 7.071383100887168 10.607346320866068 0 0 0
357 1 12.375313896694088 8.8393507803883 7.071469131480526 0 0 0
358 1 10.607343440931082 8.839353556650172 8.839407726173297 0 0 0
404 1 12.375313896694086 8.8393507803883 10.607346320866068 0 0 0
138 1 15.911312266771162 5.3032919397200065 7.071053711061196 0 0 0
140 1 14.143393566927447 5.303303430653805 8.839407726173295 0 0 0
149 1 14.143302808417456 7.071430399514492 7.071534051376742 0 0 0
150 1 15.911302469256094 7.071244871143029 8.839407726173297 0 0 0
170 1 15.911312266771164 5.3032919397200065 10.6077617412854 0 0 0
175 1 14.143302808417456 7.071430399514493 10.607281400969852 0 0 0
359 1 15.91129447296427 8.839383860850758 7.071443743296604 0 0 0
360 1 14.14333760228477 8.839345060657662 8.839407726173297 0 0 0
405 1 15.91129447296427 8.839383860850758 10.607371709049989 0 0 0
176 1 1.767400947129466 0.00048059810519314515 12.37596035584209 0 0 0
177 1 0.00048059810519336454 1.7674009471294658 12.375960355842091 0 0 0
179 1 3.5352308602666414 1.7674595464359597 12.375930950919862 0 0 0
186 1 1.7674595464359595 3.5352308602666414 12.375930950919862 0 0 0
202 1 1.7686311928121021 1.7686311928121023 14.14524363028603 0 0 0
203 1 1.7642425755012952 0.0036389697333648655 15.918534743749557 0 0 0
204 1 0.0036389697333644886 1.7642425755012956 15.918534743749557 0 0 0
208 1 3.533721634702124 1.7688435477898903 15.913170132516164 0 0 0
223 1 1.76884354778989 3.5337216347021245 15.913170132516164 0 0 0
225 1 3.537175524552218 3.537175524552218 14.141484775940071 0 0 0
178 1 5.302419725362715 0.0004037460753696402 12.376672839681044 0 0 0
181 1 7.070286966985169 1.76768504004581 12.376399097102267 0 0 0
188 1 5.303721080644939 3.5352781330139935 12.375356399904847 0 0 0
206 1 5.300005620188432 1.7674819156902255 14.146416394208156 0 0 0
209 1 7.071192499522038 0.0004009660528088756 14.14332054423255 0 0 0
212 1 7.070973768500749 1.7678569817472984 15.91143132253207 0 0 0
227 1 5.30436004862092 3.536608844686686 15.910484382453449 0 0 0
229 1 7.070962310521334 3.535214164596114 14.1432095512016 0 0 0
180 1 8.839265504888903 0.0001821771199225983 12.37549139700098 0 0 0
190 1 8.83927141487156 3.535418790831585 12.37543450028134 0 0 0
210 1 8.83935478111745 1.7678812338130894 14.143403107122172 0 0 0
211 1 8.839217951004617 6.185239669441273e-05 15.911027095244778 0 0 0
231 1 8.83922279624489 3.535604801602827 15.910986820934767 0 0 0
182 1 12.376410030596087 0.00019650518885083165 12.376399097102267 0 0 0
183 1 10.60743149269235 1.7676993681147377 12.37549139700098 0 0 0
192 1 12.375275137255592 3.5354701048986477 12.37525830695428 0 0 0
213 1 10.607342216463804 3.114215702317234e-07 14.143403107122172 0 0 0
214 1 12.375504498059216 1.7674805791818498 14.143320544232552 0 0 0
215 1 12.375723229080506 2.4563487362180965e-05 15.91143132253207 0 0 0
216 1 10.607479046576636 1.7678196928379644 15.911027095244778 0 0 0
233 1 10.607582843119486 3.535595403510155 14.143331832819902 0 0 0
235 1 12.37566086154848 3.5356663828796937 15.911407651422504 0 0 0
221 1 17.678037908560505 3.5329670406141074 14.145741426508927 -1 0 0
184 1 15.911466137314614 0.0004219987987002588 12.375930950919862 0 0 0
185 1 14.144277272218538 1.7674777991592905 12.376672839681044 0 0 0
194 1 15.911418578825861 3.5352784187553916 12.375846646528382 0 0 0
217 1 14.146691377392822 0.00039962954443363086 14.146416394208156 0 0 0
218 1 15.913729956967147 1.7686590890207472 14.145741426508929 0 0 0
220 1 14.142428021674222 1.7686368603239337 15.910573928822389 0 0 0
237 1 14.142866447146995 3.535871456988579 14.142600509909826 0 0 0
239 1 15.909347341650845 3.537349655930408 15.90950730523887 0 0 0
187 1 0.0004037460753694507 5.302419725362715 12.376672839681044 0 0 0
189 1 3.5352781330139944 5.303721080644939 12.375356399904847 0 0 0
196 1 1.76768504004581 7.070286966985169 12.376399097102267 0 0 0
222 1 1.7674819156902246 5.300005620188432 14.146416394208156 0 0 0
228 1 3.536608844686686 5.304360048620919 15.910484382453449 0 0 0
241 1 0.0004009660528089339 7.071192499522038 14.143320544232552 0 0 0
242 1 1.7678569817472976 7.070973768500749 15.91143132253207 0 0 0
243 1 3.535214164596114 7.070962310521335 14.143209551201599 0 0 0
426 1 0.00018217711992205728 8.839265504888903 12.37549139700098 0 0 0
427 1 3.5354187908315846 8.83927141487156 12.375434500281342 0 0 0
451 1 1.7678812338130894 8.83935478111745 14.14340310712217 0 0 0
452 1 6.185239669347453e-05 8.839217951004617 15.911027095244778 0 0 0
454 1 3.5356048016028274 8.839222796244892 15.910986820934767 0 0 0
191 1 7.071637314789747 5.303500902171263 12.37511492575456 0 0 0
197 1 5.303500902171264 7.071637314789746 12.37511492575456 0 0 0
226 1 5.304326180088325 5.304326180088324 14.142536079054828 0 0 0
232 1 7.071120596915171 5.303516074577889 15.911494589719375 0 0 0
244 1 5.30351607457789 7.071120596915171 15.911494589719375 0 0 0
245 1 7.071641936288992 7.071641936288992 14.143264880248541 0 0 0
230 1 8.83913104255134 5.3033443279032175 14.143352951396098 0 0 0
246 1 8.839281082804584 7.071309737224851 15.91129554528966 0 0 0
453 1 5.3033443279032175 8.83913104255134 14.1433529513961 0 0 0
456 1 7.071309737224851 8.839281082804584 15.91129554528966 0 0 0
193 1 10.6073075334796 5.303407271921039 12.37537724129915 0 0 0
198 1 8.839434973635607 7.071432962934697 12.375306740506772 0 0 0
199 1 12.375254491519273 7.071442506061981 12.375304707622474 0 0 0
234 1 12.375416829638342 5.303533348929985 14.143328644986802 0 0 0
236 1 10.607443796453387 5.3033877231350495 15.911123342268425 0 0 0
247 1 10.607302595605603 7.0713777346443685 14.143358060653743 0 0 0
248 1 12.375489125510962 7.071207872070293 15.91130877878917 0 0 0
429 1 10.607329725561216 8.839367272020036 12.375342744624511 0 0 0
457 1 12.375319262936888 8.839394401975651 14.14335806065374 0 0 0
458 1 10.607389078618054 8.839307918963199 15.911304651265818 0 0 0
250 1 15.91103061470156 7.071036136032776 15.911407651422504 0 0 0
249 1 14.143163648651269 7.071280167942913 14.143328644986802 0 0 0
240 1 14.143449271304217 5.303247726277037 15.911781090954767 0 0 0
238 1 15.910825540592676 5.303830550434258 14.142600509909826 0 0 0
224 1 17.678060137257322 5.304268975907033 15.910573928822389 -1 0 0
195 1 14.143100264163627 5.303596733417626 12.375042059127486 0 0 0
200 1 15.911226892682608 7.071421860325661 12.37525830695428 0 0 0
430 1 14.143289725660214 8.839389464101652 12.37537724129915 0 0 0
459 1 15.9111015940711 8.839114154461766 14.143331832819904 0 0 0
460 1 14.143309274446205 8.839253201127867 15.911123342268427 0 0 0
251 1 1.7678585385276027 8.839511792722757 6.234396170818281e-16 0 0 0
261 1 2.3006707057856806e-05 10.607185204858498 0 0 0 0
262 1 1.7673942132914429 12.375434901986754 8.332165575182541e-16 0 0 0
263 1 1.7678196928379653 10.607479046576636 1.767788357101814 0 0 0
264 1 2.4563487360730042e-05 12.375723229080506 1.7673841298145225 0 0 0
265 1 3.5354807344981163 10.607346680291894 2.918305022642389e-16 0 0 0
268 1 3.535666382879693 12.37566086154848 1.7674078009240901 0 0 0
311 1 3.114215691373248e-07 10.607342216463802 3.5354123452244233 0 0 0
312 1 1.7674805791818513 12.375504498059218 3.535494908114042 0 0 0
313 1 1.7676993681147384 10.60743149269235 5.303324055345615 0 0 0
314 1 0.00019650518884928246 12.376410030596086 5.302416355244329 0 0 0
315 1 3.5355954035101553 10.607582843119486 3.5354836195266923 0 0 0
318 1 3.5354701048986468 12.375275137255592 5.303557145392315 0 0 0
266 1 5.302257430041346 12.376371101852731 1.6916484501681986e-16 0 0 0
267 1 5.303387723135049 10.607443796453385 1.7676921100781684 0 0 0
269 1 7.070944859706233 10.607692051239074 2.4350649289533225e-16 0 0 0
272 1 7.071207872070292 12.375489125510963 1.767506673557424 0 0 0
306 1 7.071432962934697 8.839434973635607 5.303508711839821 0 0 0
316 1 5.303533348929986 12.37541682963834 3.535486807359794 0 0 0
317 1 5.3034072719210394 10.6073075334796 5.303438211047444 0 0 0
319 1 7.0713777346443685 10.607302595605603 3.5354573916928524 0 0 0
322 1 7.07144250606198 12.375254491519273 5.303510744724117 0 0 0
270 1 8.83900494634218 12.37575213787502 7.172222358532097e-16 0 0 0
271 1 8.839307918963199 10.607389078618054 1.7675108010807774 0 0 0
320 1 8.839394401975651 12.375319262936886 3.535457391692853 0 0 0
321 1 8.839367272020036 10.607329725561218 5.303472707722081 0 0 0
273 1 10.607661395811778 10.607661395811778 8.74186517191918e-16 0 0 0
274 1 12.376625197657159 12.376625197657159 1.0679568823612686e-15 0 0 0
275 1 12.375387260356401 10.60741591477667 1.7675199070569336 0 0 0
276 1 10.60741591477667 12.375387260356401 1.7675199070569327 0 0 0
305 1 8.839423771643801 8.839423771643801 3.535454011879396 0 0 0
323 1 10.607273225937453 10.607273225937451 3.535454011879396 0 0 0
324 1 12.375055061292263 12.375055061292263 3.5355505720980527 0 0 0
325 1 12.375264034646557 10.607262023945646 5.303508711839821 0 0 0
326 1 10.607262023945648 12.375264034646557 5.303508711839821 0 0 0
277 1 14.14346803803187 10.607334834267776 3.555096937026829e-16 0 0 0
278 1 15.911585495796448 12.375581061273776 7.847139722049163e-16 0 0 0
279 1 15.911092195978428 10.607474201336363 1.7678286314118274 0 0 0
280 1 14.143180923003365 12.375576400666084 1.767320862627219 0 0 0
327 1 14.143352669678036 10.607565955029912 3.535462500950496 0 0 0
328 1 15.91148283298514 12.37573468705992 3.5356059011449945 0 0 0
329 1 15.91127820674967 10.607425582709695 5.303380952065253 0 0 0
330 1 14.14319609540999 12.375059682791507 5.303700526592035 0 0 0
281 1 0.00035339661141232796 14.146313027618763 5.746405260634781e-16 0 0 0
282 1 1.7642789001454575 15.91703106782841 1.8486621572436758e-16 0 0 0
283 1 1.7686368603239326 14.14242802167422 1.768241523524205 0 0 0
285 1 3.5317998206470556 14.14689001646778 4.707812621567219e-16 0 0 0
288 1 3.537349655930409 15.909347341650845 1.7693081471077214 0 0 0
331 1 0.0003996295444355025 14.146691377392822 3.5323990581384384 0 0 0
332 1 1.768659089020747 15.913729956967146 3.533074025837665 0 0 0
333 1 1.7674777991592914 14.144277272218538 5.302142612665549 0 0 0
334 1 0.00042199879869975725 15.911466137314614 5.302884501426731 0 0 0
335 1 3.535871456988579 14.142866447146995 3.5362149424367684 0 0 0
338 1 3.5352784187553916 15.911418578825861 5.302968805818212 0 0 0
55 1 3.532967040614107 17.67803790856051 3.5330740258376654 0 -1 0
341 1 8.839389464101652 14.143289725660214 5.303438211047444 0 0 0
340 1 8.839114154461766 15.911101594071098 3.535483619526692 0 0 0
286 1 5.299806981113473 15.914897176934199 0 0 0 0
287 1 5.303247726277037 14.143449271304215 1.7670343613918282 0 0 0
289 1 7.070325895728522 14.144439567539909 0 0 0 0
292 1 7.071036136032774 15.91103061470156 1.7674078009240914 0 0 0
336 1 5.303830550434259 15.910825540592674 3.536214942436767 0 0 0
337 1 5.303596733417627 14.143100264163627 5.303773393219108 0 0 0
339 1 7.071280167942912 14.143163648651269 3.535486807359794 0 0 0
342 1 7.0714218603256604 15.911226892682608 5.303557145392314 0 0 0
290 1 8.839350317289362 15.911216263083137 1.9095378388787366e-18 0 0 0
291 1 8.83925320112787 14.143309274446207 1.7676921100781688 0 0 0
7 1 5.304268975907034 17.678060137257322 1.768241523524205 0 -1 0
346 1 10.607425582709693 15.91127820674967 5.303380952065255 0 0 0
345 1 12.375059682791505 14.14319609540999 5.303700526592034 0 0 0
344 1 12.37573468705992 15.91148283298514 3.5356059011449945 0 0 0
343 1 10.607565955029914 14.143352669678036 3.535462500950496 0 0 0
296 1 10.607474201336364 15.911092195978426 1.7678286314118263 0 0 0
295 1 12.375576400666084 14.143180923003364 1.7673208626272188 0 0 0
294 1 12.375581061273774 15.911585495796448 2.1450451476369866e-15 0 0 0
293 1 10.607334834267776 14.14346803803187 0 0 0 0
350 1 14.142975916936313 15.91141886456726 5.303459052441748 0 0 0
349 1 15.91141886456726 14.142975916936313 5.303459052441749 0 0 0
348 1 15.909521473029036 15.909521473029036 3.537330676406522 0 0 0
347 1 14.142370817492928 14.14237081749293 3.536279373291764 0 0 0
300 1 14.142336948960333 15.910088152894568 1.7683310698931465 0 0 0
299 1 15.910088152894568 14.142336948960333 1.7683310698931465 0 0 0
298 1 15.917367842278965 15.917367842278965 0 0 0 0
297 1 14.147479315880512 14.147479315880512 6.182889666799342e-16 0 0 0
284 1 17.677853449791364 15.91297536287913 1.7656453198304283 -1 0 0
51 1 17.67806580476915 17.678065804769155 3.533571822060563 -1 -1 0
19 1 15.91297536287913 17.677853449791364 1.7656453198304283 0 -1 0
361 1 0.0001982002581769276 10.607673804027089 7.071071564176154 0 0 0
362 1 1.7676962269244332 12.375745404748528 7.070966465107266 0 0 0
363 1 1.7676873513739886 10.607414883640915 8.839407726173297 0 0 0
364 1 0.00020396845442659413 12.375488353989754 8.839407726173297 0 0 0
365 1 3.5354025246169845 10.607313136730495 7.071443743296604 0 0 0
368 1 3.53539452832516 12.375452126438226 8.839407726173297 0 0 0
406 1 0.00019820025817731692 10.607673804027089 10.607743888170441 0 0 0
407 1 1.7676962269244325 12.375745404748528 10.607848987239327 0 0 0
408 1 3.535402524616984 10.607313136730495 10.60737170904999 0 0 0
353 1 5.303385432170489 8.839435637449437 7.071518185551931 0 0 0
366 1 5.303394189163798 12.375266598066762 7.071534051376742 0 0 0
367 1 5.303359395296485 10.60735193692359 8.839407726173297 0 0 0
369 1 7.071383100887168 10.607346217192955 7.0714691314805265 0 0 0
372 1 7.071372416712182 12.375324580869073 8.839407726173297 0 0 0
402 1 5.303385432170489 8.839435637449437 10.607297266794664 0 0 0
409 1 5.303394189163799 12.37526659806676 10.607281400969852 0 0 0
410 1 7.071383100887168 10.607346217192955 10.60734632086607 0 0 0
370 1 8.8393507803883 12.375313896694086 7.0714691314805265 0 0 0
371 1 8.839353556650172 10.607343440931082 8.839407726173297 0 0 0
411 1 8.839350780388298 12.375313896694086 10.607346320866068 0 0 0
373 1 10.6073183823226 10.607318382322601 7.071462589357635 0 0 0
374 1 12.37526250305113 12.375262503051129 7.071522083986453 0 0 0
375 1 12.375312528578316 10.607305024971748 8.839407726173297 0 0 0
376 1 10.607305024971748 12.375312528578316 8.839407726173297 0 0 0
412 1 10.607318382322601 10.607318382322601 10.60735286298896 0 0 0
413 1 12.375262503051129 12.37526250305113 10.607293368360143 0 0 0
377 1 14.143311565410764 10.607261360131815 7.071518185551931 0 0 0
378 1 15.911286991016729 12.375305009726732 7.071408350437482 0 0 0
379 1 15.91131044251499 10.607363983653695 8.839407726173297 0 0 0
380 1 14.143312576919936 12.375343173371178 8.839407726173297 0 0 0
414 1 14.143311565410764 10.607261360131815 10.607297266794664 0 0 0
415 1 15.911286991016727 12.375305009726732 10.607407101909113 0 0 0
381 1 0.00019997512053279782 14.14347426509967 7.071283465007846 0 0 0
382 1 1.7678118815680564 15.91126156727462 7.071251498155543 0 0 0
383 1 1.7678693982219909 14.14339296180545 8.839407726173297 0 0 0
384 1 5.9463360165455345e-06 15.911098736523158 8.839407726173297 0 0 0
385 1 3.535384730810091 14.143405057861248 7.071053711061196 0 0 0
388 1 3.5356182346439082 15.911078762937347 8.839407726173297 0 0 0
416 1 0.0001999751205336298 14.14347426509967 10.60753198733875 0 0 0
417 1 1.7678118815680564 15.911261567274623 10.607563954191052 0 0 0
418 1 3.5353847308100907 14.143405057861248 10.6077617412854 0 0 0
421 1 8.839383860850758 15.91129447296427 10.607371709049989 0 0 0
386 1 5.303291939720007 15.911312266771162 7.071053711061196 0 0 0
387 1 5.303303430653805 14.143393566927449 8.839407726173297 0 0 0
389 1 7.071430399514492 14.143302808417456 7.071534051376742 0 0 0
392 1 7.071244871143028 15.911302469256093 8.839407726173297 0 0 0
419 1 5.3032919397200065 15.911312266771162 10.6077617412854 0 0 0
420 1 7.071430399514493 14.143302808417456 10.607281400969852 0 0 0
390 1 8.839383860850758 15.91129447296427 7.071443743296604 0 0 0
391 1 8.839345060657664 14.14333760228477 8.839407726173297 0 0 0
423 1 12.37530500972673 15.911286991016727 10.607407101909113 0 0 0
422 1 10.607261360131815 14.143311565410764 10.607297266794664 0 0 0
396 1 10.607363983653693 15.91131044251499 8.839407726173297 0 0 0
395 1 12.375343173371178 14.143312576919934 8.839407726173297 0 0 0
394 1 12.375305009726732 15.91128699101673 7.0714083504374825 0 0 0
393 1 10.607261360131815 14.143311565410762 7.071518185551931 0 0 0
425 1 15.911178099312087 15.911178099312087 10.607812502162819 0 0 0
424 1 14.143286867978976 14.143286867978976 10.607551102517888 0 0 0
400 1 14.14334159205082 15.911119013455115 8.839407726173297 0 0 0
399 1 15.911119013455115 14.14334159205082 8.839407726173297 0 0 0
398 1 15.911178099312085 15.911178099312085 7.071002950183774 0 0 0
397 1 14.143286867978976 14.143286867978976 7.071264349828706 0 0 0
431 1 1.767699368114738 10.60743149269235 12.37549139700098 0 0 0
432 1 0.00019650518885061657 12.376410030596086 12.376399097102267 0 0 0
434 1 3.535470104898647 12.375275137255592 12.375258306954278 0 0 0
461 1 3.114215704552971e-07 10.607342216463804 14.143403107122172 0 0 0
462 1 1.7674805791818509 12.375504498059216 14.143320544232552 0 0 0
463 1 1.7678196928379655 10.607479046576636 15.911027095244778 0 0 0
464 1 2.4563487360717492e-05 12.375723229080505 15.91143132253207 0 0 0
465 1 3.535595403510155 10.607582843119486 14.143331832819902 0 0 0
468 1 3.535666382879694 12.37566086154848 15.911407651422502 0 0 0
428 1 7.071432962934699 8.839434973635607 12.375306740506772 0 0 0
433 1 5.3034072719210394 10.607307533479602 12.37537724129915 0 0 0
436 1 7.07144250606198 12.375254491519273 12.375304707622474 0 0 0
466 1 5.303533348929985 12.375416829638342 14.143328644986804 0 0 0
467 1 5.303387723135049 10.607443796453387 15.911123342268427 0 0 0
469 1 7.071377734644369 10.607302595605603 14.14335806065374 0 0 0
472 1 7.071207872070291 12.375489125510962 15.91130877878917 0 0 0
435 1 8.839367272020034 10.607329725561218 12.375342744624513 0 0 0
470 1 8.839394401975651 12.375319262936886 14.14335806065374 0 0 0
471 1 8.8393079189632 10.607389078618054 15.911304651265818 0 0 0
437 1 12.375264034646555 10.607262023945648 12.375306740506772 0 0 0
438 1 10.60726202394565 12.375264034646557 12.375306740506772 0 0 0
455 1 8.839423771643801 8.839423771643801 14.1433614404672 0 0 0
473 1 10.607273225937453 10.607273225937453 14.1433614404672 0 0 0
474 1 12.375055061292263 12.375055061292263 14.143264880248541 0 0 0
475 1 12.375387260356403 10.60741591477667 15.91129554528966 0 0 0
476 1 10.60741591477667 12.375387260356401 15.91129554528966 0 0 0
439 1 15.91127820674967 10.607425582709695 12.37543450028134 0 0 0
440 1 14.143196095409992 12.375059682791505 12.375114925754557 0 0 0
477 1 14.143352669678036 10.607565955029914 14.143352951396098 0 0 0
478 1 15.91148283298514 12.37573468705992 14.1432095512016 0 0 0
479 1 15.911092195978428 10.607474201336364 15.910986820934767 0 0 0
480 1 14.143180923003365 12.375576400666082 15.911494589719375 0 0 0
441 1 1.767477799159291 14.144277272218538 12.376672839681044 0 0 0
442 1 0.0004219987987001301 15.911466137314614 12.375930950919862 0 0 0
444 1 3.5352784187553907 15.911418578825861 12.37584664652838 0 0 0
481 1 0.00039962954443543264 14.146691377392822 14.146416394208156 0 0 0
482 1 1.768659089020747 15.913729956967147 14.145741426508929 0 0 0
483 1 1.7686368603239329 14.14242802167422 15.910573928822389 0 0 0
485 1 3.535871456988579 14.142866447146995 14.142600509909828 0 0 0
488 1 3.537349655930409 15.909347341650847 15.909507305238872 0 0 0
205 1 3.5329670406141065 17.67803790856051 14.145741426508929 0 -1 0
491 1 8.83925320112787 14.143309274446207 15.911123342268427 0 0 0
490 1 8.839114154461766 15.9111015940711 14.143331832819904 0 0 0
443 1 5.303596733417627 14.143100264163627 12.375042059127486 0 0 0
446 1 7.0714218603256604 15.911226892682606 12.37525830695428 0 0 0
486 1 5.303830550434258 15.910825540592674 14.142600509909828 0 0 0
487 1 5.3032477262770366 14.143449271304215 15.911781090954765 0 0 0
489 1 7.071280167942912 14.143163648651269 14.143328644986802 0 0 0
492 1 7.071036136032776 15.911030614701561 15.911407651422502 0 0 0
445 1 8.839389464101652 14.143289725660214 12.37537724129915 0 0 0
207 1 5.304268975907034 17.678060137257322 15.910573928822389 0 -1 0
496 1 10.607474201336363 15.911092195978426 15.910986820934767 0 0 0
495 1 12.375576400666082 14.143180923003364 15.911494589719373 0 0 0
494 1 12.37573468705992 15.91148283298514 14.1432095512016 0 0 0
493 1 10.607565955029914 14.143352669678036 14.1433529513961 0 0 0
448 1 10.607425582709695 15.91127820674967 12.37543450028134 0 0 0
447 1 12.375059682791505 14.143196095409992 12.375114925754557 0 0 0
500 1 14.142336948960335 15.91008815289457 15.910484382453447 0 0 0
499 1 15.91008815289457 14.142336948960333 15.910484382453449 0 0 0
498 1 15.909521473029036 15.909521473029036 14.141484775940073 0 0 0
497 1 14.14237081749293 14.14237081749293 14.14253607905483 0 0 0
450 1 14.142975916936313 15.911418864567262 12.375356399904849 0 0 0
449 1 15.91141886456726 14.142975916936313 12.375356399904847 0 0 0
484 1 17.677853449791364 15.91297536287913 15.913170132516166 -1 0 0
201 1 17.67806580476915 17.678065804769155 14.14524363028603 -1 -1 0
219 1 15.91297536287913 17.677853449791364 15.913170132516164 0 -1 0

Velocities

1 -5.074794879863988e-09 -5.0747945393886845e-09 4.39830552577533e-17
2 5.074797090555746e-09 5.074795336103891e-09 -1.005953165865361e-15
3 9.136856170579826e-10 -9.136874003907345e-10 -6.809648552737637e-09
4 -9.136866590120588e-10 9.136861322429998e-10 -6.8096516084859285e-09
5 -1.0119071070419359e-08 4.073224023312447e-09 -4.0147962273475493e-16
8 -1.8478221679316807e-09 4.6074740101761e-09 -1.9074029731361244e-10
21 4.073214803024855e-09 -1.0119070806653775e-08 -6.365126129595788e-16
23 4.607474096141884e-09 -1.847824536563387e-09 -1.90737830522394e-10
25 -1.2034711758927032e-10 -1.2034729256927024e-10 -5.96578153046885e-16
52 4.399050704138513e-09 4.399054568330985e-09 -4.135924071684957e-09
53 2.8856265751382453e-09 -2.8856317995411e-09 -3.2233581629256787e-09
54 -2.885623755948281e-09 2.885630564926118e-09 -3.2233582604755044e-09
58 -8.70506753100086e-09 4.1519106197398894e-10 2.3124493229964362e-10
73 4.151890612880316e-10 -8.705067843160303e-09 2.3124411775859867e-10
75 1.1225334318916196e-09 1.1225322655615157e-09 6.386891086438068e-09
6 8.389874318314285e-10 4.244959772709079e-09 9.998857138445492e-17
9 -3.675889214589987e-10 -6.4571387979855744e-09 3.559044423516802e-16
12 -7.251421797425507e-09 -8.494456895095319e-10 1.127672698136042e-09
27 5.175698926474084e-09 -6.619816398346599e-09 -3.258790880983369e-09
29 4.767441371153743e-09 -1.9517890193579343e-09 4.100141113173532e-16
56 8.835155599760785e-09 3.36524840015752e-09 2.8631487957436325e-10
57 6.942554138106268e-10 -3.5230824669353974e-09 3.245603212434025e-09
59 4.801280895395746e-09 2.0553264338928793e-09 9.92163737923775e-10
62 -2.7172916132537714e-09 1.3062225339318276e-09 6.2463362940713705e-09
77 3.956991386449666e-09 1.4484175307348373e-11 7.448850861287906e-09
79 -1.7305445135295579e-09 -3.5372225290227716e-10 2.205232707040118e-09
11 -2.0888697950348736e-09 -2.9817059299284666e-09 -5.047270926031201e-09
31 -1.8145642723319295e-09 1.3242511842467998e-09 -9.596835033985958e-10
60 8.79335777486086e-09 -4.117273472031478e-09 1.8076112024282378e-10
61 -3.5747650858037333e-09 -2.288064378469216e-10 1.1454611361205105e-09
81 -3.2997376082873473e-09 -3.689246573140408e-09 -7.73881241040181e-09
10 5.423954160913626e-09 -3.612025992155168e-09 -2.29760323940438e-15
13 -5.423954732180267e-09 3.612024377705552e-09 -1.7583356089802925e-15
14 3.675896226875319e-10 6.457135089183963e-09 6.658639676548848e-16
15 7.251419802531571e-09 8.494546933584478e-10 1.1276730541166951e-09
16 2.0888712481879013e-09 2.9817009256224063e-09 -5.047271241086654e-09
33 -1.1016214405142957e-08 -1.9800851009201342e-09 -1.0292424271118257e-15
35 8.227927256175913e-09 -3.17116969753867e-09 7.986001909793237e-10
63 -8.793358536111503e-09 4.117273028179771e-09 1.807604160550192e-10
64 -4.801279226074353e-09 -2.05532802883253e-09 9.921604358621736e-10
65 2.71729269552872e-09 -1.306221880691167e-09 6.246335079490138e-09
66 3.574764601919326e-09 2.2880420883340341e-10 1.1454617703467995e-09
83 -6.025916819993571e-09 1.8580790597264046e-09 3.3607444045277074e-09
85 6.324383811456451e-09 5.159126658915196e-10 8.928988449062419e-10
71 1.6667966309602628e-09 -3.648319059739573e-09 -9.275028673695448e-10
17 -8.389852802480845e-10 -4.244957044972076e-09 -5.353046687533623e-16
18 1.0119072319895447e-08 -4.073218946453704e-09 -1.0340281528538752e-15
20 -6.460806345860889e-09 -1.8327494135188112e-09 1.137250952129586e-10
37 -5.7598554725343415e-09 -9.701332453516101e-09 3.6794574896657646e-16
39 7.452686946939668e-09 -7.452683189137475e-09 -9.058119456710036e-09
67 -8.835154159152176e-09 -3.3652448210013338e-09 2.863157123280559e-10
68 3.6483160039912817e-09 -1.6667937471435393e-09 -9.275025007003268e-10
69 8.705063913121698e-09 -4.1519135614768216e-10 2.3124392723159526e-10
70 -6.942539009803742e-10 3.5230808152266767e-09 3.2456034831078497e-09
87 -2.006494437912822e-09 5.2934419415442505e-09 -3.187899990767038e-09
89 2.622704881760313e-09 -2.622705125025191e-09 -1.4599133549960028e-09
22 4.244957491872216e-09 8.38990664388779e-10 9.944698349236754e-17
28 -6.619813555607458e-09 5.175700884239815e-09 -3.2587915458445396e-09
41 -6.457136266567596e-09 -3.675908919654787e-10 4.389742158341923e-16
42 -8.494490013261158e-10 -7.251421916924044e-09 1.127672399694544e-09
43 -1.9517877731589107e-09 4.767439934122872e-09 -1.5729909400725223e-15
72 3.3652488059117153e-09 8.835155112092036e-09 2.8631723513945633e-10
74 -3.523082021796084e-09 6.942546423590499e-10 3.245606841870287e-09
78 1.4483291446109745e-11 3.956990977865995e-09 7.448849573353347e-09
91 2.055326546075179e-09 4.801286435006476e-09 9.921621381066328e-10
92 1.3062210414194938e-09 -2.7172925719856528e-09 6.246337888706178e-09
93 -3.5372085691092326e-10 -1.7305470044033896e-09 2.2052322131941252e-09
252 -2.9816966212363455e-09 -2.088870914419124e-09 -5.047270755166585e-09
254 1.3242495332159993e-09 -1.8145643186680967e-09 -9.596843508583902e-10
301 -4.117276066856843e-09 8.79335682283553e-09 1.8075839079107846e-10
302 -2.2880661099786228e-10 -3.574765619279343e-09 1.1454591919829678e-09
304 -3.6892444868435234e-09 -3.2997346627922803e-09 -7.738810389960583e-09
26 5.762948884745519e-09 5.7629509328817794e-09 -9.392606353656257e-16
32 -2.6758324143514866e-09 1.0802215385207912e-09 5.33271275170356e-10
44 1.0802214495085104e-09 -2.675834196183838e-09 5.332734529699436e-10
45 4.902999346495327e-09 4.9029986666949786e-09 -1.0462218810714915e-15
76 1.6204671220319833e-09 1.6204695661099268e-09 1.843725844690553e-09
82 4.1678918479760437e-10 -9.700767604358407e-09 9.747693001797773e-10
94 -9.700766334381614e-09 4.1678916132467753e-10 9.747678601004746e-10
95 4.2889944625669475e-09 4.288997985981504e-09 -4.660934473292379e-09
30 7.061456637908458e-09 3.241329706962976e-09 -2.1217087098652627e-16
46 -5.2252446694903976e-09 -8.12380496763795e-10 3.500946281771913e-09
80 3.126000034453527e-09 -8.294324108605465e-09 -2.2926196045139463e-09
253 3.2413291143477845e-09 7.06145639203016e-09 -9.108714978559491e-16
256 -8.123808981318504e-10 -5.2252460217647534e-09 3.5009480065747696e-09
303 -8.294320009321726e-09 3.125997991993036e-09 -2.292616894080368e-09
255 4.511562440304992e-09 4.511562028328453e-09 4.389742158341923e-17
34 -4.237410492299274e-09 2.0277299788820008e-09 -6.528395297863348e-16
36 -9.618948732411023e-12 -1.3265642560598362e-09 5.052313997630353e-09
47 -2.9517414402120707e-09 3.982044257893234e-09 6.767519160777131e-16
48 5.726098822021367e-09 -5.726098849182685e-09 -1.1010475249091136e-09
84 4.770077269045174e-09 6.589000825664696e-09 -4.544915857950397e-09
86 -2.5569188105080495e-09 -4.229949881620579e-09 -1.0180611866156343e-08
96 -3.596101206248187e-10 -4.7710540917591876e-09 -4.7630865878045144e-09
97 -7.062894116693246e-10 4.057255601742979e-10 -2.6724975001149546e-09
98 -6.8461107449465165e-09 6.846104345231937e-09 1.6940967710339678e-09
257 -3.982044943177485e-09 2.9517406877243243e-09 8.955387628327027e-16
258 1.4160624944068098e-09 -1.4160631931785121e-09 -1.013580076394493e-08
307 -4.0572459451078064e-10 7.062887543881351e-10 -2.672502392370298e-09
308 8.349825033721084e-09 -8.349828183361082e-09 -8.362587138437126e-10
100 -5.159108147240098e-10 -6.324383812020594e-09 8.928980302580256e-10
99 -6.588998345576325e-09 -4.770078106413019e-09 -4.544917529962984e-09
90 1.3063435944849449e-09 -1.3063449650599966e-09 -3.0097327865595026e-09
88 -5.293444846318945e-09 2.006495443285713e-09 -3.187903264173378e-09
24 1.832744269982166e-09 6.460802844431832e-09 1.137210944507304e-10
38 9.701336849964811e-09 5.7598571699013095e-09 1.499218884355943e-15
40 -9.153273871793315e-11 9.153545647132045e-11 -1.9788549979938322e-09
49 -2.027732904884845e-09 4.2374092576782634e-09 -3.6855543537745727e-16
50 3.171170316370377e-09 -8.227933448760788e-09 7.986023063562853e-10
259 1.980085587521338e-09 1.1016219897970064e-08 -1.0706093375067246e-15
260 1.326559043631008e-09 9.619188241246317e-12 5.052312473414326e-09
309 -1.8580774139397853e-09 6.0259103439171926e-09 3.3607509488170952e-09
310 4.229958333093607e-09 2.5569232380507653e-09 -1.0180613884218363e-08
101 -4.051892920587154e-09 -4.051902018327778e-09 -7.532713063126902e-09
102 4.0518965738281285e-09 4.051898715046804e-09 -7.532710709737356e-09
103 -6.2957634381849984e-09 6.295766835471996e-09 -4.9158690818018065e-15
104 6.295761750573013e-09 -6.295760981148763e-09 1.5900621595771854e-15
105 1.8715962261851634e-09 -1.7508471615370736e-09 -3.900430639924504e-09
108 -1.127456910748995e-08 -3.3645637374765548e-09 7.269285420661635e-16
121 -1.7508451370865939e-09 1.871595514681122e-09 -3.9004323031490334e-09
123 -3.3645641256335507e-09 -1.1274569746223394e-08 4.0818505208471077e-16
125 -1.1209976580391267e-09 -1.1209987928024786e-09 -3.895896537437167e-10
151 -4.051894549669244e-09 -4.051891981670082e-09 7.532714752567947e-09
152 4.051897056699766e-09 4.051897095719696e-09 7.532710528660492e-09
153 1.87159832024126e-09 -1.7508385676333519e-09 3.900432889729961e-09
161 -1.7508458870008794e-09 1.871592919855757e-09 3.9004328652799045e-09
163 -1.1209975117959574e-09 -1.120997329762216e-09 3.8958756995382505e-10
106 1.2975442584738795e-09 -3.9553053458372965e-09 2.4613954028442378e-09
107 -2.3190577610373503e-09 -4.215455727925162e-09 -3.6928705907051425e-15
109 -1.4737320352877456e-10 -4.943340989745332e-09 -3.750459387618967e-09
112 -5.997433786300955e-10 -5.825455384271809e-09 -7.4808522615076935e-16
127 -1.0104521063748626e-08 -6.547956757537354e-09 6.605918770818896e-16
129 4.5424744229794076e-09 2.110362700074215e-09 2.632261227494032e-09
154 1.2975419823192175e-09 -3.955305287307401e-09 -2.4613924184292567e-09
155 -1.473714579203694e-10 -4.943342160343241e-09 3.750459601618897e-09
165 4.542471158189686e-09 2.1103654215821747e-09 -2.632263307817002e-09
110 4.293393843077972e-09 -4.9029419829299856e-09 9.68304884625257e-09
111 -8.895910870214456e-10 8.503193018514461e-10 -5.816408359803048e-16
131 2.8571810146698883e-09 -5.9728247299217e-09 -2.6826172308911914e-16
156 4.293393308834301e-09 -4.902942280456955e-09 -9.683047365133752e-09
113 -4.2933953347329345e-09 4.902943851009149e-09 9.68304814492267e-09
114 1.4737330294576493e-10 4.9433409263379455e-09 -3.750459838901227e-09
115 5.997440460658366e-10 5.825453304021775e-09 6.296841251577136e-15
116 8.89589423283387e-10 -8.503163314592523e-10 -6.041992331828953e-16
133 5.327864279363342e-10 2.3100773605840186e-09 -1.0476809510394097e-09
135 7.547287531034712e-09 -7.728803963094173e-10 1.4569168287275578e-16
157 -4.293392449620627e-09 4.902943294975142e-09 -9.683046354273682e-09
158 1.47372682798975e-10 4.943338477837319e-09 3.750458095083776e-09
167 5.327851543566274e-10 2.310076628586416e-09 1.0476829332023467e-09
117 -1.2975398257488292e-09 3.955305818649108e-09 2.4613924757397793e-09
118 -1.871598497267044e-09 1.7508484284405776e-09 -3.900428439871091e-09
119 1.127456481873782e-08 3.3645612674236565e-09 -1.5583584662113827e-15
120 2.3190567592350537e-09 4.2154559419250924e-09 -8.645353306290065e-16
137 -4.018710506292018e-09 4.259340844235139e-09 -1.4114460155209404e-09
139 -9.76821526892356e-10 9.76819460519535e-10 1.6827344940310706e-16
159 -1.2975432186537058e-09 3.9552992322068114e-09 -2.4613944694143427e-09
160 -1.8715915466895382e-09 1.7508467631202517e-09 3.900432923200113e-09
169 -4.018710779743328e-09 4.259344999736143e-09 1.411443661507493e-09
122 -3.9553067895747175e-09 1.2975446943996633e-09 2.461393024457549e-09
124 -4.215453733031226e-09 -2.3190582385593467e-09 -1.2288702951827052e-15
128 -6.5479569555544505e-09 -1.0104519100502579e-08 4.6561815204133625e-16
141 -4.943339565517876e-09 -1.4737596723727507e-10 -3.750461552005726e-09
142 -5.825453257685608e-09 -5.997450965555224e-10 -1.89002787373055e-17
143 2.110362620664346e-09 4.542475875954966e-09 2.6322654423477326e-09
162 -3.9553059555237074e-09 1.2975450998607746e-09 -2.4613929775116955e-09
171 -4.943338716834392e-09 -1.4737263164292115e-10 3.750463390210255e-09
172 2.110363293908779e-09 4.542474790516972e-09 -2.632263111474385e-09
351 -4.902942348741833e-09 4.293392010112936e-09 9.683046796601173e-09
352 8.50315197442528e-10 -8.895846406831808e-10 5.206721948922225e-16
354 -5.9728236310238654e-09 2.85717848727523e-09 5.706667782828928e-16
401 -4.902942221927059e-09 4.2933920559537326e-09 -9.683049857531799e-09
126 -5.620532455582851e-11 -5.6206269569765376e-11 9.509766538679682e-09
132 -9.406573366810265e-09 -6.888859405706381e-09 1.5321419505435073e-15
144 -6.888862341041606e-09 -9.406573523804517e-09 -2.4387456435232905e-18
145 7.922589243876904e-10 7.922584747439624e-10 -9.714266794185951e-10
164 -5.6203964628919874e-11 -5.620962589345728e-11 -9.509766988628254e-09
173 7.922612232103026e-10 7.922589274361225e-10 9.714256856678509e-10
146 -9.866694026293211e-09 -1.0229391106885796e-08 1.4803186056186374e-15
356 -1.0229388730328167e-08 -9.866691777769727e-09 1.9924551907585285e-15
355 -6.225395490942457e-10 -6.225395283649077e-10 -2.3120352239861656e-09
403 -6.225439034745922e-10 -6.225387891963453e-10 2.312030726253302e-09
130 6.016023260452622e-10 -3.068243304627846e-09 -7.3060638640751265e-09
134 -8.196980244264857e-09 4.679347467141458e-10 6.9980430872279745e-09
136 4.050588429705187e-09 -6.6197469998349314e-09 4.2797597013830175e-16
147 -3.755741814634371e-09 3.556138055102684e-09 -3.1206908093093046e-09
148 2.111228147482169e-09 -2.1112286642578818e-09 6.751160631344562e-16
166 6.016020662713404e-10 -3.0682426133742203e-09 7.3060622844002614e-09
168 -8.196978383615951e-09 4.679346550457993e-10 -6.998047764960981e-09
174 -3.755741992130919e-09 3.5561364223624752e-09 3.120687313977111e-09
357 -3.556143380713483e-09 3.755742479802246e-09 -3.120684444183175e-09
358 5.330703124312261e-09 -5.3307011123471055e-09 -6.218801390984391e-16
404 -3.5561387563800396e-09 3.75574283875512e-09 3.1206874566437314e-09
138 -4.259340985045311e-09 4.018713498335034e-09 -1.4114444827550883e-09
140 8.486137895950418e-09 -8.486132406333975e-09 5.819456791857452e-15
149 -4.679317840555621e-10 8.196979003902807e-09 6.998047161606847e-09
150 7.728754804489604e-10 -7.547290579245279e-09 -1.7315094069015362e-16
170 -4.259347192872347e-09 4.018713230073014e-09 1.4114427664878418e-09
175 -4.67931914528454e-10 8.196974947659115e-09 -6.998048090159251e-09
359 -2.3100761914996087e-09 -5.327868309305011e-10 -1.0476823269485476e-09
360 6.619744284256827e-09 -4.050586851272296e-09 -1.5547003477460977e-17
405 -2.310074443223825e-09 -5.327867153949262e-10 1.0476832311134949e-09
176 2.8856289260890455e-09 -2.8856295254107873e-09 3.2233581519513234e-09
177 -2.8856308819630517e-09 2.8856305195044803e-09 3.2233512125005946e-09
179 -8.705067704482842e-09 4.151878900452614e-10 -2.3124489683356288e-10
186 4.1518864670127224e-10 -8.705067750487969e-09 -2.3124320109507991e-10
202 4.399053272137676e-09 4.399055362142692e-09 4.135924843852796e-09
203 9.136855847446029e-10 -9.13687239433522e-10 6.809652120622514e-09
204 -9.136870638438356e-10 9.136876881627204e-10 6.80965195478781e-09
208 -1.8478242554979515e-09 4.607473691310107e-09 1.907433152613463e-10
223 4.607473379150665e-09 -1.8478265994373581e-09 1.9074029609423962e-10
225 1.122533163629599e-09 1.1225333544614455e-09 -6.386891814841854e-09
178 6.942547888362101e-10 -3.523082836337129e-09 -3.2456025935753763e-09
181 -2.7172912504665413e-09 1.3062206999951036e-09 -6.246336579023557e-09
188 3.9569909206692275e-09 1.4485582551187541e-11 -7.4488532191846814e-09
206 8.835156465872132e-09 3.365244739482867e-09 -2.8631648182795654e-10
209 4.8012784383595105e-09 2.055327131374133e-09 -9.92162684385657e-10
212 -7.251422638792755e-09 -8.494481550813775e-10 -1.1276723725634986e-09
227 5.175700459279306e-09 -6.619813388934962e-09 3.258789339917982e-09
229 -1.7305435672962482e-09 -3.5372204640911086e-10 -2.205231752576042e-09
180 -3.574764666625273e-09 -2.2880735969277484e-10 -1.1454618441188553e-09
190 -3.299733563815577e-09 -3.6892463742814207e-09 7.73881324509994e-09
210 8.79335663169884e-09 -4.117273130607088e-09 -1.8076323524498313e-10
211 -2.0888659418167568e-09 -2.981698223492233e-09 5.047275293062541e-09
231 -1.8145634608393167e-09 1.3242499642642917e-09 9.596863659755028e-10
182 2.717287593977975e-09 -1.3062215441442682e-09 -6.246337532258018e-09
183 3.5747677872194302e-09 2.2880420395591212e-10 -1.1454608164924097e-09
192 6.324385470842386e-09 5.159081797843753e-10 -8.928967027779493e-10
213 -8.793358050158091e-09 4.117273467153987e-09 -1.8076333157543605e-10
214 -4.801280463838985e-09 -2.0553243813125214e-09 -9.92164536554922e-10
215 7.2514199244688534e-09 8.494447042562919e-10 -1.1276699740571583e-09
216 2.088869165341639e-09 2.981702008425472e-09 5.047273979874223e-09
233 -6.025913096891657e-09 1.8580792982840747e-09 -3.3607443574919488e-09
235 8.227926952552079e-09 -3.171168590348148e-09 -7.986039635181854e-10
221 1.6667973705098792e-09 -3.648319978536994e-09 9.275062014003865e-10
184 8.705065556836262e-09 -4.1518808091228294e-10 -2.3124370195246645e-10
185 -6.942542149688759e-10 3.5230822248216587e-09 -3.2456019647374293e-09
194 2.622706480301966e-09 -2.622708468817267e-09 1.4599100489528336e-09
217 -8.835153425547002e-09 -3.3652428114749236e-09 -2.8631601454726175e-10
218 3.6483162503045916e-09 -1.6667937532404035e-09 9.275014653563468e-10
220 -6.4608050868584516e-09 -1.8327490723822956e-09 -1.137240416748406e-10
237 -2.006496555353727e-09 5.293442398699506e-09 3.1879033666006947e-09
239 7.452687708895259e-09 -7.452685495176296e-09 9.058119624983486e-09
187 -3.5230802512667467e-09 6.942568710677249e-10 -3.2456040019509854e-09
189 1.4483245870859738e-11 3.956989905702157e-09 -7.448852406891483e-09
196 1.306218446594129e-09 -2.7172935197431784e-09 -6.246338611260787e-09
222 3.3652474889890678e-09 8.835156714347924e-09 -2.8631784482586723e-10
228 -6.619812741066413e-09 5.175703831768768e-09 3.2587887138511614e-09
241 2.0553266582574785e-09 4.801278817584458e-09 -9.921649329091403e-10
242 -8.494442555270935e-10 -7.251421604764601e-09 -1.1276722344695266e-09
243 -3.537210926309319e-10 -1.7305463255175709e-09 -2.2052257843557657e-09
426 -2.2880664026281e-10 -3.5747659363162766e-09 -1.1454615161075662e-09
427 -3.6892418920949647e-09 -3.29973390541663e-09 7.738809640957032e-09
451 -4.117273828088342e-09 8.793356778633266e-09 -1.8075806144610038e-10
452 -2.9816959835043594e-09 -2.08886510044951e-09 5.047275173564005e-09
454 1.32424839493147e-09 -1.814568435270743e-09 9.59685844524529e-10
191 4.167894832391025e-10 -9.70076670019346e-09 -9.74770828358766e-10
197 -9.700766553299572e-09 4.1679260345213103e-10 -9.747697859608215e-10
226 1.6204667084916338e-09 1.6204688278452886e-09 -1.8437194113813953e-09
232 -2.6758364685934537e-09 1.0802239402077419e-09 -5.332725878250898e-10
244 1.0802206555719188e-09 -2.675837273965461e-09 -5.33273123053592e-10
245 4.288997384671286e-09 4.288996924662889e-09 4.660935297763453e-09
230 3.12599911263536e-09 -8.29432298853707e-09 2.2926177446083917e-09
246 -5.2252465702919966e-09 -8.123810491396833e-10 -3.5009452385984643e-09
453 -8.29432168746627e-09 3.1260004274241048e-09 2.2926133609630972e-09
456 -8.123796565993241e-10 -5.225244886109497e-09 -3.5009447715786734e-09
193 -2.556920805097143e-09 -4.229950184634725e-09 1.018061392964e-08
198 -3.5960965665346004e-10 -4.771057547461764e-09 4.7630901239856975e-09
199 -6.846110748551793e-09 6.84610800740169e-09 -1.6940924007092648e-09
234 4.7700780565395244e-09 6.588999333367395e-09 4.544914975025712e-09
236 -9.619426204972619e-12 -1.3265673532768509e-09 -5.052311471105346e-09
247 -7.062900886681647e-10 4.0572718789471507e-10 2.6724902632813432e-09
248 5.726103829787223e-09 -5.726100848344426e-09 1.101052895636707e-09
429 8.349830821837053e-09 -8.349827623576e-09 8.362669556481735e-10
457 -4.057302585898498e-10 7.062903971750824e-10 2.6724950025522853e-09
458 1.4160629237733295e-09 -1.416057480874107e-09 1.0135798484479861e-08
250 3.171170009088426e-09 -8.22793423647563e-09 -7.986039836036016e-10
249 -6.58899717789534e-09 -4.770080996053394e-09 4.544915439840078e-09
240 -9.153722639097124e-11 9.153616126881142e-11 1.9788531649716376e-09
238 -5.293444286626819e-09 2.006499676033621e-09 3.1879036763213913e-09
224 1.8327433213101107e-09 6.460803710796222e-09 -1.137219236242492e-10
195 1.3063443523251536e-09 -1.3063415730696497e-09 3.009733070350665e-09
200 -5.159097151545677e-10 -6.324386462937108e-09 -8.928978714347155e-10
430 4.2299531128925185e-09 2.5569249476378077e-09 1.0180614520168028e-08
459 -1.8580836298107073e-09 6.0259174911218984e-09 -3.360749072666732e-09
460 1.3265656209280086e-09 9.61973766202168e-12 -5.052315112746798e-09
251 -3.612029762455933e-09 5.423954284070281e-09 -2.290706161881291e-15
261 3.612025060554332e-09 -5.4239551254375286e-09 -8.755096860248613e-16
262 6.45713571053359e-09 3.6759044323628026e-10 -2.563731357753859e-15
263 2.981698867321083e-09 2.0888697304081142e-09 -5.047268702352439e-09
264 8.494484501696004e-10 7.251418512435125e-09 1.1276740205458673e-09
265 -1.980086102656342e-09 -1.1016217123976678e-08 -7.925925448646691e-16
268 -3.171165670853457e-09 8.227927768740811e-09 7.986029626380099e-10
311 4.1172786031523126e-09 -8.793353199774034e-09 1.8076054530853832e-10
312 -2.055329453059986e-09 -4.801287745222572e-09 9.92164212869489e-10
313 2.2880261877124384e-10 3.574768849397948e-09 1.1454585444959996e-09
314 -1.306218097853502e-09 2.7172924180398337e-09 6.2463353798465976e-09
315 1.8580785038114772e-09 -6.025912445717601e-09 3.3607438827060987e-09
318 5.159122916750506e-10 6.324385279477064e-09 8.928955613332768e-10
266 2.027729140680944e-09 -4.237406755525233e-09 5.08440361273926e-16
267 -1.3265640733390814e-09 -9.61548632328363e-12 5.052314663407913e-09
269 3.982044840753443e-09 -2.951741179266287e-09 -2.3777770024352083e-16
272 -5.726098057200037e-09 5.726099272305054e-09 -1.1010508696487636e-09
306 -4.771055918379674e-09 -3.5961087236816336e-10 -4.763089489911831e-09
316 6.588995819514017e-09 4.770079842139547e-09 -4.544916958264085e-09
317 -4.229952646548453e-09 -2.5569222116436927e-09 -1.0180612585891152e-08
319 4.057255161345764e-10 -7.062917006790351e-10 -2.672496791803431e-09
322 6.8461106222573965e-09 -6.846109907794233e-09 1.6940977122972763e-09
270 2.9517389460406335e-09 -3.982043840867729e-09 -1.1877597031470683e-15
271 -1.4160591736493742e-09 1.416062676850333e-09 -1.0135799247045139e-08
320 7.0629124496598e-10 -4.057251064253083e-10 -2.6724986285980603e-09
321 -8.3498278236461e-09 8.349826988375717e-09 -8.362609818771611e-10
273 -4.511562996510473e-09 -4.511564195153957e-09 -1.5486034836372895e-15
274 -4.902996890364987e-09 -4.902997649924926e-09 -2.8748056148761767e-15
275 8.123833773010724e-10 5.225243273009125e-09 3.5009481497437885e-09
276 5.225244022717328e-09 8.123820331735505e-10 3.50095019108118e-09
305 2.1748078108967496e-09 2.1748079674908937e-09 -5.103171452955648e-09
323 -2.174809101507618e-09 -2.1748037606546586e-09 -5.103171946801641e-09
324 -4.288997254503237e-09 -4.288999521926999e-09 -4.660934031292356e-09
325 4.771055713294026e-09 3.5961617376454316e-10 -4.763088369950343e-09
326 3.596115101001491e-10 4.771054725833055e-09 -4.763089341148346e-09
277 -3.241327644393848e-09 -7.061456231072946e-09 1.034637839264756e-15
278 1.951788602332429e-09 -4.767445884662243e-09 1.51202229898444e-16
279 -1.324249829523595e-09 1.8145690132534606e-09 -9.596892918007513e-10
280 -1.0802227313862461e-09 2.6758295462380584e-09 5.332743825208085e-10
327 8.294321078808704e-09 -3.1259948186139677e-09 -2.292617508050064e-09
328 3.5372059318344516e-10 1.7305454808732594e-09 2.205231506567575e-09
329 3.689243502839426e-09 3.299731584722783e-09 -7.738810179558339e-09
330 9.700764863208303e-09 -4.167924188791709e-10 9.74767543444595e-10
281 -4.24495608288692e-09 -8.389892261385357e-10 -4.765857347976171e-16
282 -4.073220344769487e-09 1.0119070737149524e-08 -2.292420904911893e-16
283 -1.8327463307222349e-09 -6.460800979401101e-09 1.137227415185694e-10
285 -9.701332057524777e-09 -5.7598602329658375e-09 -1.4674093777998727e-15
288 -7.452687324640399e-09 7.452686498210469e-09 -9.05811267821652e-09
331 -3.3652488790740847e-09 -8.835154641414126e-09 2.863170644272613e-10
332 -1.6667932685397068e-09 3.6483248237149017e-09 -9.275032236919558e-10
333 3.523079626947862e-09 -6.94254839897447e-10 3.2456066147620994e-09
334 -4.15187334656116e-10 8.705067730368317e-09 2.3124594194034e-10
335 5.293444921196057e-09 -2.006496312393692e-09 -3.187903526338534e-09
338 -2.6227063725960093e-09 2.6227076223007298e-09 -1.4599122913980592e-09
55 -3.6483181122868907e-09 1.6667872515445178e-09 -9.275049728822686e-10
341 2.5569231485653674e-09 4.229951234142602e-09 -1.0180613537183548e-08
340 6.025916250132706e-09 -1.858077450626504e-09 3.360745352420686e-09
286 5.7598600328457994e-09 9.701331444280922e-09 -1.1157264296103482e-15
287 9.153414264280171e-11 -9.153492846472902e-11 -1.9788554929666464e-09
289 4.237409672769612e-09 -2.02773197979646e-09 -1.2208970377888473e-15
292 -8.227927191244309e-09 3.171171114449889e-09 7.985992219527327e-10
336 2.0064942379315112e-09 -5.293439462347491e-09 -3.187900637205884e-09
337 -1.3063451592050779e-09 1.3063434468687904e-09 -3.0097337125665105e-09
339 -4.770077334838642e-09 -6.588999197274676e-09 -4.544916888366947e-09
342 -6.32438536184345e-09 -5.159098428838707e-10 8.928978863720326e-10
290 1.1016213441390972e-08 1.9800914380721366e-09 1.9095378388787366e-15
291 9.614731696403988e-12 1.326560065242159e-09 5.052314307588538e-09
7 6.460800825226055e-09 1.8327445031408517e-09 1.1372444300471622e-10
346 3.2997353184423633e-09 3.6892447722065336e-09 -7.738813574292275e-09
345 -4.1678939834830765e-10 9.700767264930309e-09 9.74771844350561e-10
344 1.7305442593575134e-09 3.5371954754006656e-10 2.2052333870056887e-09
343 -3.1259994171920304e-09 8.294322136400582e-09 -2.2926180020201228e-09
296 1.814563593068034e-09 -1.3242462020037663e-09 -9.596837546287678e-10
295 2.675830636778604e-09 -1.080220775589195e-09 5.332744363145092e-10
294 -4.7674416016152066e-09 1.951785794116821e-09 -1.0519529333337713e-14
293 -7.061454081219753e-09 -3.241331535186271e-09 -5.526509616191844e-16
350 -3.956989947648383e-09 -1.4484083809811487e-11 7.448851579526482e-09
349 -1.4483998148870759e-11 -3.956988643681571e-09 7.4488484097668316e-09
348 -1.1225337946550341e-09 -1.1225336762996598e-09 6.386890145949147e-09
347 -1.620464872451968e-09 -1.6204692706535254e-09 1.843725145669342e-09
300 -5.175695917124625e-09 6.619814942034356e-09 -3.2587903012184054e-09
299 6.619814955447457e-09 -5.175696145147343e-09 -3.258789430423221e-09
298 1.2034313999512573e-10 1.20344656894916e-10 -3.2679191623212094e-16
297 -5.762949632593778e-09 -5.7629473082786525e-09 -4.4921694753699015e-15
284 -4.607474455170969e-09 1.8478227123816455e-09 -1.9073900904622626e-10
51 -4.39904798337599e-09 -4.399057193159292e-09 -4.135924433898224e-09
19 1.847821162253946e-09 -4.6074750106715005e-09 -1.907404581184033e-10
361 4.902942363374306e-09 -4.293393713576768e-09 9.683049986175632e-09
362 4.943337585256414e-09 1.4737306360574325e-10 -3.750459815009141e-09
363 -8.503176630143736e-10 8.895892596674297e-10 6.426094770683871e-16
364 5.825448977687003e-09 5.997410476280678e-10 1.3986206265606072e-15
365 2.310077324943561e-09 5.327885176097228e-10 -1.0476810485884167e-09
368 -7.728771194229741e-10 7.54728609207498e-09 1.220293751894487e-15
406 4.9029415488332614e-09 -4.293392866112656e-09 -9.683051424425875e-09
407 4.943339536252928e-09 1.473725225090536e-10 3.750459323601894e-09
408 2.3100770767607046e-09 5.327878140272135e-10 1.047679275125194e-09
353 -3.0682438874880546e-09 6.016014179160275e-10 -7.3060644707131055e-09
366 4.67933717371171e-10 -8.196979546523714e-09 6.9980474823018995e-09
367 -6.619745376814875e-09 4.0505887830636885e-09 7.836375649852574e-16
369 3.5561380191311857e-09 -3.755742080152803e-09 -3.1206881541249852e-09
372 -2.1112296192024994e-09 2.11122853700912e-09 -1.001607303939336e-15
402 -3.0682438387131418e-09 6.016023934142849e-10 7.306064781043489e-09
409 4.679314194630884e-10 -8.196974393454168e-09 -6.998048937318519e-09
410 3.5561382654444955e-09 -3.75574529807768e-09 3.1206832741949525e-09
370 3.7557404132701565e-09 -3.556138180088398e-09 -3.120688284293034e-09
371 -5.330702956038812e-09 5.3307012903755375e-09 1.6732843546624177e-15
411 3.755746819550119e-09 -3.556139238504007e-09 3.120688204119271e-09
373 6.225432633038607e-10 6.2253821997787e-10 -2.312035243496131e-09
374 -7.9226067327316e-10 -7.922587137410354e-10 -9.714302473796826e-10
375 1.0229391166597852e-08 9.866691011724727e-09 8.104549105353398e-16
376 9.866691142314819e-09 1.0229390013108376e-08 1.890209990752941e-15
412 6.225374615279748e-10 6.225403563190537e-10 2.3120325242947383e-09
413 -7.92255767357796e-10 -7.922604013530207e-10 9.714253650109043e-10
377 3.0682440819780198e-09 -6.015999129051222e-10 -7.30606557150192e-09
378 -2.110362379912638e-09 -4.5424749062911555e-09 2.6322685483967904e-09
379 5.9728286493789105e-09 -2.8571788413261277e-09 5.609114980103568e-17
380 6.888861548754116e-09 9.406573999969604e-09 1.1078383139711348e-15
414 3.068240491534746e-09 -6.016005726239242e-10 7.306062414850528e-09
415 -2.1103560680578587e-09 -4.542472886704919e-09 -2.6322688014166507e-09
381 3.955307106611651e-09 -1.2975443935194196e-09 2.4613925403665387e-09
382 1.7508436896910545e-09 -1.871592906442656e-09 -3.9004324924566645e-09
383 4.215454971914013e-09 2.3190628603669675e-09 1.66635252084613e-15
384 3.3645616088480465e-09 1.127456411394033e-08 -1.2071790935440288e-15
385 4.2593432070319555e-09 -4.018710977188512e-09 -1.411444673829857e-09
388 9.768208495950564e-10 -9.768241067685702e-10 -1.2610102656164503e-15
416 3.9553018828184826e-09 -1.2975438350466671e-09 -2.461396124103262e-09
417 1.7508427190702883e-09 -1.871603286582434e-09 3.900431856858581e-09
418 4.2593432137301705e-09 -4.018711377702735e-09 1.4114432565295462e-09
421 -5.32787839961511e-10 -2.31007556016933e-09 1.0476851516256893e-09
386 4.018710383142318e-09 -4.259340884751897e-09 -1.4114438877011513e-09
387 -8.486134048247834e-09 8.486131093114695e-09 1.157794494262682e-15
389 8.196980537578054e-09 -4.679337270271688e-10 6.998047481364595e-09
392 -7.547287625526579e-09 7.728802920941151e-10 2.536295469264222e-16
419 4.018713599434021e-09 -4.259343122301025e-09 1.4114447857692347e-09
420 8.19697653052769e-09 -4.679331313321382e-10 -6.998048372090914e-09
390 -5.327881868730789e-10 -2.3100763719667862e-09 -1.04768214648137e-09
391 -4.050590986913427e-09 6.619743716473853e-09 -3.864567125652934e-16
423 -4.54246997399031e-09 -2.1103575072988425e-09 -2.6322697043622254e-09
422 -6.01602101873011e-10 3.0682411717101945e-09 7.3060622568027964e-09
396 -2.8571750880965822e-09 5.972824783967066e-09 -1.4205693373523168e-15
395 9.406573947206722e-09 6.888865444754922e-09 -2.022977765552471e-16
394 -4.542475935441817e-09 -2.1103696324373388e-09 2.6322646939593006e-09
393 -6.015985971824262e-10 3.0682461153488847e-09 -7.306065221466603e-09
425 1.1209933073168986e-09 1.1209951949060267e-09 3.89587124154798e-10
424 5.620570903932137e-11 5.620756126663763e-11 -9.509767042890344e-09
400 1.010451907173497e-08 6.547959995242506e-09 2.955759719950228e-15
399 6.547960726866199e-09 1.010451980031023e-08 2.0948825077865066e-15
398 1.120998795104283e-09 1.121000228781878e-09 -3.895870848300245e-10
397 5.620373449366893e-11 5.620592753568887e-11 9.50976621219261e-09
431 2.2880412103856026e-10 3.574768095825544e-09 -1.1454595879742917e-09
432 -1.3062215401429779e-09 2.717292559487081e-09 -6.2463365437379565e-09
434 5.159107521787577e-10 6.324386653720951e-09 -8.92892802507775e-10
461 4.117274608486948e-09 -8.793358473561488e-09 -1.8076389858379817e-10
462 -2.0553266485024957e-09 -4.801281850774352e-09 -9.921659017008472e-10
463 2.9816992087454732e-09 2.0888687189383585e-09 5.0472737097069314e-09
464 8.494493768929448e-10 7.251423099715681e-09 -1.127671110512628e-09
465 1.8580807435135603e-09 -6.025912501885259e-09 -3.36074563457126e-09
468 -3.171170482918962e-09 8.227926609395978e-09 -7.985986226559974e-10
428 -4.771061359221205e-09 -3.596109747954804e-10 4.763090177028415e-09
433 -4.229952119779393e-09 -2.556925889272123e-09 1.0180616178163484e-08
436 6.8461090078970906e-09 -6.846107563549983e-09 -1.6940910087951887e-09
466 6.588998576515967e-09 4.770076457160594e-09 4.544909116782311e-09
467 -1.3265640028202742e-09 -9.619427336243564e-12 -5.0523153169917456e-09
469 4.0572375292147617e-10 -7.062903044971542e-10 2.6724967893646856e-09
472 -5.726094280497565e-09 5.726103052360802e-09 1.1010526987079963e-09
435 -8.349821429255022e-09 8.349829053993277e-09 8.362612537973002e-10
470 7.062901645741229e-10 -4.057241024242112e-10 2.672496568658205e-09
471 -1.416062598200786e-09 1.4160620720414134e-09 1.0135798321541169e-08
437 4.771060692975364e-09 3.5960864818949116e-10 4.763089229621931e-09
438 3.596041066780618e-10 4.771057345045876e-09 4.763090643209887e-09
455 2.1748091722312416e-09 2.1748082357529146e-09 5.10317191143983e-09
473 -2.174808779593193e-09 -2.1748104330627395e-09 5.103170937770631e-09
474 -4.2889952262819605e-09 -4.2889963590945556e-09 4.6609329550685745e-09
475 8.123779908040948e-10 5.2252445949857245e-09 -3.500945636616376e-09
476 5.225245096070254e-09 8.123808967180806e-10 -3.5009449602766178e-09
439 3.6892462147245816e-09 3.29973009708794e-09 7.738815144844468e-09
440 9.70076014484517e-09 -4.167877255131799e-10 -9.747648393387463e-10
477 8.294323891482646e-09 -3.126000752386962e-09 2.2926166986913536e-09
478 3.5372076511501304e-10 1.7305456451075365e-09 -2.2052324656042992e-09
479 -1.3242507977056153e-09 1.8145633334148567e-09 9.596884607981732e-10
480 -1.0802236764001828e-09 2.6758362229139437e-09 -5.33272026692517e-10
441 3.5230818803488364e-09 -6.942540271854613e-10 -3.2456031414548274e-09
442 -4.1518794922001817e-10 8.705067003012429e-09 -2.3124215944584692e-10
444 -2.6227052338994655e-09 2.6227064080199656e-09 1.4599183612225905e-09
481 -3.3652466086018908e-09 -8.835154573129249e-09 -2.8631637182349853e-10
482 -1.6667932947562225e-09 3.6483201705882137e-09 9.275025164557192e-10
483 -1.8327471623344992e-09 -6.460801293999289e-09 -1.1372227724236751e-10
485 5.293441817968436e-09 -2.006495192399755e-09 3.1878977529130665e-09
488 -7.452688148936427e-09 7.452683315647404e-09 9.058114625250073e-09
205 -3.648316795364243e-09 1.6667892942988375e-09 9.275011931313644e-10
491 9.613544464031767e-12 1.3265584257242501e-09 -5.052316035351345e-09
490 6.025916777826903e-09 -1.8580829762268747e-09 -3.36075117608485e-09
443 -1.3063457650719434e-09 1.3063421362897991e-09 3.0097338376720894e-09
446 -6.324385158075079e-09 -5.159066283607943e-10 -8.928979051170615e-10
486 2.0064958220224355e-09 -5.2934388860944015e-09 3.1878989825260447e-09
487 9.15375303669811e-11 -9.153190759419184e-11 1.978860226698842e-09
489 -4.770076845816405e-09 -6.5889992481352645e-09 4.5449165108492994e-09
492 -8.227933698536926e-09 3.171165910014264e-09 -7.985996877531506e-10
445 2.556925240788237e-09 4.229951662142462e-09 1.018061573205485e-08
207 6.460803552274778e-09 1.8327471303177016e-09 -1.1372513499894142e-10
496 1.814571091449375e-09 -1.3242449733713321e-09 9.596888924561522e-10
495 2.675837003308382e-09 -1.08021946141356e-09 -5.332667319520733e-10
494 1.7305443231889137e-09 3.537209880076762e-10 -2.205231313731399e-09
493 -3.1260014438191326e-09 8.294322832602626e-09 2.2926128145268885e-09
448 3.2997298154128184e-09 3.689247182906602e-09 7.738815758798684e-09
447 -4.167862320386847e-10 9.700762252704502e-09 -9.747639829750827e-10
500 -5.175703074843089e-09 6.619810521807877e-09 3.258796298959799e-09
499 6.6198115460810476e-09 -5.175697916896053e-09 3.2587905874175016e-09
498 -1.1225315028438156e-09 -1.1225338025809576e-09 -6.3868951414147545e-09
497 -1.6204688981351283e-09 -1.6204701748184727e-09 -1.8437256087261711e-09
450 -3.956987764513767e-09 -1.4486216797719953e-11 -7.448855582781637e-09
449 -1.4482839744690084e-11 -3.956987702325753e-09 -7.448851246028015e-09
484 -4.607473427925578e-09 1.8478233025580914e-09 1.907380475707563e-10
201 -4.3990493469765624e-09 -4.399058198403875e-09 4.135926364410705e-09
219 1.8478226846409139e-09 -4.607472718250596e-09 1.907431573525659e-10
