LAMMPS data file via write_data, version 29 Aug 2024, timestep = 32, units = metal

500 atoms
3 atom types

0 17.694211150383026 xlo xhi
0 17.694211150383026 ylo yhi
0 17.694211150383026 zlo zhi

Masses

1 54.8185
2 55.845
3 55.845

Atoms # atomic

1 2 0.0017267651251749166 0.0017267651251746663 3.744179337700055e-19 0 0 0
2 3 1.767694349913127 1.7676943499131275 7.238097338839811e-19 0 0 0
3 1 1.7654150663226345 0.004006048715666369 1.7610187989788353 0 0 0
4 1 0.004006048715668289 1.7654150663226356 1.761018798978836 0 0 0
5 1 3.5318814265006115 0.003968387626607069 5.687210761290556e-16 0 0 0
8 1 3.5366589367265853 1.7705316128637016 1.7670409133221658 0 0 0
21 1 0.003968387626606683 3.531881426500612 4.3747165288819947e-16 0 0 0
23 1 1.7705316128637012 3.536658936726585 1.7670409133221658 0 0 0
25 1 3.531803221772778 3.5318032217727784 5.442434225461667e-16 0 0 0
52 1 1.770268136064497 1.770268136064498 3.536102426324808 0 0 0
53 1 1.768844474030482 0.0005766410078200316 5.307260947809096 0 0 0
54 1 0.0005766410078192834 1.768844474030482 5.307260947809096 0 0 0
58 1 3.5382013610228573 1.7689444858860843 5.3073397432259695 0 0 0
73 1 1.768944485886084 3.538201361022857 5.3073397432259695 0 0 0
75 1 3.5404711553446164 3.5404711553446164 3.5406099769260253 0 0 0
6 1 5.304318962520998 1.7689997683109826 1.5632714363906043e-19 0 0 0
9 1 7.077330328078903 0.0005848098967415954 8.737249432418465e-17 0 0 0
12 1 7.076995807047194 1.769386684619999 1.768819252422469 0 0 0
27 1 5.309049369463365 3.5398083184097846 1.769940941802421 0 0 0
29 1 7.077149131700143 3.538062372558877 4.0486287590897295e-19 0 0 0
56 1 5.30420849002884 1.7689734842112292 3.5350967933765287 0 0 0
57 1 5.306858973455935 0.0004547689760547547 5.306544894759056 0 0 0
59 1 7.077289613428312 0.0004515086622747401 3.53851907083805 0 0 0
62 1 7.076283036017743 1.769195189564266 5.306869428645839 0 0 0
77 1 5.308359205608769 3.538297146958685 5.308065148487966 0 0 0
79 1 7.077040348817187 3.5382178669597435 3.538659405076533 0 0 0
11 1 8.846879530432746 8.033185183469133e-05 1.7693031026874182 0 0 0
31 1 8.846883986155675 3.538644032840741 1.7693485155753241 0 0 0
60 1 8.84702670177663 1.7694173964913398 3.5384174026001913 0 0 0
61 1 8.846949316998204 0.00020810020307443286 5.307884307963397 0 0 0
81 1 8.846955929144364 3.5384447575749904 5.307960486516208 0 0 0
10 1 8.847219455697307 1.7693942419514168 8.46434205626481e-16 0 0 0
13 1 10.616412809724022 2.687308688492733e-05 5.865365752519074e-17 0 0 0
14 1 12.386301937342427 1.768836305141561 1.0245090461735322e-18 0 0 0
15 1 12.386636458374134 3.443041830201095e-05 1.76881925242247 0 0 0
16 1 10.616752734988582 1.7693407831864674 1.769303102687418 0 0 0
33 1 10.616609799561738 3.538502715109111 3.859863624313381e-19 0 0 0
35 1 12.386513862314489 3.5387191748167335 1.7688761979241137 0 0 0
63 1 10.616605563644699 3.718546963110706e-06 3.538417402600192 0 0 0
64 1 12.386342651993015 1.768969606376028 3.5385190708380496 0 0 0
65 1 12.387349229403585 0.00022592547403552622 5.306869428645838 0 0 0
66 1 10.616682948423124 1.7692130148352276 5.307884307963397 0 0 0
83 1 10.616866539085352 3.5386415228421337 3.5385078229168254 0 0 0
85 1 12.386057909326242 3.538506641491255 5.308167571949155 0 0 0
71 1 17.693331870318946 3.5357198656638493 3.5358009183277437 -1 0 0
17 1 14.15931330290033 0.0004213467273202469 3.7787681790357243e-16 0 0 0
18 1 15.931750838920717 1.7654527274116951 1.6414350082101346e-18 0 0 0
20 1 14.154743018971999 1.7702718608595382 1.7698034617035696 0 0 0
37 1 14.159711289972597 3.534371690611029 9.211699069512604e-19 0 0 0
39 1 15.92304365122492 3.5405886141964094 1.7710162566547245 0 0 0
67 1 14.159423775392488 0.0004476308270735898 3.535096793376528 0 0 0
68 1 15.927912399757478 1.7703003951023821 3.5358009183277446 0 0 0
69 1 15.925430904398473 0.000476629152219299 5.30733974322597 0 0 0
70 1 14.156773291965395 1.7689663460622473 5.306544894759056 0 0 0
87 1 14.15514463717957 3.5389863447085728 3.5393636363957093 0 0 0
89 1 15.925343228556288 3.5382890368650375 5.307489102418988 0 0 0
22 1 1.7689997683109828 5.304318962520998 2.642014998286283e-17 0 0 0
28 1 3.5398083184097846 5.309049369463365 1.769940941802421 0 0 0
41 1 0.0005848098967409092 7.077330328078903 0 0 0 0
42 1 1.7693866846199993 7.076995807047194 1.7688192524224697 0 0 0
43 1 3.5380623725588776 7.077149131700142 8.845307326608556e-19 0 0 0
72 1 1.768973484211229 5.304208490028841 3.5350967933765287 0 0 0
74 1 0.00045476897605460653 5.306858973455935 5.306544894759055 0 0 0
78 1 3.5382971469586852 5.30835920560877 5.308065148487966 0 0 0
91 1 0.00045150866227387874 7.077289613428312 3.53851907083805 0 0 0
92 1 1.7691951895642657 7.0762830360177436 5.306869428645838 0 0 0
93 1 3.5382178669597435 7.077040348817188 3.538659405076533 0 0 0
252 1 8.033185183341308e-05 8.846879530432746 1.7693031026874182 0 0 0
254 1 3.5386440328407414 8.846883986155675 1.7693485155753246 0 0 0
301 1 1.7694173964913393 8.84702670177663 3.538417402600192 0 0 0
302 1 0.00020810020307444104 8.846949316998204 5.307884307963397 0 0 0
304 1 3.5384447575749904 8.846955929144366 5.307960486516209 0 0 0
26 1 5.30332340708036 5.303323407080361 1.5388070296792048e-16 0 0 0
32 1 7.077233852786148 5.30811965929328 1.7687912674638364 0 0 0
44 1 5.30811965929328 7.077233852786148 1.7687912674638362 0 0 0
45 1 7.076030485202454 7.076030485202454 9.907725829578127e-16 0 0 0
76 1 5.309071693115283 5.309071693115283 3.5394556227147085 0 0 0
82 1 7.077823966167913 5.308100343163118 5.308340307799305 0 0 0
94 1 5.308100343163118 7.077823966167913 5.308340307799306 0 0 0
95 1 7.077833865698245 7.077833865698245 3.5386042584724873 0 0 0
30 1 8.847034842417747 5.307761698655525 5.680323679536827e-16 0 0 0
46 1 8.846968516141633 7.077439052920753 1.7690046376783974 0 0 0
80 1 8.84678556085585 5.307910818523425 3.5384934869951934 0 0 0
253 1 5.307761698655525 8.847034842417747 8.79413604478704e-16 0 0 0
256 1 7.077439052920753 8.846968516141633 1.7690046376783977 0 0 0
303 1 5.307910818523425 8.84678556085585 3.538493486995194 0 0 0
255 1 8.84667607246905 8.84667607246905 1.1414425344864176e-16 0 0 0
34 1 12.38733316353023 5.306666893064142 4.447712931232587e-19 0 0 0
36 1 10.616697424752815 5.307960410234236 1.7692010065237553 0 0 0
47 1 10.616994661126522 7.076999442174547 7.965730047098519e-17 0 0 0
48 1 12.386309648774994 7.0773226166463346 1.7689917470816028 0 0 0
84 1 12.386228956413037 5.308136673837015 3.5385191891695933 0 0 0
86 1 10.616548815778513 5.307985985502164 5.308022548381952 0 0 0
96 1 8.847140952801396 7.0775773874316315 5.30811040851409 0 0 0
97 1 10.616538576375227 7.077514490502503 3.5384896878280814 0 0 0
98 1 12.386045010264278 7.07758725515705 5.308108822366945 0 0 0
257 1 12.386632823246781 8.846637604294806 1.4292552115484223e-16 0 0 0
258 1 10.616642039279633 8.846990226141696 1.7689881043347464 0 0 0
307 1 12.386117774918825 8.8470936890461 3.5384896878280814 0 0 0
308 1 10.61657377348401 8.84705849193732 5.30806895471441 0 0 0
100 1 15.925125623930073 7.077574356095086 5.308167571949155 0 0 0
99 1 14.155495591584312 7.077403309008291 3.5385191891695937 0 0 0
90 1 14.155417010432311 5.308215254989018 5.308424163759493 0 0 0
88 1 15.924645920712758 5.308487628241757 3.5393636363957097 0 0 0
24 1 17.69336040456179 5.308889246449329 1.7698034617035694 -1 0 0
38 1 15.929260574810298 5.303920975448731 1.5803697177261265e-18 0 0 0
40 1 14.155830200370426 5.307802065050901 1.768460404567187 0 0 0
49 1 14.156965372357186 7.076299101891099 1.7110494393619036e-18 0 0 0
50 1 15.924913090604596 7.07711840310684 1.768876197924113 0 0 0
259 1 15.925129550312217 8.84702246585959 7.625174323372759e-16 0 0 0
260 1 14.155671855187093 8.846934840668514 1.7692010065237558 0 0 0
309 1 15.924990742579196 8.846765726335978 3.5385078229168254 0 0 0
310 1 14.155646279919164 8.847083449642815 5.3080225483819525 0 0 0
101 1 7.655370593213853e-05 7.655370593139984e-05 7.077554015717539 0 0 0
102 1 1.76934456133237 1.76934456133237 7.07755401571754 0 0 0
103 1 1.7693686155598816 5.2499478421061956e-05 8.847105575191513 0 0 0
104 1 5.249947842173049e-05 1.7693686155598818 8.847105575191513 0 0 0
105 1 3.5384410053713746 9.016087177995567e-05 7.077339359795405 0 0 0
108 1 3.5386411590754228 1.7694103431598298 8.847105575191513 0 0 0
121 1 9.016087178089123e-05 3.5384410053713755 7.077339359795404 0 0 0
123 1 1.7694103431598298 3.538641159075423 8.847105575191513 0 0 0
125 1 3.538545523451921 3.538545523451922 7.077066768107781 0 0 0
151 1 7.655370593218083e-05 7.655370593150334e-05 10.616657134665486 0 0 0
152 1 1.76934456133237 1.7693445613323706 10.616657134665486 0 0 0
153 1 3.538441005371374 9.016087178108671e-05 10.616871790587622 0 0 0
161 1 9.016087178119291e-05 3.5384410053713746 10.616871790587622 0 0 0
163 1 3.538545523451921 3.538545523451922 10.617144382275246 0 0 0
106 1 5.307761401638038 1.7691905490951476 7.077388435549558 0 0 0
107 1 5.307846679827391 1.837447186480581e-05 8.847105575191513 0 0 0
109 1 7.077014700445198 0.00021196983283946563 7.077039108789457 0 0 0
112 1 7.077301786431585 1.7691803107777726 8.847105575191513 0 0 0
127 1 5.307914285353317 3.5386203024307745 8.847105575191513 0 0 0
129 1 7.077536046350436 3.5384350601883003 7.077563739505957 0 0 0
154 1 5.307761401638038 1.7691905490951487 10.616822714833468 0 0 0
155 1 7.077014700445198 0.00021196983283775642 10.617172041593571 0 0 0
165 1 7.077536046350435 3.5384350601883003 10.61664741087707 0 0 0
110 1 8.846659718553957 1.7691877469643276 7.077161692004544 0 0 0
111 1 8.846956067684868 0.00022822027201805555 8.847105575191513 0 0 0
131 1 8.84702234718693 3.5384008612997184 8.847105575191513 0 0 0
156 1 8.846659718553957 1.7691877469643276 10.617049458378483 0 0 0
113 1 10.616972546867371 0.0002333680739736981 7.077161692004545 0 0 0
114 1 12.38661756497613 1.7692091452054641 7.077039108789456 0 0 0
115 1 12.386330478989743 0.0002408042605296971 8.847105575191513 0 0 0
116 1 10.61667619773646 1.7691928947662843 8.847105575191513 0 0 0
133 1 10.616552715990961 3.5384206857106615 7.077595360050504 0 0 0
135 1 12.38627987084639 3.538409429375822 8.847105575191513 0 0 0
157 1 10.616972546867371 0.0002333680739741832 10.617049458378483 0 0 0
158 1 12.38661756497613 1.7692091452054635 10.617172041593571 0 0 0
167 1 10.616552715990961 3.538420685710662 10.61661579033252 0 0 0
117 1 14.15587086378329 0.00023056594315380504 7.077388435549558 0 0 0
118 1 15.925191260049951 1.7693309541665214 7.0773393597954035 0 0 0
119 1 15.924991106345903 1.0771878470963374e-05 8.847105575191513 0 0 0
120 1 14.155785585593936 1.7694027405664365 8.847105575191513 0 0 0
137 1 14.155782561482427 3.5384010375776294 7.077140820015263 0 0 0
139 1 15.924971501508049 3.5386607639132803 8.847105575191513 0 0 0
159 1 14.155870863783289 0.00023056594315280218 10.616822714833466 0 0 0
160 1 15.925191260049953 1.769330954166522 10.616871790587622 0 0 0
169 1 14.155782561482427 3.5384010375776302 10.617070330367762 0 0 0
122 1 1.7691905490951483 5.307761401638038 7.077388435549558 0 0 0
124 1 1.837447186542085e-05 5.307846679827392 8.847105575191513 0 0 0
128 1 3.5386203024307736 5.307914285353318 8.847105575191513 0 0 0
141 1 0.00021196983283778087 7.077014700445198 7.077039108789457 0 0 0
142 1 1.7691803107777722 7.077301786431584 8.847105575191513 0 0 0
143 1 3.5384350601883 7.077536046350436 7.077563739505957 0 0 0
162 1 1.7691905490951487 5.307761401638039 10.616822714833468 0 0 0
171 1 0.00021196983283786275 7.077014700445199 10.61717204159357 0 0 0
172 1 3.5384350601883 7.077536046350436 10.61664741087707 0 0 0
351 1 1.7691877469643278 8.846659718553957 7.077161692004543 0 0 0
352 1 0.00022822027201521697 8.846956067684866 8.847105575191513 0 0 0
354 1 3.5384008612997175 8.847022347186932 8.847105575191513 0 0 0
401 1 1.7691877469643285 8.846659718553957 10.617049458378483 0 0 0
126 1 5.307987929228087 5.307987929228088 7.077385398969529 0 0 0
132 1 7.077483413182512 5.3079608547265975 8.847105575191513 0 0 0
144 1 5.307960854726598 7.077483413182512 8.847105575191513 0 0 0
145 1 7.077578461838526 7.0775784618385265 7.077683789586665 0 0 0
164 1 5.307987929228087 5.307987929228088 10.616825751413497 0 0 0
173 1 7.077578461838526 7.077578461838525 10.616527360796361 0 0 0
146 1 8.847089509097374 7.077520695488134 8.847105575191513 0 0 0
356 1 7.077520695488133 8.847089509097374 8.847105575191513 0 0 0
355 1 8.847071790619006 8.847071790619006 7.0776125024363585 0 0 0
403 1 8.847071790619008 8.847071790619006 10.616598647946667 0 0 0
130 1 8.847145560924483 5.307963397598762 7.0776831402123355 0 0 0
134 1 12.386056843401457 5.307971132847135 7.0777004956018414 0 0 0
136 1 10.616601882355917 5.307931101036119 8.847105575191513 0 0 0
147 1 10.616595451675654 7.077517559767744 7.077619920012574 0 0 0
148 1 12.386127235810852 7.077505029610476 8.847105575191513 0 0 0
166 1 8.847145560924483 5.307963397598763 10.61652801017069 0 0 0
168 1 12.386056843401457 5.307971132847135 10.616510654781184 0 0 0
174 1 10.616595451675654 7.077517559767744 10.616591230370451 0 0 0
357 1 12.386114705653583 8.847036813745675 7.077619920012574 0 0 0
358 1 10.61659049994768 8.847041765473648 8.847105575191513 0 0 0
404 1 12.386114705653585 8.847036813745676 10.616591230370451 0 0 0
138 1 15.925231227843698 5.307849703938901 7.077140820015262 0 0 0
140 1 14.1557714358521 5.307860829569227 8.847105575191513 0 0 0
149 1 14.155661132574194 7.077575422019871 7.0777004956018414 0 0 0
150 1 15.925222836045506 7.07735239457494 8.847105575191513 0 0 0
170 1 15.925231227843698 5.307849703938901 10.617070330367762 0 0 0
175 1 14.155661132574194 7.077575422019872 10.616510654781184 0 0 0
359 1 15.925211579710666 8.847079549430369 7.0775953600505055 0 0 0
360 1 14.15570116438521 8.84703038306541 8.847105575191513 0 0 0
405 1 15.925211579710666 8.847079549430367 10.616615790332519 0 0 0
176 1 1.7688444740304825 0.0005766410078190676 12.38695020257393 0 0 0
177 1 0.0005766410078194294 1.7688444740304825 12.386950202573928 0 0 0
179 1 3.538201361022857 1.7689444858860848 12.386871407157054 0 0 0
186 1 1.768944485886084 3.5382013610228578 12.386871407157056 0 0 0
202 1 1.7702681360644976 1.7702681360644976 14.158108724058218 0 0 0
203 1 1.7654150663226347 0.0040060487156677645 15.933192351404191 0 0 0
204 1 0.004006048715667445 1.7654150663226345 15.933192351404191 0 0 0
208 1 3.5366589367265853 1.7705316128637019 15.92717023706086 0 0 0
223 1 1.7705316128637016 3.5366589367265844 15.92717023706086 0 0 0
225 1 3.5404711553446164 3.540471155344617 14.153601173457002 0 0 0
178 1 5.306858973455935 0.0004547689760546833 12.387666255623971 0 0 0
181 1 7.076283036017743 1.7691951895642664 12.387341721737188 0 0 0
188 1 5.308359205608769 3.5382971469586852 12.38614600189506 0 0 0
206 1 5.304208490028841 1.7689734842112295 14.159114357006498 0 0 0
209 1 7.077289613428311 0.00045150866227487756 14.155692079544977 0 0 0
212 1 7.076995807047193 1.7693866846199993 15.925391897960557 0 0 0
227 1 5.309049369463366 3.539808318409784 15.924270208580605 0 0 0
229 1 7.077040348817188 3.538217866959744 14.155551745306493 0 0 0
180 1 8.846949316998204 0.00020810020307486204 12.38632684241963 0 0 0
190 1 8.846955929144364 3.5384447575749904 12.386250663866818 0 0 0
210 1 8.84702670177663 1.7694173964913398 14.155793747782834 0 0 0
211 1 8.846879530432746 8.033185183317313e-05 15.924908047695608 0 0 0
231 1 8.846883986155675 3.5386440328407414 15.924862634807702 0 0 0
182 1 12.387349229403585 0.0002259254740355057 12.387341721737188 0 0 0
183 1 10.616682948423126 1.7692130148352287 12.38632684241963 0 0 0
192 1 12.386057909326242 3.5385066414912547 12.386043578433872 0 0 0
213 1 10.616605563644699 3.718546961009628e-06 14.155793747782834 0 0 0
214 1 12.386342651993015 1.768969606376029 14.155692079544977 0 0 0
215 1 12.386636458374134 3.443041830244585e-05 15.925391897960557 0 0 0
216 1 10.616752734988582 1.769340783186468 15.92490804769561 0 0 0
233 1 10.616866539085352 3.538641522842133 14.1557033274662 0 0 0
235 1 12.386513862314489 3.538719174816733 15.925334952458913 0 0 0
221 1 17.693331870318946 3.5357198656638493 14.158410232055282 -1 0 0
184 1 15.925430904398473 0.00047662915221830275 12.386871407157056 0 0 0
185 1 14.156773291965393 1.7689663460622476 12.387666255623971 0 0 0
194 1 15.92534322855629 3.538289036865038 12.386722047964039 0 0 0
217 1 14.159423775392488 0.00044763082707234325 14.159114357006498 0 0 0
218 1 15.927912399757478 1.7703003951023828 14.158410232055283 0 0 0
220 1 14.154743018971999 1.7702718608595382 15.924407688679457 0 0 0
237 1 14.155144637179571 3.5389863447085723 14.154847513987317 0 0 0
239 1 15.923043651224917 3.5405886141964094 15.923194893728303 0 0 0
187 1 0.00045476897605504476 5.306858973455934 12.387666255623973 0 0 0
189 1 3.538297146958685 5.30835920560877 12.38614600189506 0 0 0
196 1 1.7691951895642664 7.076283036017743 12.387341721737188 0 0 0
222 1 1.7689734842112292 5.304208490028841 14.159114357006498 0 0 0
228 1 3.5398083184097846 5.309049369463366 15.924270208580607 0 0 0
241 1 0.0004515086622735831 7.077289613428312 14.155692079544977 0 0 0
242 1 1.76938668462 7.076995807047194 15.925391897960557 0 0 0
243 1 3.5382178669597444 7.077040348817187 14.155551745306493 0 0 0
426 1 0.00020810020307433658 8.846949316998204 12.38632684241963 0 0 0
427 1 3.5384447575749904 8.846955929144364 12.386250663866816 0 0 0
451 1 1.7694173964913396 8.84702670177663 14.155793747782834 0 0 0
452 1 8.033185183333244e-05 8.846879530432746 15.924908047695608 0 0 0
454 1 3.538644032840742 8.846883986155675 15.924862634807702 0 0 0
191 1 7.077823966167913 5.308100343163118 12.38587084258372 0 0 0
197 1 5.308100343163118 7.077823966167912 12.38587084258372 0 0 0
226 1 5.309071693115283 5.309071693115284 14.15475552766832 0 0 0
232 1 7.077233852786148 5.30811965929328 15.92541988291919 0 0 0
244 1 5.30811965929328 7.077233852786148 15.925419882919188 0 0 0
245 1 7.077833865698245 7.077833865698245 14.15560689191054 0 0 0
230 1 8.84678556085585 5.307910818523425 14.155717663387833 0 0 0
246 1 8.846968516141633 7.077439052920755 15.925206512704628 0 0 0
453 1 5.307910818523426 8.84678556085585 14.155717663387833 0 0 0
456 1 7.077439052920753 8.846968516141633 15.925206512704628 0 0 0
193 1 10.616548815778513 5.307985985502165 12.386188602001074 0 0 0
198 1 8.847140952801396 7.0775773874316315 12.386100741868935 0 0 0
199 1 12.38604501026428 7.07758725515705 12.386102328016083 0 0 0
234 1 12.386228956413037 5.308136673837015 14.155691961213432 0 0 0
236 1 10.616697424752815 5.307960410234236 15.925010143859271 0 0 0
247 1 10.616538576375227 7.077514490502503 14.155721462554943 0 0 0
248 1 12.386309648774994 7.077322616646334 15.925219403301424 0 0 0
429 1 10.616573773484008 8.84705849193732 12.386142195668619 0 0 0
457 1 12.386117774918825 8.8470936890461 14.155721462554943 0 0 0
458 1 10.616642039279633 8.846990226141696 15.92522304604828 0 0 0
250 1 15.924913090604594 7.07711840310684 15.925334952458915 0 0 0
249 1 14.155495591584312 7.077403309008291 14.155691961213432 0 0 0
240 1 14.155830200370428 5.307802065050901 15.92575074581584 0 0 0
238 1 15.924645920712758 5.308487628241756 14.154847513987319 0 0 0
224 1 17.69336040456179 5.308889246449329 15.924407688679459 -1 0 0
195 1 14.155417010432313 5.308215254989018 12.385786986623534 0 0 0
200 1 15.925125623930073 7.077574356095086 12.386043578433872 0 0 0
430 1 14.155646279919164 8.847083449642815 12.386188602001074 0 0 0
459 1 15.924990742579196 8.846765726335978 14.155703327466199 0 0 0
460 1 14.15567185518709 8.846934840668514 15.925010143859271 0 0 0
251 1 1.7693942419514168 8.847219455697307 4.861385634931799e-16 0 0 0
261 1 2.6873086886564307e-05 10.616412809724022 1.740507639199844e-16 0 0 0
262 1 1.7688363051415608 12.386301937342427 1.603943180610361e-16 0 0 0
263 1 1.7693407831864683 10.616752734988582 1.7693031026874182 0 0 0
264 1 3.443041830286646e-05 12.386636458374134 1.7688192524224697 0 0 0
265 1 3.5385027151091104 10.616609799561738 3.896284462907621e-16 0 0 0
268 1 3.5387191748167335 12.386513862314489 1.768876197924113 0 0 0
311 1 3.7185469634196987e-06 10.616605563644699 3.538417402600192 0 0 0
312 1 1.7689696063760278 12.386342651993015 3.5385190708380496 0 0 0
313 1 1.7692130148352274 10.616682948423124 5.3078843079633975 0 0 0
314 1 0.00022592547403663902 12.387349229403585 5.306869428645838 0 0 0
315 1 3.5386415228421337 10.616866539085352 3.5385078229168254 0 0 0
318 1 3.5385066414912556 12.386057909326242 5.308167571949155 0 0 0
266 1 5.306666893064142 12.38733316353023 8.491579404011104e-16 0 0 0
267 1 5.307960410234236 10.616697424752815 1.7692010065237551 0 0 0
269 1 7.076999442174546 10.616994661126522 8.72012348111634e-19 0 0 0
272 1 7.0773226166463346 12.386309648774995 1.7689917470816032 0 0 0
306 1 7.077577387431632 8.847140952801396 5.308110408514091 0 0 0
316 1 5.308136673837016 12.386228956413037 3.5385191891695937 0 0 0
317 1 5.307985985502164 10.616548815778513 5.308022548381952 0 0 0
319 1 7.077514490502503 10.616538576375229 3.538489687828081 0 0 0
322 1 7.077587255157049 12.38604501026428 5.308108822366944 0 0 0
270 1 8.846637604294806 12.386632823246781 1.2268751302621426e-16 0 0 0
271 1 8.846990226141696 10.616642039279633 1.7689881043347468 0 0 0
320 1 8.8470936890461 12.386117774918825 3.538489687828082 0 0 0
321 1 8.84705849193732 10.61657377348401 5.30806895471441 0 0 0
273 1 10.616956192952278 10.616956192952278 3.745262339572993e-16 0 0 0
274 1 12.387601780218874 12.387601780218873 2.936856313714961e-16 0 0 0
275 1 12.386193212500572 10.616663749279695 1.7690046376783974 0 0 0
276 1 10.616663749279695 12.386193212500572 1.7690046376783974 0 0 0
305 1 8.8471304870969 8.8471304870969 3.5384876690379965 0 0 0
323 1 10.616501778324428 10.616501778324428 3.538487669037996 0 0 0
324 1 12.385798399723082 12.385798399723082 3.5386042584724877 0 0 0
325 1 12.386054877989697 10.616491312619932 5.308110408514092 0 0 0
326 1 10.616491312619932 12.386054877989697 5.30811040851409 0 0 0
277 1 14.155870566765804 10.616597423003581 1.0004715767494874e-16 0 0 0
278 1 15.925569892862452 12.386483133721187 2.393759386973113e-19 0 0 0
279 1 15.924988232580585 10.616748279265654 1.7693485155753248 0 0 0
280 1 14.155512606128049 12.386398412635181 1.7687912674638373 0 0 0
327 1 14.155721446897903 10.616846704565479 3.5384934869951943 0 0 0
328 1 15.925414398461584 12.386591916604141 3.5386594050765328 0 0 0
329 1 15.925187507846337 10.616676336276962 5.307960486516209 0 0 0
330 1 14.155531922258211 12.385808299253418 5.308340307799305 0 0 0
281 1 0.0004213467273189445 14.15931330290033 3.0529591977479792e-18 0 0 0
282 1 1.765452727411695 15.931750838920717 2.397103855423802e-16 0 0 0
283 1 1.7702718608595387 14.154743018971997 1.76980346170357 0 0 0
285 1 3.5343716906110285 14.159711289972597 6.832321406324426e-16 0 0 0
288 1 3.540588614196409 15.92304365122492 1.7710162566547245 0 0 0
331 1 0.0004476308270728943 14.159423775392488 3.5350967933765283 0 0 0
332 1 1.7703003951023826 15.927912399757478 3.5358009183277446 0 0 0
333 1 1.7689663460622467 14.156773291965393 5.306544894759055 0 0 0
334 1 0.00047662915221913867 15.925430904398471 5.30733974322597 0 0 0
335 1 3.5389863447085728 14.155144637179571 3.5393636363957097 0 0 0
338 1 3.538289036865037 15.92534322855629 5.307489102418987 0 0 0
55 1 3.5357198656638493 17.693331870318946 3.5358009183277446 0 -1 0
341 1 8.847083449642815 14.155646279919164 5.308022548381952 0 0 0
340 1 8.846765726335978 15.924990742579194 3.538507822916826 0 0 0
286 1 5.303920975448731 15.9292605748103 8.381016067663242e-16 0 0 0
287 1 5.307802065050902 14.155830200370428 1.7684604045671861 0 0 0
289 1 7.076299101891098 14.156965372357188 6.522076673498107e-16 0 0 0
292 1 7.077118403106839 15.924913090604594 1.7688761979241128 0 0 0
336 1 5.308487628241757 15.924645920712758 3.5393636363957097 0 0 0
337 1 5.308215254989017 14.155417010432311 5.308424163759493 0 0 0
339 1 7.077403309008291 14.155495591584314 3.5385191891695937 0 0 0
342 1 7.077574356095086 15.925125623930073 5.308167571949154 0 0 0
290 1 8.84702246585959 15.925129550312217 3.3564692202617607e-16 0 0 0
291 1 8.846934840668514 14.155671855187093 1.7692010065237556 0 0 0
7 1 5.308889246449329 17.69336040456179 1.7698034617035692 0 -1 0
346 1 10.616676336276962 15.925187507846337 5.307960486516209 0 0 0
345 1 12.385808299253418 14.155531922258211 5.308340307799305 0 0 0
344 1 12.386591916604141 15.925414398461584 3.5386594050765336 0 0 0
343 1 10.616846704565479 14.155721446897903 3.5384934869951947 0 0 0
296 1 10.616748279265654 15.924988232580585 1.7693485155753241 0 0 0
295 1 12.386398412635181 14.155512606128049 1.768791267463837 0 0 0
294 1 12.386483133721185 15.92556989286245 1.2421791948381969e-17 0 0 0
293 1 10.616597423003581 14.155870566765804 8.943774734801065e-19 0 0 0
350 1 14.155273059812558 15.925335118462645 5.308065148487967 0 0 0
349 1 15.925335118462645 14.155273059812558 5.308065148487967 0 0 0
348 1 15.923161110076713 15.923161110076713 3.5406099769260244 0 0 0
347 1 14.154560572306044 14.154560572306044 3.5394556227147085 0 0 0
300 1 14.154582895957963 15.923823947011543 1.769940941802422 0 0 0
299 1 15.923823947011543 14.154582895957962 1.7699409418024215 0 0 0
298 1 15.93182904364855 15.931829043648548 3.990675285395318e-16 0 0 0
297 1 14.160308858340967 14.160308858340967 6.514050871048554e-16 0 0 0
284 1 17.69310065255763 15.926973328694743 1.7670409133221667 -1 0 0
51 1 17.693364129356834 17.693364129356834 3.536102426324808 -1 -1 0
19 1 15.926973328694741 17.693100652557625 1.767040913322167 0 -1 0
361 1 0.00023336807397444622 10.616972546867371 7.077161692004544 0 0 0
362 1 1.7692091452054637 12.38661756497613 7.077039108789457 0 0 0
363 1 1.7691928947662847 10.61667619773646 8.847105575191513 0 0 0
364 1 0.00024080426053059924 12.386330478989741 8.847105575191513 0 0 0
365 1 3.5384206857106615 10.61655271599096 7.077595360050505 0 0 0
368 1 3.5384094293758213 12.386279870846389 8.847105575191513 0 0 0
406 1 0.00023336807397404574 10.616972546867371 10.617049458378483 0 0 0
407 1 1.7692091452054646 12.38661756497613 10.61717204159357 0 0 0
408 1 3.5384206857106615 10.61655271599096 10.61661579033252 0 0 0
353 1 5.307963397598763 8.847145560924483 7.0776831402123355 0 0 0
366 1 5.307971132847135 12.386056843401457 7.077700495601841 0 0 0
367 1 5.307931101036118 10.616601882355917 8.847105575191513 0 0 0
369 1 7.077517559767745 10.616595451675654 7.077619920012574 0 0 0
372 1 7.077505029610477 12.38612723581085 8.847105575191513 0 0 0
402 1 5.307963397598762 8.847145560924483 10.61652801017069 0 0 0
409 1 5.307971132847135 12.386056843401457 10.616510654781184 0 0 0
410 1 7.077517559767744 10.616595451675654 10.616591230370451 0 0 0
370 1 8.847036813745675 12.386114705653585 7.077619920012575 0 0 0
371 1 8.847041765473648 10.61659049994768 8.847105575191513 0 0 0
411 1 8.847036813745675 12.386114705653585 10.616591230370453 0 0 0
373 1 10.616560474802322 10.61656047480232 7.0776125024363585 0 0 0
374 1 12.386053803582803 12.386053803582803 7.077683789586666 0 0 0
375 1 12.386111569933194 10.616542756323954 8.847105575191513 0 0 0
376 1 10.616542756323954 12.386111569933194 8.847105575191513 0 0 0
412 1 10.61656047480232 10.616560474802322 10.616598647946667 0 0 0
413 1 12.386053803582804 12.386053803582804 10.61652736079636 0 0 0
377 1 14.155668867822566 10.616486704496845 7.0776831402123355 0 0 0
378 1 15.925197205233028 12.386096219070893 7.077563739505957 0 0 0
379 1 15.925231404121611 10.616609918234396 8.847105575191513 0 0 0
380 1 14.15567141069473 12.386148852238817 8.847105575191513 0 0 0
414 1 14.155668867822564 10.616486704496845 10.61652801017069 0 0 0
415 1 15.925197205233028 12.386096219070891 10.61664741087707 0 0 0
381 1 0.00023056594315408054 14.155870863783289 7.077388435549559 0 0 0
382 1 1.7693309541665212 15.925191260049953 7.0773393597954035 0 0 0
383 1 1.7694027405664374 14.155785585593934 8.847105575191513 0 0 0
384 1 1.0771878470794947e-05 15.924991106345903 8.847105575191513 0 0 0
385 1 3.5384010375776302 14.155782561482425 7.077140820015263 0 0 0
388 1 3.53866076391328 15.924971501508049 8.847105575191513 0 0 0
416 1 0.00023056594315418495 14.15587086378329 10.616822714833466 0 0 0
417 1 1.7693309541665223 15.925191260049953 10.616871790587622 0 0 0
418 1 3.53840103757763 14.155782561482427 10.617070330367763 0 0 0
421 1 8.847079549430367 15.925211579710666 10.61661579033252 0 0 0
386 1 5.307849703938902 15.925231227843698 7.077140820015264 0 0 0
387 1 5.307860829569227 14.1557714358521 8.847105575191513 0 0 0
389 1 7.077575422019872 14.155661132574194 7.077700495601842 0 0 0
392 1 7.077352394574938 15.925222836045506 8.847105575191513 0 0 0
419 1 5.307849703938903 15.925231227843698 10.617070330367763 0 0 0
420 1 7.077575422019871 14.155661132574194 10.616510654781184 0 0 0
390 1 8.847079549430369 15.925211579710666 7.077595360050505 0 0 0
391 1 8.84703038306541 14.15570116438521 8.847105575191513 0 0 0
423 1 12.386096219070893 15.925197205233028 10.616647410877071 0 0 0
422 1 10.616486704496845 14.155668867822566 10.616528010170692 0 0 0
396 1 10.616609918234396 15.925231404121611 8.847105575191513 0 0 0
395 1 12.386148852238817 14.155671410694731 8.847105575191513 0 0 0
394 1 12.386096219070893 15.925197205233028 7.077563739505957 0 0 0
393 1 10.616486704496845 14.155668867822566 7.077683140212336 0 0 0
425 1 15.925086741969407 15.925086741969407 10.617144382275244 0 0 0
424 1 14.155644336193241 14.155644336193241 10.616825751413497 0 0 0
400 1 14.155717980068014 15.925011962990554 8.847105575191513 0 0 0
399 1 15.925011962990556 14.155717980068012 8.847105575191513 0 0 0
398 1 15.925086741969407 15.925086741969407 7.077066768107782 0 0 0
397 1 14.155644336193241 14.155644336193243 7.077385398969528 0 0 0
431 1 1.769213014835228 10.616682948423124 12.38632684241963 0 0 0
432 1 0.00022592547403544558 12.387349229403585 12.387341721737188 0 0 0
434 1 3.538506641491255 12.386057909326242 12.386043578433872 0 0 0
461 1 3.718546961242568e-06 10.616605563644699 14.155793747782834 0 0 0
462 1 1.768969606376028 12.386342651993015 14.155692079544977 0 0 0
463 1 1.7693407831864685 10.616752734988582 15.924908047695608 0 0 0
464 1 3.443041830221614e-05 12.386636458374134 15.925391897960557 0 0 0
465 1 3.5386415228421337 10.616866539085352 14.1557033274662 0 0 0
468 1 3.538719174816733 12.386513862314489 15.925334952458915 0 0 0
428 1 7.0775773874316315 8.847140952801396 12.386100741868935 0 0 0
433 1 5.307985985502165 10.616548815778513 12.386188602001074 0 0 0
436 1 7.077587255157049 12.38604501026428 12.386102328016083 0 0 0
466 1 5.308136673837016 12.386228956413037 14.155691961213433 0 0 0
467 1 5.307960410234236 10.616697424752815 15.925010143859271 0 0 0
469 1 7.0775144905025025 10.616538576375229 14.155721462554943 0 0 0
472 1 7.077322616646334 12.386309648774994 15.925219403301423 0 0 0
435 1 8.84705849193732 10.616573773484008 12.386142195668619 0 0 0
470 1 8.8470936890461 12.386117774918826 14.155721462554943 0 0 0
471 1 8.846990226141696 10.616642039279633 15.92522304604828 0 0 0
437 1 12.386054877989697 10.616491312619932 12.386100741868937 0 0 0
438 1 10.616491312619932 12.386054877989697 12.386100741868935 0 0 0
455 1 8.8471304870969 8.8471304870969 14.15572348134503 0 0 0
473 1 10.616501778324428 10.616501778324428 14.15572348134503 0 0 0
474 1 12.385798399723082 12.385798399723082 14.15560689191054 0 0 0
475 1 12.386193212500574 10.616663749279695 15.925206512704628 0 0 0
476 1 10.616663749279695 12.386193212500574 15.925206512704628 0 0 0
439 1 15.925187507846337 10.616676336276964 12.386250663866818 0 0 0
440 1 14.15553192225821 12.385808299253416 12.385870842583719 0 0 0
477 1 14.155721446897903 10.616846704565479 14.155717663387833 0 0 0
478 1 15.925414398461585 12.386591916604141 14.155551745306493 0 0 0
479 1 15.924988232580587 10.616748279265652 15.924862634807702 0 0 0
480 1 14.155512606128049 12.386398412635181 15.92541988291919 0 0 0
441 1 1.768966346062248 14.156773291965393 12.387666255623973 0 0 0
442 1 0.0004766291522184448 15.925430904398471 12.386871407157056 0 0 0
444 1 3.538289036865037 15.925343228556288 12.386722047964039 0 0 0
481 1 0.00044763082707102123 14.159423775392488 14.159114357006496 0 0 0
482 1 1.7703003951023828 15.927912399757478 14.158410232055282 0 0 0
483 1 1.7702718608595387 14.154743018971999 15.924407688679459 0 0 0
485 1 3.5389863447085728 14.155144637179571 14.154847513987317 0 0 0
488 1 3.54058861419641 15.923043651224917 15.9231948937283 0 0 0
205 1 3.5357198656638493 17.693331870318946 14.158410232055283 0 -1 0
491 1 8.846934840668514 14.15567185518709 15.925010143859271 0 0 0
490 1 8.846765726335978 15.924990742579196 14.1557033274662 0 0 0
443 1 5.308215254989018 14.155417010432311 12.385786986623534 0 0 0
446 1 7.077574356095086 15.925125623930073 12.38604357843387 0 0 0
486 1 5.308487628241756 15.924645920712756 14.154847513987319 0 0 0
487 1 5.307802065050902 14.155830200370428 15.92575074581584 0 0 0
489 1 7.077403309008291 14.155495591584312 14.155691961213432 0 0 0
492 1 7.077118403106839 15.924913090604596 15.925334952458915 0 0 0
445 1 8.847083449642815 14.155646279919164 12.386188602001074 0 0 0
207 1 5.308889246449329 17.69336040456179 15.924407688679457 0 -1 0
496 1 10.616748279265654 15.924988232580587 15.924862634807702 0 0 0
495 1 12.386398412635181 14.155512606128049 15.92541988291919 0 0 0
494 1 12.386591916604141 15.925414398461584 14.155551745306493 0 0 0
493 1 10.616846704565477 14.155721446897903 14.155717663387833 0 0 0
448 1 10.616676336276962 15.925187507846337 12.386250663866816 0 0 0
447 1 12.385808299253416 14.155531922258211 12.385870842583719 0 0 0
500 1 14.154582895957962 15.923823947011543 15.924270208580605 0 0 0
499 1 15.923823947011545 14.154582895957963 15.924270208580607 0 0 0
498 1 15.923161110076713 15.923161110076713 14.153601173457002 0 0 0
497 1 14.154560572306044 14.154560572306044 14.154755527668318 0 0 0
450 1 14.155273059812556 15.925335118462645 12.38614600189506 0 0 0
449 1 15.925335118462645 14.155273059812556 12.386146001895062 0 0 0
484 1 17.693100652557625 15.926973328694741 15.92717023706086 -1 0 0
201 1 17.69336412935683 17.69336412935683 14.158108724058218 -1 -1 0
219 1 15.926973328694741 17.69310065255763 15.927170237060858 0 -1 0

Velocities

1 3.1015652382425294e-09 3.1015666624842915e-09 3.744179337700055e-16
2 -3.1015651854928347e-09 -3.1015662636396526e-09 7.238097338839811e-16
3 -9.055076161634961e-09 9.05507985303177e-09 -1.1172611700412466e-08
4 9.055071704479408e-09 -9.055080541848247e-09 -1.117261451185844e-08
5 1.094735334332714e-09 1.0105242749599422e-08 -2.4026131008708816e-15
8 8.930416989729236e-10 9.63989438836914e-10 -4.411555101717571e-10
21 1.0105242909590484e-08 1.0947344447640948e-09 -8.402583970599499e-16
23 9.639913752172752e-10 8.930454685333052e-10 -4.4115614219751363e-10
25 3.765318461633448e-09 3.765317361847567e-09 -5.782883008835556e-16
52 -1.2668007114783412e-09 -1.266805524644537e-09 2.430128816334557e-09
53 -7.64336419693953e-09 7.643366000808212e-09 -1.9971742751383784e-09
54 7.64336507139449e-09 -7.643362768011734e-09 -1.997173026963841e-09
58 -2.3726831904848816e-10 -1.7019822885521486e-09 -3.5657450893382124e-09
73 -1.701981297462484e-09 -2.3726683394062355e-10 -3.565746305758799e-09
75 3.3981879093207274e-09 3.3981891269626195e-09 4.526033116977368e-09
6 7.3441347828004445e-09 -4.326914634977631e-09 1.5632714363906043e-16
9 1.0442218253893848e-08 9.21355194186781e-09 3.7142962936897855e-16
12 3.3553581117490903e-09 -2.8357404968189493e-09 -7.903494168445435e-09
27 2.732781941249799e-10 -1.0359892835998203e-09 -3.857572849350407e-09
29 5.5201428195021734e-09 -7.53814447693879e-09 4.0486287590897293e-16
56 -1.1941374825780928e-09 -6.105598207015704e-10 2.8753864125245617e-09
57 -5.963388472529274e-09 -1.1529507676844718e-09 -2.8235611187770074e-09
59 5.410155409848612e-09 -2.3956066413215936e-09 -3.042106605930036e-09
62 8.29289274348176e-10 2.029919547902722e-09 7.073260559377689e-09
77 -3.764944851738213e-09 -4.3274185265423297e-10 9.37392504509489e-09
79 4.0035305484102845e-09 -3.1468585106179136e-10 -4.412625339326429e-09
11 -3.973173237494235e-09 -8.179469425644684e-10 -1.6799356823126474e-09
31 -3.2719342677217036e-09 -7.039357809298544e-10 6.25459377951517e-10
60 2.151197441855106e-09 -3.7452694590521175e-09 -7.916934704526152e-09
61 -3.1378077230923913e-09 -2.8516328070605375e-09 4.47952564860866e-09
81 -2.142181852580341e-09 -1.0143718012641369e-08 3.085048166628932e-09
10 2.1077420480913945e-10 -7.831833036683956e-09 -1.2255803800140402e-15
13 -2.107732522478566e-10 7.831830467056532e-09 8.842254062084356e-16
14 -1.0442219409333452e-08 -9.213551404190949e-09 1.0245090461735323e-15
15 -3.3553592206947657e-09 2.835739851969482e-09 -7.903496593119125e-09
16 3.97317498799877e-09 8.17943088123333e-10 -1.67993694682215e-09
33 -6.615361557568316e-10 1.6824799499394818e-09 3.859863624313381e-16
35 -3.945405096726667e-09 1.6699949978657316e-09 4.954758321371264e-09
63 -2.1511980994614942e-09 3.745266176182101e-09 -7.91693801304359e-09
64 -5.410153623078212e-09 2.3956032656323356e-09 -3.042103928217048e-09
65 -8.292866912201201e-10 -2.0299177354509837e-09 7.073262691747558e-09
66 3.137806349428682e-09 2.851630721070215e-09 4.479525947752252e-09
83 4.278193206799921e-09 -6.367420890597131e-09 -4.9335451924151e-09
85 3.448130707664019e-09 2.7396724443401716e-09 -2.340441737229602e-09
71 7.731143397626845e-09 5.1506684714231535e-09 -6.977837150769012e-10
17 -7.344132484302911e-09 4.326909763188757e-09 -6.96144311517691e-17
18 -1.0947346291812719e-09 -1.0105244238371205e-08 1.6414350082101346e-15
20 2.922215334352383e-09 -6.8887166942121126e-09 -1.2963825103035245e-09
37 9.743898934736673e-09 -2.4404963241098086e-09 9.211699069512604e-16
39 1.1358261370034414e-09 -1.1358286843420339e-09 -1.139499415924709e-08
67 1.1941372189263156e-09 6.105566036556807e-10 2.8753912187839336e-09
68 -5.150666415965476e-09 -7.731144327040565e-09 -6.977882929067704e-10
69 2.3726707942309133e-10 1.7019787742446813e-09 -3.565749521456996e-09
70 5.963382765885222e-09 1.1529506889322562e-09 -2.8235630184136483e-09
87 -2.4990970649635235e-10 2.9903889836363063e-09 -3.770592513834756e-09
89 -1.7099311397055177e-09 1.7099344158583521e-09 -1.1682983163236204e-10
22 -4.326914829775908e-09 7.344135142475005e-09 9.64162077286652e-16
28 -1.0359898734731119e-09 2.7327791507922604e-10 -3.85757196134284e-09
41 9.213552381537901e-09 1.0442217784912416e-08 -1.1907731644381558e-16
42 -2.8357410683900683e-09 3.3553592597765515e-09 -7.903496102077859e-09
43 -7.538145747096831e-09 5.520145512481484e-09 8.845307326608556e-16
72 -6.105591256521778e-10 -1.19413939346131e-09 2.8753868264540158e-09
74 -1.1529497387563363e-09 -5.963388414424591e-09 -2.823560223455303e-09
78 -4.327436569480518e-10 -3.764946106254276e-09 9.373923570986e-09
91 -2.3956053955896677e-09 5.410155444045175e-09 -3.042106009932801e-09
92 2.029919264559774e-09 8.292872433166144e-10 7.073262778490345e-09
93 -3.146845944526106e-10 4.0035295802201036e-09 -4.412624155881099e-09
252 -8.179399860065764e-10 -3.97317197710664e-09 -1.679936350824915e-09
254 -7.039372623738015e-10 -3.271934079640609e-09 6.254583711702644e-10
301 -3.745269307610198e-09 2.151198686976379e-09 -7.91693688066411e-09
302 -2.851633566712751e-09 -3.1378082561923773e-09 4.479526518712718e-09
304 -1.0143716900896171e-08 -2.1421855661610324e-09 3.085046319723813e-09
26 -1.107273388625635e-09 -1.107276220222681e-09 -4.885224729572457e-16
32 2.7307549689653943e-09 -1.3191593710759478e-09 3.926907784834521e-09
44 -1.319159108125952e-09 2.7307547742756518e-09 3.926908606773304e-09
45 1.0161809457532613e-08 1.0161810351833792e-08 -7.535456845726585e-16
76 2.4870079147416392e-09 2.487008407927336e-09 1.787285998524021e-09
82 -4.283819672068493e-09 -3.194948119583459e-10 -3.4477819082032982e-09
94 -3.1949512278067445e-10 -4.283818054143622e-09 -3.4477842002889767e-09
95 -2.5621966826530807e-09 -2.5621964213172986e-09 2.311717782403362e-09
30 3.3544376142305095e-09 -8.826669100777608e-11 -7.443858910000573e-16
46 -3.038995646704629e-10 -2.0879879615517627e-09 1.8563849162052492e-10
80 -4.354658485217106e-09 -2.1191762462818113e-09 -6.590006183223332e-09
253 -8.826740974624508e-11 3.3544366243026284e-09 -9.196432746891603e-16
256 -2.0879879052828404e-09 -3.038992223904528e-10 1.8563851909990566e-10
303 -2.119174986298335e-09 -4.354658032522644e-09 -6.59000541139317e-09
255 1.8117566415312506e-09 1.811757794319896e-09 9.575037547892452e-16
34 -5.764150029151838e-09 -8.939605036230694e-09 4.447712931232587e-16
36 3.2737427346189743e-09 -2.2308869345368364e-09 -3.6404116400528185e-10
47 -5.2442428460356444e-09 4.080516266038231e-09 1.0802449886621012e-15
48 -7.369523719497756e-10 7.369522251083443e-10 -1.3126216359771935e-10
84 1.4998105025402993e-09 -2.1102197781678004e-09 -3.535184430453237e-09
86 3.838758698573901e-10 -1.3500130003027224e-09 -1.6047660429124407e-09
96 8.242233656320951e-10 -1.0228831321779117e-09 -7.98274387713818e-09
97 -2.230556826593604e-09 4.929411819610759e-09 -5.885765131096797e-09
98 1.4545628799753624e-09 -1.454562265629999e-09 3.668615929888694e-09
257 -4.080516166427116e-09 5.244242918283716e-09 6.688457711254663e-16
258 5.425421779285529e-09 -5.425423490310332e-09 -5.964306543280076e-09
307 -4.929411996419902e-09 2.2305607312388857e-09 -5.885764976765829e-09
308 -8.665672599701688e-09 8.665667945305248e-09 -6.6677191314567336e-09
100 -2.7396726013704008e-09 -3.448127411647613e-09 -2.340442226643306e-09
99 2.1102239869421506e-09 -1.4998129690928093e-09 -3.535185323458269e-09
90 -3.216008128273836e-09 3.216008260174863e-09 2.6988225813202733e-10
88 -2.9903918739328367e-09 2.4991283029128706e-10 -3.770594775082462e-09
24 6.888717838595931e-09 -2.922214140220628e-09 -1.296382936539252e-09
38 2.4404978139502332e-09 -9.743900347787494e-09 1.5803697177261265e-15
40 7.3240274683244126e-09 -7.324023600487079e-09 -5.240123399553854e-09
49 8.939605087063976e-09 5.7641501195913e-09 1.7110494393619036e-15
50 -1.669998602549829e-09 3.945401494485182e-09 4.9547623436993106e-09
259 -1.6824790698282301e-09 6.61537460930331e-10 -1.0258968801313341e-16
260 2.2308838275241222e-09 -3.2737422827020385e-09 -3.6404230531556097e-10
309 6.3674208322842515e-09 -4.278197237416183e-09 -4.93354319007992e-09
310 1.3500123988096111e-09 -3.838765623377842e-10 -1.6047662505344284e-09
101 5.828304896087211e-09 5.828306408063804e-09 -2.5004357596343654e-10
102 -5.82830496936556e-09 -5.828305476818124e-09 -2.5004756230559935e-10
103 -5.2378782468258445e-09 5.237872662901185e-09 4.2654700812024573e-16
104 5.23787137820197e-09 -5.237878690770506e-09 -8.613259222769326e-16
105 -2.207003628920917e-09 -1.8095797497022514e-09 -1.0567612198181891e-10
108 -3.1343647758746775e-09 -9.622032774880754e-09 1.3005845759311914e-15
121 -1.8095814817151545e-09 -2.207005226388916e-09 -1.0567438650626335e-10
123 -9.622032696862021e-09 -3.1343646794296847e-09 8.597992900148324e-16
125 1.0089283625380904e-11 1.0087539437883662e-11 4.69194821742819e-10
151 5.828305956180655e-09 5.828305014553875e-09 2.500456106589155e-10
152 -5.828305628870698e-09 -5.82830691795898e-09 2.5004739987192667e-10
153 -2.2070019512292873e-09 -1.8095814919103446e-09 1.056719759361757e-10
161 -1.8095810408237573e-09 -2.2070016675037866e-09 1.0567200557058739e-10
163 1.0089302184100681e-11 1.0089224060148248e-11 -4.69197952191444e-10
106 -5.2160781634539755e-09 -9.109035370367404e-10 2.9340757428392515e-09
107 -5.994308952717732e-09 -1.4364893852306173e-09 2.1690391179919636e-15
109 8.499925134145358e-09 -5.818628695336492e-09 4.849997317988798e-09
112 -3.409597837362324e-09 -4.558672513810778e-09 7.480498084290978e-16
127 -5.942978332919517e-09 -1.4902046869881583e-08 3.7731117024232643e-16
129 5.30465671233446e-09 -2.062558356203891e-09 5.374173307001178e-09
154 -5.216077072298337e-09 -9.109064681706837e-10 -2.934078107287299e-09
155 8.499924878510787e-09 -5.818620717766943e-09 -4.849999804567427e-09
165 5.304659016488473e-09 -2.0625575949895627e-09 -5.374172967184558e-09
110 5.103624431546116e-09 -9.100286179808018e-11 3.6386162587603134e-09
111 -9.112649063505697e-09 -6.560099544318665e-09 4.940182000156246e-16
131 -4.244782877963204e-10 -2.7991385739742085e-10 1.8075325983266363e-16
156 5.10362419554949e-09 -9.100304743656325e-11 -3.63861502592843e-09
113 -5.103623476078268e-09 9.100570499800511e-11 3.6386149276133126e-09
114 -8.499921576109419e-09 5.818622378742844e-09 4.849998744397652e-09
115 3.4095953813088863e-09 4.558671901164698e-09 -3.3116930646107526e-16
116 9.112648515099657e-09 6.560097941965443e-09 -1.4716735006645923e-16
133 -2.7331671837767737e-09 -3.2487447215800668e-09 -4.470001816632157e-09
135 2.134521315347648e-09 -8.956619928698237e-09 -4.1855454220367267e-16
157 -5.103624456252512e-09 9.100522136090448e-11 -3.6386158655761744e-09
158 -8.49992201910888e-09 5.8186249288293746e-09 -4.850000439035795e-09
167 -2.7331678228176793e-09 -3.248745730398941e-09 4.470004501675832e-09
117 5.216073832703574e-09 9.109059002634821e-10 2.934074033011118e-09
118 2.207008755962706e-09 1.809581287871023e-09 -1.056698563776888e-10
119 3.1343706784838217e-09 9.622040229876255e-09 2.1250721088434777e-16
120 5.994308152542974e-09 1.4364891501292488e-09 6.161487809836405e-16
137 5.451159632314979e-10 4.818412384346205e-09 -1.8286791142979842e-09
139 5.543284300294642e-09 -5.543283191437523e-09 -1.0887941293298624e-15
159 5.21607889379485e-09 9.109074823506611e-10 -2.9340716795548226e-09
160 2.2070029341505747e-09 1.8095790836811972e-09 1.0567082823178686e-10
169 5.451169169648264e-10 4.818410205053399e-09 1.8286828755613655e-09
122 -9.109059405665739e-10 -5.216076618807452e-09 2.9340735231159426e-09
124 -1.4364909387316072e-09 -5.994310601578375e-09 6.406899909376286e-16
128 -1.490204512691718e-08 -5.942978516419029e-09 8.557771581651121e-16
141 -5.818623321590929e-09 8.49992397390484e-09 4.849996636500156e-09
142 -4.5586712925049685e-09 -3.4095934131474405e-09 -4.3600617405581697e-16
143 -2.0625574598808184e-09 5.3046587066711634e-09 5.3741739976496125e-09
162 -9.109077920661814e-10 -5.216078512730739e-09 -2.9340759150433707e-09
171 -5.81862240316896e-09 8.499921784714175e-09 -4.849993669948345e-09
172 -2.0625563751164617e-09 5.3046579368943335e-09 -5.374174581041696e-09
351 -9.100593460349732e-11 5.103623601872766e-09 3.638619858635519e-09
352 -6.560089453890065e-09 -9.11264345702266e-09 -9.917003174602896e-16
354 -2.799121674333969e-10 -4.244850423194714e-10 -1.3776893820605487e-15
401 -9.100782518489071e-11 5.103623551493902e-09 -3.6386168334610285e-09
126 -2.2888700143169146e-09 -2.2888714701134395e-09 4.683474974809971e-09
132 3.160936201557883e-09 -7.639321605095058e-09 -4.002829791226723e-16
144 -7.639325108716099e-09 3.160936962126076e-09 -8.549140667761118e-17
145 -5.8346469756391875e-09 -5.834650469795109e-09 -4.575579350842571e-09
164 -2.2888702881522436e-09 -2.288871448129935e-09 -4.6834766162449796e-09
173 -5.834647516067008e-09 -5.8346455763280556e-09 4.5755795585408895e-09
146 3.170349109232908e-09 -1.8433968493177063e-08 -1.0014707639377309e-15
356 -1.8433966076212865e-08 3.170350343362429e-09 7.248449980451747e-16
355 4.61060483456701e-09 4.610603739666351e-09 -4.627729228336722e-09
403 4.6105992058738595e-09 4.610603952364391e-09 4.62773173239529e-09
130 3.4224229177980026e-09 -1.1160829185588834e-09 1.5274666032706116e-09
134 -2.4496712965524087e-09 7.943505946174957e-09 1.6725404293645486e-09
136 -1.0252172683321071e-08 4.094229911182618e-09 -1.0145802153260277e-15
147 -7.299849909579423e-09 -7.3373276272482045e-09 5.067704091801162e-09
148 1.2617709341773186e-09 -1.2617710724646428e-09 -3.4613516653371493e-17
166 3.422422492852162e-09 -1.1160857970426491e-09 -1.5274648805212653e-09
168 -2.4496705193511547e-09 7.943507275671174e-09 -1.6725389050828147e-09
174 -7.2998463349088746e-09 -7.337326062755462e-09 -5.0677007417593265e-09
357 7.337332799478309e-09 7.299848202804554e-09 5.067705293566079e-09
358 4.0786176789852636e-10 -4.07862315654182e-10 -7.57209602001699e-16
404 7.3373261205217955e-09 7.299845308615111e-09 -5.067700633063109e-09
138 -4.818411679975969e-09 -5.451170000136214e-10 -1.8286771525223413e-09
140 4.092349968230959e-10 -4.092341361078265e-10 -1.0161264336538927e-15
149 -7.943507726723211e-09 2.449672574472869e-09 1.6725399378136618e-09
150 8.956616730186665e-09 -2.134527429110682e-09 -1.91378620376881e-15
170 -4.818410196089411e-09 -5.451165444665544e-10 1.828681447244221e-09
175 -7.94350834470395e-09 2.449670381007635e-09 -1.6725393503655672e-09
359 3.248746718968768e-09 2.733162980950168e-09 -4.470007209348921e-09
360 -4.094234287989457e-09 1.0252173292438628e-08 -1.965081047775377e-15
405 3.2487450366200153e-09 2.733168410265145e-09 4.470009449223776e-09
176 -7.643366468568337e-09 7.643367032506294e-09 1.9971733634335917e-09
177 7.643366600469364e-09 -7.643366775421422e-09 1.997177069486071e-09
179 -2.3726747372954366e-10 -1.7019823768267288e-09 3.5657515993756235e-09
186 -1.70198047674498e-09 -2.372684936952189e-10 3.565747267537124e-09
202 -1.2668039772500763e-09 -1.2668040969380457e-09 -2.430130073058235e-09
203 -9.05507820915415e-09 9.055071484644362e-09 1.1172611881165727e-08
204 9.055076054770702e-09 -9.055076374752825e-09 1.1172612865538209e-08
208 8.930435101694393e-10 9.639902363496078e-10 4.4115603533325527e-10
223 9.639888226881331e-10 8.930454410539245e-10 4.411552555294958e-10
225 3.398188270827247e-09 3.398187974660588e-09 -4.526034868458708e-09
178 -5.963389582450935e-09 -1.1529509698325925e-09 2.8235643075019304e-09
181 8.292886123479491e-10 2.0299183510230287e-09 -7.073262696930016e-09
188 -3.7649450522550176e-09 -4.327417067200625e-10 -9.373922014210875e-09
206 -1.1941412551446279e-09 -6.10559254406837e-10 -2.8753901741459985e-09
209 5.410156007067153e-09 -2.3956078235456174e-09 3.042105130592618e-09
212 3.3553622568610084e-09 -2.835741538592805e-09 7.903494195619488e-09
227 2.7327609007835423e-10 -1.0359876079687771e-09 3.857575006875341e-09
229 4.003528178771687e-09 -3.14685066296477e-10 4.4126252651321005e-09
180 -3.137807226726994e-09 -2.8516320449657124e-09 -4.479528077709584e-09
190 -2.1421805588916737e-09 -1.014371692458849e-08 -3.0850524540597824e-09
210 2.1511984298915058e-09 -3.7452705484569e-09 7.91693957081915e-09
211 -3.973174053326516e-09 -8.179386083736231e-10 1.6799375873970472e-09
231 -3.2719344246595e-09 -7.039373893896058e-10 -6.254594340974438e-10
182 -8.292872904466894e-10 -2.0299177305070207e-09 -7.073261244805576e-09
183 3.137803094284335e-09 2.851628766980919e-09 -4.479527268670817e-09
192 3.448132054662141e-09 2.7396754046274237e-09 2.340440851230809e-09
213 -2.151196214271021e-09 3.745273645688434e-09 7.916938570569692e-09
214 -5.410153488492683e-09 2.3956001272047444e-09 3.042106721315705e-09
215 -3.3553601098053948e-09 2.835741806058777e-09 7.903492908363166e-09
216 3.9731734947374365e-09 8.179402302677384e-10 1.6799345777942058e-09
233 4.278193237344711e-09 -6.367417111051173e-09 4.933545239684253e-09
235 -3.945403526738049e-09 1.6699972945313067e-09 -4.95475925919339e-09
221 7.731144524892106e-09 5.15066800610564e-09 6.97789161296945e-10
184 2.3726429850976267e-10 1.7019811753319032e-09 3.565745445959509e-09
185 5.9633884675513945e-09 1.1529497363137247e-09 2.8235616371692556e-09
194 -1.7099352523269667e-09 1.709933373037024e-09 1.1682654135504837e-10
217 1.1941362791314953e-09 6.105621093022708e-10 -2.8753905410556358e-09
218 -5.150667725205304e-09 -7.731145005475942e-09 6.977825955569122e-10
220 2.922213751540054e-09 -6.888716742302818e-09 1.2963823747385797e-09
237 -2.4991374627064434e-10 2.9903894214959073e-09 3.7705937409417675e-09
239 1.1358308312449841e-09 -1.1358286872903426e-09 1.139499477539587e-08
187 -1.1529515609446044e-09 -5.963385111708356e-09 2.8235584800412593e-09
189 -4.327422042378881e-10 -3.764946692714077e-09 -9.373922698201241e-09
196 2.029916968504852e-09 8.292891271808259e-10 -7.073262241573778e-09
222 -6.105599121731192e-10 -1.1941390246269553e-09 -2.8753863648004197e-09
228 -1.0359895021961458e-09 2.7327513111263287e-10 3.857571358323096e-09
241 -2.395601760983578e-09 5.41015408717442e-09 3.042107035829681e-09
242 -2.835743264297914e-09 3.355359416103695e-09 7.903493995630663e-09
243 -3.1468692394077933e-10 4.0035322118287965e-09 4.41262544680134e-09
426 -2.851630410858539e-09 -3.1378069445099376e-09 -4.47952875370235e-09
427 -1.0143715425456482e-08 -2.14218190615148e-09 -3.0850460695634623e-09
451 -3.745268745809525e-09 2.1511970284430893e-09 7.91693871712639e-09
452 -8.179388795035129e-10 -3.9731742414076105e-09 1.6799375996101053e-09
454 -7.039377289126208e-10 -3.27193479044059e-09 -6.254599167370155e-10
191 -4.283819199728471e-09 -3.194951459854848e-10 3.4477826993041367e-09
197 -3.1949478395909977e-10 -4.283816872858331e-09 3.4477821678056236e-09
226 2.4870088791214635e-09 2.4870052651879325e-09 -1.7872877964953766e-09
232 2.730756105571514e-09 -1.3191582906377447e-09 -3.926908435790438e-09
244 -1.3191584445222768e-09 2.7307563351044767e-09 -3.92690442731232e-09
245 -2.562195180191285e-09 -2.5621968402512066e-09 -2.311719466234618e-09
230 -4.354658138648428e-09 -2.1191746136122385e-09 6.590008559670948e-09
246 -3.0389972999567994e-10 -2.0879918911032053e-09 -1.8563908051892005e-10
453 -2.1191773810912035e-09 -4.354657924003931e-09 6.590005999813971e-09
456 -2.087987791905647e-09 -3.0389831003684715e-10 -1.8563986070433759e-10
193 3.8387567731089607e-10 -1.3500154194042049e-09 1.6047654136346222e-09
198 8.242222035596171e-10 -1.0228824580171049e-09 7.982744822428876e-09
199 1.454559370443578e-09 -1.4545601484153786e-09 -3.6686221066413545e-09
234 1.499811528677449e-09 -2.1102217713022627e-09 3.5351876926051837e-09
236 3.273741858404332e-09 -2.2308869251891396e-09 3.640399381735442e-10
247 -2.2305569138808633e-09 4.929411691374618e-09 5.8857668648405796e-09
248 -7.369526504700973e-10 7.369530104079799e-10 1.3125923429573483e-10
429 -8.665666103501594e-09 8.665666602666611e-09 6.667712842651856e-09
457 -4.9294125892303606e-09 2.230560505289229e-09 5.885768119719217e-09
458 5.425423694497397e-09 -5.425422223205555e-09 5.9643051620595375e-09
250 -1.6699964310680993e-09 3.945403308734961e-09 -4.954763687441028e-09
249 2.1102249750155325e-09 -1.4998126450619528e-09 3.535189087233251e-09
240 7.324021943785748e-09 -7.324024211750637e-09 5.240121406382773e-09
238 -2.9903909933713476e-09 2.499147251472508e-10 3.770592167594559e-09
224 6.888718535961549e-09 -2.9222135573524303e-09 1.296379844192942e-09
195 -3.216009307444595e-09 3.2160068578104674e-09 -2.698852295189697e-10
200 -2.739672899063692e-09 -3.4481310405288317e-09 2.340440791914306e-09
430 1.3500136635264045e-09 -3.8387513389255696e-10 1.604764088648492e-09
459 6.3674164581982164e-09 -4.278198086001963e-09 4.933548509404919e-09
460 2.230888231552872e-09 -3.2737428227752394e-09 3.6403925937887166e-10
251 -7.83183246999806e-09 2.1077289068408823e-10 -2.8704503108139e-16
261 7.831829402077867e-09 -2.1077288946278242e-10 5.007353819688654e-16
262 -9.213552059113167e-09 -1.0442220444916469e-08 7.755291891469014e-17
263 8.179416372120311e-10 3.973173411530313e-09 -1.679936138928357e-09
264 2.835739964329616e-09 -3.3553607943473014e-09 -7.903495700573573e-09
265 1.6824802605119436e-09 -6.615369057351198e-10 -1.5138817075099915e-16
268 1.66999802167818e-09 -3.945404521101251e-09 4.9547617828763204e-09
311 3.7452667917202294e-09 -2.1511976061207372e-09 -7.916937606959409e-09
312 2.3956046139539493e-09 -5.410154468832485e-09 -3.042104143166871e-09
313 2.851632386931339e-09 3.137808239094096e-09 4.479523646201454e-09
314 -2.0299207960772595e-09 -8.292874900203881e-10 7.073262007846379e-09
315 -6.367420367738999e-09 4.278194164493852e-09 -4.9335448773900604e-09
318 2.7396705803048855e-09 3.4481292553995616e-09 -2.3404414634209867e-09
266 -8.939603948196309e-09 -5.7641487737122976e-09 -7.409891342168844e-16
267 -2.2308871160092828e-09 3.273743071088725e-09 -3.6404015459603015e-10
269 4.080517936784578e-09 -5.24424179723928e-09 8.7201234811163395e-16
272 7.369525475330781e-10 -7.369543526230648e-10 -1.3126318949459948e-10
306 -1.0228842447875044e-09 8.242241075753745e-10 -7.982746796059065e-09
316 -2.1102234459406588e-09 1.499812259503819e-09 -3.5351871813473696e-09
317 -1.3500120086024048e-09 3.838757761221692e-10 -1.6047656774366771e-09
319 4.92941171702204e-09 -2.230560456278364e-09 -5.885763669904581e-09
322 -1.454559573566771e-09 1.454560704720175e-09 3.668618658284401e-09
270 5.244241037167243e-09 -4.0805160767358305e-09 4.2946983242815497e-16
271 -5.425423796547993e-09 5.425422516547944e-09 -5.964307930683477e-09
320 2.2305603059164167e-09 -4.9294107326495575e-09 -5.885767036243216e-09
321 8.665667883018652e-09 -8.665670734767717e-09 -6.667718340050569e-09
273 -1.811757479222997e-09 -1.8117573931209375e-09 -1.0307821033700548e-15
274 -1.016181129370522e-08 -1.0161807511731944e-08 1.0690068731119797e-15
275 2.087993230250788e-09 3.0389849539819955e-10 1.8563933933104402e-10
276 3.0389870684673787e-10 2.0879935771158753e-09 1.8563940057737378e-10
305 7.255858408707722e-09 7.25585931548912e-09 3.763173714288011e-09
323 -7.255858011134515e-09 -7.255859005888097e-09 3.7631752940470756e-09
324 2.562195899845733e-09 2.5621952403405957e-09 2.3117181095546927e-09
325 1.0228848764730484e-09 -8.242215892677853e-10 -7.98274788228509e-09
326 -8.242215813043072e-10 1.022884451188186e-09 -7.982742388366398e-09
277 8.826795994451234e-11 -3.3544368310086367e-09 1.2151992806317589e-15
278 7.538144798142218e-09 -5.520151226971367e-09 2.393759386973113e-16
279 7.03941391608744e-10 3.2719362761591073e-09 6.254571787725933e-10
280 1.3191574247063575e-09 -2.730756451589649e-09 3.926905524522986e-09
327 2.1191735310773015e-09 4.354658289785021e-09 -6.590005717081676e-09
328 3.1468719537599556e-10 -4.003532924537069e-09 -4.4126225584131e-09
329 1.014371745492384e-08 2.1421864625634554e-09 3.085046173246541e-09
330 3.194936138573466e-10 4.283814505028939e-09 -3.4477811921746016e-09
281 4.3269181486744456e-09 -7.344132666277476e-09 3.052959197747979e-15
282 -1.0105243288195284e-08 -1.0947363390094054e-09 -1.1065030635702247e-15
283 -6.888718457797977e-09 2.9222191387199804e-09 -1.2963827524274013e-09
285 -2.440493219245114e-09 9.74390135597544e-09 6.692755837047275e-16
288 -1.1358276712688648e-09 1.1358256619154814e-09 -1.1394993662175625e-08
331 6.105603323023177e-10 1.1941373831919472e-09 2.8753891640333355e-09
332 -7.73114526988865e-09 -5.150668023203922e-09 -6.977867089148792e-10
333 1.1529535638861323e-09 5.9633865971215465e-09 -2.8235596524948367e-09
334 1.7019800053209375e-09 2.372697809515423e-10 -3.565748679977293e-09
335 2.9903898390846942e-09 -2.499136207814724e-10 -3.770594684095179e-09
338 1.7099354123293954e-09 -1.7099353596224167e-09 -1.168248572537992e-10
55 5.150666635800521e-09 7.731145867412517e-09 -6.977870890463124e-10
341 -3.838762391912732e-10 1.3500120587066546e-09 -1.6047641744717995e-09
340 -4.278197008443195e-09 6.367426360422186e-09 -4.9335466214807456e-09
286 -9.743903110046092e-09 2.4404960069656643e-09 -1.0030421217543849e-15
287 -7.324027763890929e-09 7.324024009245448e-09 -5.240120736807487e-09
289 5.7641521824972405e-09 8.939601345712897e-09 -1.469230889045232e-15
292 3.9454059812573995e-09 -1.6699920059718242e-09 4.954763490200139e-09
336 2.4991218837708317e-10 -2.990390133465956e-09 -3.770594543580746e-09
337 3.2160096384646858e-09 -3.2160048525735495e-09 2.6988335636818714e-10
339 -1.4998131327532015e-09 2.110220856262322e-09 -3.5351855441531825e-09
342 -3.4481289175176764e-09 -2.7396714093759305e-09 -2.3404383941856752e-09
290 6.615374957375466e-10 -1.682477941341662e-09 -1.9785154116818587e-16
291 -3.2737412119654044e-09 2.230883473953258e-09 -3.640413480944158e-10
7 -2.922213967297471e-09 6.888717582597014e-09 -1.2963808988661508e-09
346 2.142186336768957e-09 1.0143717955659222e-08 3.0850469316774486e-09
345 4.283813927200342e-09 3.194933824496754e-10 -3.447781196877233e-09
344 -4.003531410835871e-09 3.146881367984908e-10 -4.412624742130325e-09
343 4.354658887066066e-09 2.119173565629134e-09 -6.590007802113101e-09
296 3.2719351075984425e-09 7.039423775078589e-10 6.254592165213368e-10
295 -2.730755755174822e-09 1.3191568624743258e-09 3.926905891888473e-09
294 -5.52014509968012e-09 7.53815017188778e-09 2.2130061271404494e-15
293 -3.35443694177267e-09 8.826539100153884e-11 8.943774734801064e-16
350 3.764947234550015e-09 4.327433056699683e-10 9.373920731449992e-09
349 4.3274221962377707e-10 3.764945975574554e-09 9.373921856883297e-09
348 -3.3981907039737463e-09 -3.398189945657336e-09 4.526037248335283e-09
347 -2.4870040397022985e-09 -2.487004133590183e-09 1.787286025715127e-09
300 -2.7327874007130047e-10 1.0359881251738453e-09 -3.857574044937065e-09
299 1.035987787482789e-09 -2.732729150532412e-10 -3.857572046757915e-09
298 -3.765321803126143e-09 -3.765314461856921e-09 5.3737455625927024e-17
297 1.1072741099563972e-09 1.1072742826948375e-09 -1.1297078739541476e-16
284 -9.639911337040515e-10 -8.930458526339823e-10 -4.4115760165795617e-10
51 1.2668020041920767e-09 1.2668016133681797e-09 2.4301285682258045e-09
19 -8.930391293455e-10 -9.63983237961992e-10 -4.411578795813595e-10
361 9.100430293893559e-11 -5.10362516880812e-09 3.638617729899493e-09
362 5.818625270795002e-09 -8.499923031667407e-09 4.849996798933829e-09
363 6.5600944441456036e-09 9.112644898163516e-09 -7.034721463757719e-16
364 4.558668991564823e-09 3.4095965396903133e-09 5.691285073109544e-16
365 -3.2487446287599308e-09 -2.7331628700127533e-09 -4.470003905064943e-09
368 -8.956615614205661e-09 2.1345242402304497e-09 1.9260344459685274e-16
406 9.100600299662268e-11 -5.103626541555851e-09 -3.638615810617413e-09
407 5.818622618118783e-09 -8.499922291556086e-09 -4.849994588370313e-09
408 -3.2487443544121866e-09 -2.7331629039541196e-09 4.470005489382008e-09
353 -1.1160846131206944e-09 3.422423086564045e-09 1.527467264149718e-09
366 7.943506996077011e-09 -2.449673477017862e-09 1.6725427840668511e-09
367 4.0942330764540946e-09 -1.0252172222880066e-08 -1.2445106200640826e-15
369 -7.337329685148494e-09 -7.299848532862449e-09 5.067703584959251e-09
372 -1.2617740378220492e-09 1.2617742075835567e-09 -7.928089071487299e-18
402 -1.1160829765709093e-09 3.4224214793255995e-09 -1.5274650656465973e-09
409 7.943505434332207e-09 -2.4496719467216827e-09 -1.6725406989925076e-09
410 -7.337325894215261e-09 -7.299848995737351e-09 -5.06770057444043e-09
370 7.299850053693509e-09 7.337328116991834e-09 5.067701660486621e-09
371 -4.0786139906417186e-10 4.0786073223119973e-10 -1.1999329580107569e-15
411 7.2998473860562935e-09 7.337328395449559e-09 -5.067704461246169e-09
373 -4.6106057734458504e-09 -4.610599984456313e-09 -4.627728361209597e-09
374 5.834649191087926e-09 5.834650410256451e-09 -4.575582091261978e-09
375 1.843396827140361e-08 -3.1703509127654207e-09 -9.601748953567273e-16
376 -3.1703509047335868e-09 1.843396909772344e-08 4.0219167943454764e-16
412 -4.6105996485972155e-09 -4.610603164736641e-09 4.627732472124952e-09
413 5.834643307810639e-09 5.834645187952808e-09 4.575583367450218e-09
377 1.1160800613139417e-09 -3.422422497283992e-09 1.5274674172709339e-09
378 2.0625582021965126e-09 -5.304657644313974e-09 5.374175365754551e-09
379 2.7991305947861907e-10 4.244850858472756e-10 -5.740137305496751e-16
380 7.639328142134405e-09 -3.160935826311673e-09 -1.8547818668386374e-15
414 1.1160847144890765e-09 -3.422423429865475e-09 -1.5274648726802792e-09
415 2.062558561184089e-09 -5.304653239063918e-09 -5.374175660089251e-09
381 9.109069957747935e-10 5.216077368994546e-09 2.934073044974718e-09
382 1.8095816417062155e-09 2.2070021181656305e-09 -1.0567026215654406e-10
383 1.4364890579206603e-09 5.994312809382026e-09 1.2453514791253403e-16
384 9.62204120203568e-09 3.1343699725690636e-09 -2.088432934553073e-16
385 4.818409219834318e-09 5.451207931424212e-10 -1.8286806985035146e-09
388 -5.543282121158729e-09 5.543282147393212e-09 1.193826428962356e-15
416 9.109071960689462e-10 5.216073482188807e-09 -2.9340710011194453e-09
417 1.8095783441805294e-09 2.2070031860830635e-09 1.0567062671632826e-10
418 4.818412155684422e-09 5.451170443073139e-10 1.828678198389051e-09
421 2.7331662920712303e-09 3.2487477578801883e-09 4.470003598558295e-09
386 -5.451189073879697e-10 -4.818411213131823e-09 -1.8286824908500355e-09
387 -4.0923569736027683e-10 4.092325079197821e-10 8.555247196809518e-16
389 2.4496703782598456e-09 -7.943507479662752e-09 1.6725382395309627e-09
392 -2.1345200454010832e-09 8.956620202969736e-09 -4.769199186801024e-16
419 -5.451233130918405e-10 -4.8184118160752356e-09 1.8286775054797204e-09
420 2.4496723443960997e-09 -7.943509361773572e-09 -1.6725406718772301e-09
390 2.733160865343179e-09 3.248749085248774e-09 -4.470004090133884e-09
391 1.025217286252592e-08 -4.094233260925837e-09 2.017552826114377e-15
423 -5.304657264390515e-09 2.062558607173886e-09 -5.3741796787960175e-09
422 -3.4224234292195274e-09 1.1160810260848536e-09 -1.5274698306269342e-09
396 4.244835298511961e-10 2.799133544239721e-10 1.8234095738524782e-15
395 -3.160937339762867e-09 7.639325350022579e-09 5.980346332190216e-16
394 -5.304657304790959e-09 2.062559632956269e-09 5.3741745279387656e-09
393 -3.422421605621743e-09 1.1160801781888226e-09 1.527464553476531e-09
425 -1.0091177565365265e-11 -1.0091186419832386e-11 -4.691892947233772e-10
424 2.2888748561837968e-09 2.2888737102172896e-09 -4.683476889206828e-09
400 5.942971845204168e-09 1.4902041932058707e-08 7.382793619516565e-16
399 1.490203935998867e-08 5.9429731984110055e-09 4.811944890139829e-16
398 -1.008927568689314e-11 -1.0090349825352755e-11 4.691922588325773e-10
397 2.288872655390728e-09 2.288868741105608e-09 4.683478617659875e-09
431 2.8516303400228023e-09 3.1378077157645566e-09 -4.479527604148256e-09
432 -2.0299147970231225e-09 -8.292870894320824e-10 -7.073265134999905e-09
434 2.7396737265150754e-09 3.4481292175003007e-09 2.3404417452657777e-09
461 3.745273748278121e-09 -2.1511973410973766e-09 7.916939076190297e-09
462 2.395602293472911e-09 -5.410152581304357e-09 3.042106656614227e-09
463 8.179398296794328e-10 3.9731734597718925e-09 1.6799372054336552e-09
464 2.8357423764085905e-09 -3.355360473754526e-09 7.90349290103533e-09
465 -6.367418434757631e-09 4.278193565501328e-09 4.933544383908289e-09
468 1.6699983646660836e-09 -3.945403587601701e-09 -4.954763143344705e-09
428 -1.0228822674933984e-09 8.242221290599628e-10 7.982743815462236e-09
433 -1.35001553084836e-09 3.83876528446548e-10 1.6047649617514728e-09
436 -1.4545596241698598e-09 1.4545587549054499e-09 -3.6686205097840083e-09
466 -2.11022541071638e-09 1.4998120885210056e-09 3.5351845320679076e-09
467 -2.2308875537281477e-09 3.273742313879123e-09 3.640409710389639e-10
469 4.929414440533995e-09 -2.230560439180083e-09 5.885767310006547e-09
472 7.369540949275389e-10 -7.369521738135003e-10 1.3126465597755047e-10
435 8.665665428193974e-09 -8.66566663606542e-09 6.667714190053427e-09
470 2.2305608309139212e-09 -4.929416850781011e-09 5.885766700574947e-09
471 -5.4254232319278215e-09 5.4254231723891635e-09 5.964304707657445e-09
437 1.0228825193690115e-09 -8.242219071309039e-10 7.98274102900154e-09
438 -8.242211996462417e-10 1.0228833080459483e-09 7.982744819604606e-09
455 7.255856457633526e-09 7.2558588807042514e-09 -3.7631705095815665e-09
473 -7.255858450804607e-09 -7.25585676540259e-09 -3.763169191181945e-09
474 2.5621960640664897e-09 2.5621977720763763e-09 -2.3117196373679514e-09
475 2.0879873028154576e-09 3.038990378041384e-10 -1.8564057773503218e-10
476 3.038994982529026e-10 2.087987350898858e-09 -1.8564013549814476e-10
439 1.0143715513047603e-08 2.142181721454302e-09 -3.0850523933570297e-09
440 3.194959398342611e-10 4.28381837962162e-09 3.447786353735723e-09
477 2.11917545264933e-09 4.354659343466609e-09 6.590008059546219e-09
478 3.146804299524628e-10 -4.0035315034714274e-09 4.4126280542892434e-09
479 7.039358713064843e-10 3.2719392268339437e-09 -6.254584874017683e-10
480 1.3191616663014346e-09 -2.730755315164593e-09 -3.926909562770646e-09
441 1.152948483253964e-09 5.963385887542871e-09 2.82355831184455e-09
442 1.7019808736693681e-09 2.3726842163817614e-10 3.5657452358949097e-09
444 1.7099368161715237e-09 -1.7099310777916343e-09 1.1682750153193772e-10
481 6.105654788849996e-10 1.1941374784538002e-09 -2.8753838635661215e-09
482 -7.731148001949746e-09 -5.1506680207613096e-09 6.977907880762835e-10
483 -6.88872104208107e-09 2.922215267180564e-09 1.296376769555566e-09
485 2.990389107866007e-09 -2.4991643100614044e-10 3.770594946370602e-09
488 -1.1358304607313341e-09 1.1358316185292416e-09 1.1394998682658483e-08
205 5.15066964998326e-09 7.73114468732578e-09 6.977831252983071e-10
491 -3.2737440598778773e-09 2.2308895303539044e-09 3.6404174550457354e-10
490 -4.278200610526945e-09 6.367418753031833e-09 4.933544430243515e-09
443 3.216007524873552e-09 -3.216007304856809e-09 -2.698839333855366e-10
446 -3.4481283380315213e-09 -2.7396728011296545e-09 2.340448704141683e-09
486 2.499163112215639e-10 -2.9903873484970815e-09 3.770588747658784e-09
487 -7.324025846592577e-09 7.324022574673547e-09 5.240123192485238e-09
489 -1.4998123544040847e-09 2.1102268638248994e-09 3.5351878255806305e-09
492 3.9454056490908435e-09 -1.6699984665268943e-09 -4.9547645594533755e-09
445 -3.838767688296316e-10 1.3500143127610757e-09 1.6047646407052363e-09
207 -2.9222155569288074e-09 6.888717225774601e-09 1.2963838585252886e-09
496 3.2719355890433948e-09 7.039358993583521e-10 -6.254583842014274e-10
495 -2.730756308897016e-09 1.3191576557579388e-09 -3.926909263456066e-09
494 -4.003533132316341e-09 3.14684408128483e-10 4.41262496083879e-09
493 4.354663319252776e-09 2.119176149818155e-09 6.590006479237049e-09
448 2.142184163428614e-09 1.0143717625063578e-08 -3.0850464313250667e-09
447 4.283817311066922e-09 3.194922981639565e-10 3.4477873474794398e-09
500 -2.7327321915838783e-10 1.0359877838188715e-09 3.857574883927642e-09
499 1.0359818348382725e-09 -2.7327772699813135e-10 3.857568423219909e-09
498 -3.3981928604944796e-09 -3.398191913982477e-09 -4.526035991000952e-09
497 -2.487005003465246e-09 -2.487007298298862e-09 -1.7872839104134647e-09
450 3.764951843338316e-09 4.3274160042173156e-10 -9.373924294335673e-09
449 4.3273914193313664e-10 3.7649495564431875e-09 -9.373929452184127e-09
484 -9.639825619692261e-10 -8.930394090245304e-10 4.4115464731920256e-10
201 1.2668087049248655e-09 1.266808156558557e-09 -2.4301270991785886e-09
219 -8.930419777359746e-10 -9.63992831319127e-10 4.411602109778186e-10
