LAMMPS (12 Jun 2025)
  using 8 OpenMP thread(s) per MPI task
Reading data file ...
  triclinic box = (-0.01780021 -0.022767288 -0.01686398) to (17.3678 17.372767 17.366864) with tilt (1.0651693e-15 1.0644463e-15 1.0644463e-15)
  1 by 1 by 1 MPI processor grid
  reading atoms ...
  500 atoms
  reading velocities ...
  500 velocities
  read_data CPU = 0.004 seconds

This is the PET-MAD v1.0.2 model
================================

A universal interatomic potential for advanced materials modeling

Model authors
-------------

- Arslan Mazitov (arslan.mazitov@epfl.ch)
- Filippo Bigi
- Matthias Kellner
- Paolo Pegolo
- Davide Tisi
- Guillaume Fraux
- Sergey Pozdnyakov
- Philip Loche
- Michele Ceriotti (michele.ceriotti@epfl.ch)

Model references
----------------

Please cite the following references when using this model:
- about this specific model:
  * http://arxiv.org/abs/2503.14118
- about the architecture of this model:
  * LLPR (uncertainty method):
    https://iopscience.iop.org/article/10.1088/2632-2153/ad805f
  * LPR (if using per-atom uncertainty):
    https://pubs.acs.org/doi/10.1021/acs.jctc.3c00704
  * https://arxiv.org/abs/2305.19302v3

WARNING: the model declared support for unknown device 'cuda', it will be ignored (src/ML-METATOMIC/pair_metatomic.cpp:216)
Running simulation on cpu device with float32 data

CITE-CITE-CITE-CITE-CITE-CITE-CITE-CITE-CITE-CITE-CITE-CITE-CITE

Your simulation uses code contributions which should be cited:
- LLPR (uncertainty method): https://iopscience.iop.org/article/10.1088/2632-2153/ad805f
- LPR (if using per-atom uncertainty): https://pubs.acs.org/doi/10.1021/acs.jctc.3c00704
- https://arxiv.org/abs/2305.19302v3
- http://arxiv.org/abs/2503.14118
The log file lists these citations in BibTeX format.

CITE-CITE-CITE-CITE-CITE-CITE-CITE-CITE-CITE-CITE-CITE-CITE-CITE

Neighbor list info ...
  update: every = 1 steps, delay = 0 steps, check = yes
  max neighbors/atom: 2000, page size: 100000
  master list distance cutoff = 11
  ghost atom cutoff = 11
  binsize = 5.5, bins = 4 4 4
  1 neighbor lists, perpetual/occasional/extra = 1 0 0
  (1) pair metatomic, perpetual
      attributes: full, newton on, ghost
      pair build: full/bin/ghost
      stencil: full/ghost/bin/3d
      bin: standard
Setting up cg style minimization ...
  Unit style    : metal
  Current step  : 0
WARNING: Energy due to 3 extra global DOFs will be included in minimizer energies
 (src/min.cpp:222)
Per MPI rank memory allocation (min/avg/max) = 19.79 | 19.79 | 19.79 Mbytes
   Step          Temp          PotEng         Press           Pxx            Pyy            Pzz            Pxy            Pxz            Pyz             Lx             Ly             Lz           Volume    
         0   0             -3820.5581     -0.10583766    -89.512561      247.36838     -158.17333     -1204.0876      74.596231     -810.10773      17.3856        17.395535      17.383728      5257.3924    
Loop time of 4.316e-06 on 8 procs for 0 steps with 500 atoms

834.1% CPU use with 1 MPI tasks x 8 OpenMP threads

Minimization stats:
  Stopping criterion = max iterations
  Energy initial, next-to-last, final = 
     -3820.55810546875 4.67344625699735e-310  -3820.55810546875
  Force two-norm initial, final = 1.0074542 1.0074542
  Force max component initial, final = 0.8117162 0.8117162
  Final line search alpha, max atom move = 0 0
  Iterations, force evaluations = 0 0

MPI task timing breakdown:
Section |  min time  |  avg time  |  max time  |%varavg| %total
---------------------------------------------------------------
Pair    | 0          | 0          | 0          |   0.0 |  0.00
Neigh   | 0          | 0          | 0          |   0.0 |  0.00
Comm    | 0          | 0          | 0          |   0.0 |  0.00
Output  | 0          | 0          | 0          |   0.0 |  0.00
Modify  | 0          | 0          | 0          |   0.0 |  0.00
Other   |            | 4.316e-06  |            |       |100.00

Nlocal:            500 ave         500 max         500 min
Histogram: 1 0 0 0 0 0 0 0 0 0
Nghost:           5584 ave        5584 max        5584 min
Histogram: 1 0 0 0 0 0 0 0 0 0
Neighs:              0 ave           0 max           0 min
Histogram: 1 0 0 0 0 0 0 0 0 0
FullNghs:       271262 ave      271262 max      271262 min
Histogram: 1 0 0 0 0 0 0 0 0 0

Total # of neighbors = 271262
Ave neighs/atom = 542.524
Neighbor list builds = 0
Dangerous builds = 0
Displacing atoms ...
System init for write_restart ...
  using 8 OpenMP thread(s) per MPI task

The 'box' command has been removed and will be ignored

Reading restart file ...
  restart file = 12 Jun 2025, LAMMPS = 12 Jun 2025
  restoring atom style atomic from restart
  triclinic box = (-0.01780021 -0.022767288 -0.01686398) to (17.3678 17.372767 17.366864) with tilt (1.0651693e-15 1.0644463e-15 1.0644463e-15)
  1 by 1 by 1 MPI processor grid
  pair style metatomic stores no restart info
  500 atoms
  read_restart CPU = 0.007 seconds

This is the PET-MAD v1.0.2 model
================================

A universal interatomic potential for advanced materials modeling

Model authors
-------------

- Arslan Mazitov (arslan.mazitov@epfl.ch)
- Filippo Bigi
- Matthias Kellner
- Paolo Pegolo
- Davide Tisi
- Guillaume Fraux
- Sergey Pozdnyakov
- Philip Loche
- Michele Ceriotti (michele.ceriotti@epfl.ch)

Model references
----------------

Please cite the following references when using this model:
- about this specific model:
  * http://arxiv.org/abs/2503.14118
- about the architecture of this model:
  * LLPR (uncertainty method):
    https://iopscience.iop.org/article/10.1088/2632-2153/ad805f
  * LPR (if using per-atom uncertainty):
    https://pubs.acs.org/doi/10.1021/acs.jctc.3c00704
  * https://arxiv.org/abs/2305.19302v3

WARNING: the model declared support for unknown device 'cuda', it will be ignored (src/ML-METATOMIC/pair_metatomic.cpp:216)
Running simulation on cpu device with float32 data
Changing box ...
  triclinic box = (-0.01780021 -0.022767288 -0.01686398) to (17.367696 17.372767 17.366864) with tilt (1.0651693e-15 1.0644463e-15 1.0644463e-15)
  triclinic box = (-0.01780021 -0.022767288 -0.01686398) to (17.367696 17.372767 17.366864) with tilt (1.0651629e-15 1.0644463e-15 1.0644463e-15)
  triclinic box = (-0.01780021 -0.022767288 -0.01686398) to (17.367696 17.372767 17.366864) with tilt (1.0651629e-15 1.06444e-15 1.0644463e-15)
Neighbor list info ...
  update: every = 1 steps, delay = 0 steps, check = yes
  max neighbors/atom: 2000, page size: 100000
  master list distance cutoff = 11
  ghost atom cutoff = 11
  binsize = 5.5, bins = 4 4 4
  1 neighbor lists, perpetual/occasional/extra = 1 0 0
  (1) pair metatomic, perpetual
      attributes: full, newton on, ghost
      pair build: full/bin/ghost
      stencil: full/ghost/bin/3d
      bin: standard
Setting up cg style minimization ...
  Unit style    : metal
  Current step  : 0
Per MPI rank memory allocation (min/avg/max) = 19.79 | 19.79 | 19.79 Mbytes
   Step          Temp          PotEng         Press           Pxx            Pyy            Pzz            Pxy            Pxz            Pyz             Lx             Ly             Lz           Volume    
         0   0             -3820.5581      16.794758     -65.316356      260.58604     -144.88541     -1204.3546      74.498131     -810.01262      17.385496      17.395535      17.383728      5257.3608    
Loop time of 4.214e-06 on 8 procs for 0 steps with 500 atoms

593.3% CPU use with 1 MPI tasks x 8 OpenMP threads

Minimization stats:
  Stopping criterion = max iterations
  Energy initial, next-to-last, final = 
     -3820.55810546875                  0  -3820.55810546875
  Force two-norm initial, final = 0.020526689 0.020526689
  Force max component initial, final = 0.0027242973 0.0027242973
  Final line search alpha, max atom move = 0 0
  Iterations, force evaluations = 0 0

MPI task timing breakdown:
Section |  min time  |  avg time  |  max time  |%varavg| %total
---------------------------------------------------------------
Pair    | 0          | 0          | 0          |   0.0 |  0.00
Neigh   | 0          | 0          | 0          |   0.0 |  0.00
Comm    | 0          | 0          | 0          |   0.0 |  0.00
Output  | 0          | 0          | 0          |   0.0 |  0.00
Modify  | 0          | 0          | 0          |   0.0 |  0.00
Other   |            | 4.214e-06  |            |       |100.00

Nlocal:            500 ave         500 max         500 min
Histogram: 1 0 0 0 0 0 0 0 0 0
Nghost:           5584 ave        5584 max        5584 min
Histogram: 1 0 0 0 0 0 0 0 0 0
Neighs:              0 ave           0 max           0 min
Histogram: 1 0 0 0 0 0 0 0 0 0
FullNghs:       271262 ave      271262 max      271262 min
Histogram: 1 0 0 0 0 0 0 0 0 0

Total # of neighbors = 271262
Ave neighs/atom = 542.524
Neighbor list builds = 0
Dangerous builds = 0
  using 8 OpenMP thread(s) per MPI task

The 'box' command has been removed and will be ignored

Reading restart file ...
  restart file = 12 Jun 2025, LAMMPS = 12 Jun 2025
  restoring atom style atomic from restart
  triclinic box = (-0.01780021 -0.022767288 -0.01686398) to (17.3678 17.372767 17.366864) with tilt (1.0651693e-15 1.0644463e-15 1.0644463e-15)
  1 by 1 by 1 MPI processor grid
  pair style metatomic stores no restart info
  500 atoms
  read_restart CPU = 0.007 seconds

This is the PET-MAD v1.0.2 model
================================

A universal interatomic potential for advanced materials modeling

Model authors
-------------

- Arslan Mazitov (arslan.mazitov@epfl.ch)
- Filippo Bigi
- Matthias Kellner
- Paolo Pegolo
- Davide Tisi
- Guillaume Fraux
- Sergey Pozdnyakov
- Philip Loche
- Michele Ceriotti (michele.ceriotti@epfl.ch)

Model references
----------------

Please cite the following references when using this model:
- about this specific model:
  * http://arxiv.org/abs/2503.14118
- about the architecture of this model:
  * LLPR (uncertainty method):
    https://iopscience.iop.org/article/10.1088/2632-2153/ad805f
  * LPR (if using per-atom uncertainty):
    https://pubs.acs.org/doi/10.1021/acs.jctc.3c00704
  * https://arxiv.org/abs/2305.19302v3

WARNING: the model declared support for unknown device 'cuda', it will be ignored (src/ML-METATOMIC/pair_metatomic.cpp:216)
Running simulation on cpu device with float32 data
Changing box ...
  triclinic box = (-0.01780021 -0.022767288 -0.01686398) to (17.367905 17.372767 17.366864) with tilt (1.0651693e-15 1.0644463e-15 1.0644463e-15)
  triclinic box = (-0.01780021 -0.022767288 -0.01686398) to (17.367905 17.372767 17.366864) with tilt (1.0651757e-15 1.0644463e-15 1.0644463e-15)
  triclinic box = (-0.01780021 -0.022767288 -0.01686398) to (17.367905 17.372767 17.366864) with tilt (1.0651757e-15 1.0644527e-15 1.0644463e-15)
Neighbor list info ...
  update: every = 1 steps, delay = 0 steps, check = yes
  max neighbors/atom: 2000, page size: 100000
  master list distance cutoff = 11
  ghost atom cutoff = 11
  binsize = 5.5, bins = 4 4 4
  1 neighbor lists, perpetual/occasional/extra = 1 0 0
  (1) pair metatomic, perpetual
      attributes: full, newton on, ghost
      pair build: full/bin/ghost
      stencil: full/ghost/bin/3d
      bin: standard
Setting up cg style minimization ...
  Unit style    : metal
  Current step  : 0
Per MPI rank memory allocation (min/avg/max) = 19.79 | 19.79 | 19.79 Mbytes
   Step          Temp          PotEng         Press           Pxx            Pyy            Pzz            Pxy            Pxz            Pyz             Lx             Ly             Lz           Volume    
         0   0             -3820.5581     -16.603187     -113.1528       234.44919     -171.10594     -1204.2139      74.563065     -810.20009      17.385705      17.395535      17.383728      5257.4239    
Loop time of 4.121e-06 on 8 procs for 0 steps with 500 atoms

364.0% CPU use with 1 MPI tasks x 8 OpenMP threads

Minimization stats:
  Stopping criterion = max iterations
  Energy initial, next-to-last, final = 
     -3820.55810546875 -nan                -3820.55810546875
  Force two-norm initial, final = 0.020576489 0.020576489
  Force max component initial, final = 0.0027528405 0.0027528405
  Final line search alpha, max atom move = 0 0
  Iterations, force evaluations = 0 0

MPI task timing breakdown:
Section |  min time  |  avg time  |  max time  |%varavg| %total
---------------------------------------------------------------
Pair    | 0          | 0          | 0          |   0.0 |  0.00
Neigh   | 0          | 0          | 0          |   0.0 |  0.00
Comm    | 0          | 0          | 0          |   0.0 |  0.00
Output  | 0          | 0          | 0          |   0.0 |  0.00
Modify  | 0          | 0          | 0          |   0.0 |  0.00
Other   |            | 4.121e-06  |            |       |100.00

Nlocal:            500 ave         500 max         500 min
Histogram: 1 0 0 0 0 0 0 0 0 0
Nghost:           5584 ave        5584 max        5584 min
Histogram: 1 0 0 0 0 0 0 0 0 0
Neighs:              0 ave           0 max           0 min
Histogram: 1 0 0 0 0 0 0 0 0 0
FullNghs:       271262 ave      271262 max      271262 min
Histogram: 1 0 0 0 0 0 0 0 0 0

Total # of neighbors = 271262
Ave neighs/atom = 542.524
Neighbor list builds = 0
Dangerous builds = 0
  using 8 OpenMP thread(s) per MPI task

The 'box' command has been removed and will be ignored

Reading restart file ...
  restart file = 12 Jun 2025, LAMMPS = 12 Jun 2025
  restoring atom style atomic from restart
  triclinic box = (-0.01780021 -0.022767288 -0.01686398) to (17.3678 17.372767 17.366864) with tilt (1.0651693e-15 1.0644463e-15 1.0644463e-15)
  1 by 1 by 1 MPI processor grid
  pair style metatomic stores no restart info
  500 atoms
  read_restart CPU = 0.001 seconds

This is the PET-MAD v1.0.2 model
================================

A universal interatomic potential for advanced materials modeling

Model authors
-------------

- Arslan Mazitov (arslan.mazitov@epfl.ch)
- Filippo Bigi
- Matthias Kellner
- Paolo Pegolo
- Davide Tisi
- Guillaume Fraux
- Sergey Pozdnyakov
- Philip Loche
- Michele Ceriotti (michele.ceriotti@epfl.ch)

Model references
----------------

Please cite the following references when using this model:
- about this specific model:
  * http://arxiv.org/abs/2503.14118
- about the architecture of this model:
  * LLPR (uncertainty method):
    https://iopscience.iop.org/article/10.1088/2632-2153/ad805f
  * LPR (if using per-atom uncertainty):
    https://pubs.acs.org/doi/10.1021/acs.jctc.3c00704
  * https://arxiv.org/abs/2305.19302v3

WARNING: the model declared support for unknown device 'cuda', it will be ignored (src/ML-METATOMIC/pair_metatomic.cpp:216)
Running simulation on cpu device with float32 data
Changing box ...
  triclinic box = (-0.01780021 -0.022767288 -0.01686398) to (17.3678 17.372663 17.366864) with tilt (1.0651693e-15 1.0644463e-15 1.0644463e-15)
  triclinic box = (-0.01780021 -0.022767288 -0.01686398) to (17.3678 17.372663 17.366864) with tilt (1.0651693e-15 1.0644463e-15 1.06444e-15)
Neighbor list info ...
  update: every = 1 steps, delay = 0 steps, check = yes
  max neighbors/atom: 2000, page size: 100000
  master list distance cutoff = 11
  ghost atom cutoff = 11
  binsize = 5.5, bins = 4 4 4
  1 neighbor lists, perpetual/occasional/extra = 1 0 0
  (1) pair metatomic, perpetual
      attributes: full, newton on, ghost
      pair build: full/bin/ghost
      stencil: full/ghost/bin/3d
      bin: standard
Setting up cg style minimization ...
  Unit style    : metal
  Current step  : 0
Per MPI rank memory allocation (min/avg/max) = 19.79 | 19.79 | 19.79 Mbytes
   Step          Temp          PotEng         Press           Pxx            Pyy            Pzz            Pxy            Pxz            Pyz             Lx             Ly             Lz           Volume    
         0   0             -3820.5581      16.712609     -76.295051      271.3735      -144.94062     -1204.3389      74.574272     -810.17272      17.3856        17.39543       17.383728      5257.3608    
Loop time of 4.192e-06 on 8 procs for 0 steps with 500 atoms

357.8% CPU use with 1 MPI tasks x 8 OpenMP threads

Minimization stats:
  Stopping criterion = max iterations
  Energy initial, next-to-last, final = 
     -3820.55810546875 4.67344597890242e-310  -3820.55810546875
  Force two-norm initial, final = 0.020538439 0.020538439
  Force max component initial, final = 0.0027607456 0.0027607456
  Final line search alpha, max atom move = 0 0
  Iterations, force evaluations = 0 0

MPI task timing breakdown:
Section |  min time  |  avg time  |  max time  |%varavg| %total
---------------------------------------------------------------
Pair    | 0          | 0          | 0          |   0.0 |  0.00
Neigh   | 0          | 0          | 0          |   0.0 |  0.00
Comm    | 0          | 0          | 0          |   0.0 |  0.00
Output  | 0          | 0          | 0          |   0.0 |  0.00
Modify  | 0          | 0          | 0          |   0.0 |  0.00
Other   |            | 4.192e-06  |            |       |100.00

Nlocal:            500 ave         500 max         500 min
Histogram: 1 0 0 0 0 0 0 0 0 0
Nghost:           5584 ave        5584 max        5584 min
Histogram: 1 0 0 0 0 0 0 0 0 0
Neighs:              0 ave           0 max           0 min
Histogram: 1 0 0 0 0 0 0 0 0 0
FullNghs:       271266 ave      271266 max      271266 min
Histogram: 1 0 0 0 0 0 0 0 0 0

Total # of neighbors = 271266
Ave neighs/atom = 542.532
Neighbor list builds = 0
Dangerous builds = 0
  using 8 OpenMP thread(s) per MPI task

The 'box' command has been removed and will be ignored

Reading restart file ...
  restart file = 12 Jun 2025, LAMMPS = 12 Jun 2025
  restoring atom style atomic from restart
  triclinic box = (-0.01780021 -0.022767288 -0.01686398) to (17.3678 17.372767 17.366864) with tilt (1.0651693e-15 1.0644463e-15 1.0644463e-15)
  1 by 1 by 1 MPI processor grid
  pair style metatomic stores no restart info
  500 atoms
  read_restart CPU = 0.001 seconds

This is the PET-MAD v1.0.2 model
================================

A universal interatomic potential for advanced materials modeling

Model authors
-------------

- Arslan Mazitov (arslan.mazitov@epfl.ch)
- Filippo Bigi
- Matthias Kellner
- Paolo Pegolo
- Davide Tisi
- Guillaume Fraux
- Sergey Pozdnyakov
- Philip Loche
- Michele Ceriotti (michele.ceriotti@epfl.ch)

Model references
----------------

Please cite the following references when using this model:
- about this specific model:
  * http://arxiv.org/abs/2503.14118
- about the architecture of this model:
  * LLPR (uncertainty method):
    https://iopscience.iop.org/article/10.1088/2632-2153/ad805f
  * LPR (if using per-atom uncertainty):
    https://pubs.acs.org/doi/10.1021/acs.jctc.3c00704
  * https://arxiv.org/abs/2305.19302v3

WARNING: the model declared support for unknown device 'cuda', it will be ignored (src/ML-METATOMIC/pair_metatomic.cpp:216)
Running simulation on cpu device with float32 data
Changing box ...
  triclinic box = (-0.01780021 -0.022767288 -0.01686398) to (17.3678 17.372872 17.366864) with tilt (1.0651693e-15 1.0644463e-15 1.0644463e-15)
  triclinic box = (-0.01780021 -0.022767288 -0.01686398) to (17.3678 17.372872 17.366864) with tilt (1.0651693e-15 1.0644463e-15 1.0644527e-15)
Neighbor list info ...
  update: every = 1 steps, delay = 0 steps, check = yes
  max neighbors/atom: 2000, page size: 100000
  master list distance cutoff = 11
  ghost atom cutoff = 11
  binsize = 5.5, bins = 4 4 4
  1 neighbor lists, perpetual/occasional/extra = 1 0 0
  (1) pair metatomic, perpetual
      attributes: full, newton on, ghost
      pair build: full/bin/ghost
      stencil: full/ghost/bin/3d
      bin: standard
Setting up cg style minimization ...
  Unit style    : metal
  Current step  : 0
Per MPI rank memory allocation (min/avg/max) = 19.79 | 19.79 | 19.79 Mbytes
   Step          Temp          PotEng         Press           Pxx            Pyy            Pzz            Pxy            Pxz            Pyz             Lx             Ly             Lz           Volume    
         0   0             -3820.5581     -16.811834     -102.61848      223.45144     -171.26846     -1204.2263      74.486779     -810.02625      17.3856        17.395639      17.383728      5257.4239    
Loop time of 3.956e-06 on 8 procs for 0 steps with 500 atoms

884.7% CPU use with 1 MPI tasks x 8 OpenMP threads

Minimization stats:
  Stopping criterion = max iterations
  Energy initial, next-to-last, final = 
     -3820.55810546875 4.67344595310982e-310  -3820.55810546875
  Force two-norm initial, final = 0.020567051 0.020567051
  Force max component initial, final = 0.0027133673 0.0027133673
  Final line search alpha, max atom move = 0 0
  Iterations, force evaluations = 0 0

MPI task timing breakdown:
Section |  min time  |  avg time  |  max time  |%varavg| %total
---------------------------------------------------------------
Pair    | 0          | 0          | 0          |   0.0 |  0.00
Neigh   | 0          | 0          | 0          |   0.0 |  0.00
Comm    | 0          | 0          | 0          |   0.0 |  0.00
Output  | 0          | 0          | 0          |   0.0 |  0.00
Modify  | 0          | 0          | 0          |   0.0 |  0.00
Other   |            | 3.956e-06  |            |       |100.00

Nlocal:            500 ave         500 max         500 min
Histogram: 1 0 0 0 0 0 0 0 0 0
Nghost:           5584 ave        5584 max        5584 min
Histogram: 1 0 0 0 0 0 0 0 0 0
Neighs:              0 ave           0 max           0 min
Histogram: 1 0 0 0 0 0 0 0 0 0
FullNghs:       271260 ave      271260 max      271260 min
Histogram: 1 0 0 0 0 0 0 0 0 0

Total # of neighbors = 271260
Ave neighs/atom = 542.52
Neighbor list builds = 0
Dangerous builds = 0
  using 8 OpenMP thread(s) per MPI task

The 'box' command has been removed and will be ignored

Reading restart file ...
  restart file = 12 Jun 2025, LAMMPS = 12 Jun 2025
  restoring atom style atomic from restart
  triclinic box = (-0.01780021 -0.022767288 -0.01686398) to (17.3678 17.372767 17.366864) with tilt (1.0651693e-15 1.0644463e-15 1.0644463e-15)
  1 by 1 by 1 MPI processor grid
  pair style metatomic stores no restart info
  500 atoms
  read_restart CPU = 0.003 seconds

This is the PET-MAD v1.0.2 model
================================

A universal interatomic potential for advanced materials modeling

Model authors
-------------

- Arslan Mazitov (arslan.mazitov@epfl.ch)
- Filippo Bigi
- Matthias Kellner
- Paolo Pegolo
- Davide Tisi
- Guillaume Fraux
- Sergey Pozdnyakov
- Philip Loche
- Michele Ceriotti (michele.ceriotti@epfl.ch)

Model references
----------------

Please cite the following references when using this model:
- about this specific model:
  * http://arxiv.org/abs/2503.14118
- about the architecture of this model:
  * LLPR (uncertainty method):
    https://iopscience.iop.org/article/10.1088/2632-2153/ad805f
  * LPR (if using per-atom uncertainty):
    https://pubs.acs.org/doi/10.1021/acs.jctc.3c00704
  * https://arxiv.org/abs/2305.19302v3

WARNING: the model declared support for unknown device 'cuda', it will be ignored (src/ML-METATOMIC/pair_metatomic.cpp:216)
Running simulation on cpu device with float32 data
Changing box ...
  triclinic box = (-0.01780021 -0.022767288 -0.01686398) to (17.3678 17.372767 17.36676) with tilt (1.0651693e-15 1.0644463e-15 1.0644463e-15)
Neighbor list info ...
  update: every = 1 steps, delay = 0 steps, check = yes
  max neighbors/atom: 2000, page size: 100000
  master list distance cutoff = 11
  ghost atom cutoff = 11
  binsize = 5.5, bins = 4 4 4
  1 neighbor lists, perpetual/occasional/extra = 1 0 0
  (1) pair metatomic, perpetual
      attributes: full, newton on, ghost
      pair build: full/bin/ghost
      stencil: full/ghost/bin/3d
      bin: standard
Setting up cg style minimization ...
  Unit style    : metal
  Current step  : 0
Per MPI rank memory allocation (min/avg/max) = 19.79 | 19.79 | 19.79 Mbytes
   Step          Temp          PotEng         Press           Pxx            Pyy            Pzz            Pxy            Pxz            Pyz             Lx             Ly             Lz           Volume    
         0   0             -3820.5581      16.730362     -76.250648      260.55928     -134.11755     -1204.2161      74.477113     -810.11888      17.3856        17.395535      17.383624      5257.3608    
Loop time of 3.795e-06 on 8 procs for 0 steps with 500 atoms

658.8% CPU use with 1 MPI tasks x 8 OpenMP threads

Minimization stats:
  Stopping criterion = max iterations
  Energy initial, next-to-last, final = 
     -3820.55810546875    114.15672299446  -3820.55810546875
  Force two-norm initial, final = 0.020548951 0.020548951
  Force max component initial, final = 0.002752021 0.002752021
  Final line search alpha, max atom move = 0 0
  Iterations, force evaluations = 0 0

MPI task timing breakdown:
Section |  min time  |  avg time  |  max time  |%varavg| %total
---------------------------------------------------------------
Pair    | 0          | 0          | 0          |   0.0 |  0.00
Neigh   | 0          | 0          | 0          |   0.0 |  0.00
Comm    | 0          | 0          | 0          |   0.0 |  0.00
Output  | 0          | 0          | 0          |   0.0 |  0.00
Modify  | 0          | 0          | 0          |   0.0 |  0.00
Other   |            | 3.795e-06  |            |       |100.00

Nlocal:            500 ave         500 max         500 min
Histogram: 1 0 0 0 0 0 0 0 0 0
Nghost:           5584 ave        5584 max        5584 min
Histogram: 1 0 0 0 0 0 0 0 0 0
Neighs:              0 ave           0 max           0 min
Histogram: 1 0 0 0 0 0 0 0 0 0
FullNghs:       271266 ave      271266 max      271266 min
Histogram: 1 0 0 0 0 0 0 0 0 0

Total # of neighbors = 271266
Ave neighs/atom = 542.532
Neighbor list builds = 0
Dangerous builds = 0
  using 8 OpenMP thread(s) per MPI task

The 'box' command has been removed and will be ignored

Reading restart file ...
  restart file = 12 Jun 2025, LAMMPS = 12 Jun 2025
  restoring atom style atomic from restart
  triclinic box = (-0.01780021 -0.022767288 -0.01686398) to (17.3678 17.372767 17.366864) with tilt (1.0651693e-15 1.0644463e-15 1.0644463e-15)
  1 by 1 by 1 MPI processor grid
  pair style metatomic stores no restart info
  500 atoms
  read_restart CPU = 0.002 seconds

This is the PET-MAD v1.0.2 model
================================

A universal interatomic potential for advanced materials modeling

Model authors
-------------

- Arslan Mazitov (arslan.mazitov@epfl.ch)
- Filippo Bigi
- Matthias Kellner
- Paolo Pegolo
- Davide Tisi
- Guillaume Fraux
- Sergey Pozdnyakov
- Philip Loche
- Michele Ceriotti (michele.ceriotti@epfl.ch)

Model references
----------------

Please cite the following references when using this model:
- about this specific model:
  * http://arxiv.org/abs/2503.14118
- about the architecture of this model:
  * LLPR (uncertainty method):
    https://iopscience.iop.org/article/10.1088/2632-2153/ad805f
  * LPR (if using per-atom uncertainty):
    https://pubs.acs.org/doi/10.1021/acs.jctc.3c00704
  * https://arxiv.org/abs/2305.19302v3

WARNING: the model declared support for unknown device 'cuda', it will be ignored (src/ML-METATOMIC/pair_metatomic.cpp:216)
Running simulation on cpu device with float32 data
Changing box ...
  triclinic box = (-0.01780021 -0.022767288 -0.01686398) to (17.3678 17.372767 17.366968) with tilt (1.0651693e-15 1.0644463e-15 1.0644463e-15)
Neighbor list info ...
  update: every = 1 steps, delay = 0 steps, check = yes
  max neighbors/atom: 2000, page size: 100000
  master list distance cutoff = 11
  ghost atom cutoff = 11
  binsize = 5.5, bins = 4 4 4
  1 neighbor lists, perpetual/occasional/extra = 1 0 0
  (1) pair metatomic, perpetual
      attributes: full, newton on, ghost
      pair build: full/bin/ghost
      stencil: full/ghost/bin/3d
      bin: standard
Setting up cg style minimization ...
  Unit style    : metal
  Current step  : 0
Per MPI rank memory allocation (min/avg/max) = 19.79 | 19.79 | 19.79 Mbytes
   Step          Temp          PotEng         Press           Pxx            Pyy            Pzz            Pxy            Pxz            Pyz             Lx             Ly             Lz           Volume    
         0   0             -3820.5581     -16.876728     -102.69505      234.23794     -182.17308     -1204.3493      74.592359     -810.07119      17.3856        17.395535      17.383832      5257.4239    
Loop time of 4.084e-06 on 8 procs for 0 steps with 500 atoms

612.1% CPU use with 1 MPI tasks x 8 OpenMP threads

Minimization stats:
  Stopping criterion = max iterations
  Energy initial, next-to-last, final = 
     -3820.55810546875    114.15672299446  -3820.55810546875
  Force two-norm initial, final = 0.020565653 0.020565653
  Force max component initial, final = 0.0027244091 0.0027244091
  Final line search alpha, max atom move = 0 0
  Iterations, force evaluations = 0 0

MPI task timing breakdown:
Section |  min time  |  avg time  |  max time  |%varavg| %total
---------------------------------------------------------------
Pair    | 0          | 0          | 0          |   0.0 |  0.00
Neigh   | 0          | 0          | 0          |   0.0 |  0.00
Comm    | 0          | 0          | 0          |   0.0 |  0.00
Output  | 0          | 0          | 0          |   0.0 |  0.00
Modify  | 0          | 0          | 0          |   0.0 |  0.00
Other   |            | 4.084e-06  |            |       |100.00

Nlocal:            500 ave         500 max         500 min
Histogram: 1 0 0 0 0 0 0 0 0 0
Nghost:           5584 ave        5584 max        5584 min
Histogram: 1 0 0 0 0 0 0 0 0 0
Neighs:              0 ave           0 max           0 min
Histogram: 1 0 0 0 0 0 0 0 0 0
FullNghs:       271260 ave      271260 max      271260 min
Histogram: 1 0 0 0 0 0 0 0 0 0

Total # of neighbors = 271260
Ave neighs/atom = 542.52
Neighbor list builds = 0
Dangerous builds = 0
  using 8 OpenMP thread(s) per MPI task

The 'box' command has been removed and will be ignored

Reading restart file ...
  restart file = 12 Jun 2025, LAMMPS = 12 Jun 2025
  restoring atom style atomic from restart
  triclinic box = (-0.01780021 -0.022767288 -0.01686398) to (17.3678 17.372767 17.366864) with tilt (1.0651693e-15 1.0644463e-15 1.0644463e-15)
  1 by 1 by 1 MPI processor grid
  pair style metatomic stores no restart info
  500 atoms
  read_restart CPU = 0.001 seconds

This is the PET-MAD v1.0.2 model
================================

A universal interatomic potential for advanced materials modeling

Model authors
-------------

- Arslan Mazitov (arslan.mazitov@epfl.ch)
- Filippo Bigi
- Matthias Kellner
- Paolo Pegolo
- Davide Tisi
- Guillaume Fraux
- Sergey Pozdnyakov
- Philip Loche
- Michele Ceriotti (michele.ceriotti@epfl.ch)

Model references
----------------

Please cite the following references when using this model:
- about this specific model:
  * http://arxiv.org/abs/2503.14118
- about the architecture of this model:
  * LLPR (uncertainty method):
    https://iopscience.iop.org/article/10.1088/2632-2153/ad805f
  * LPR (if using per-atom uncertainty):
    https://pubs.acs.org/doi/10.1021/acs.jctc.3c00704
  * https://arxiv.org/abs/2305.19302v3

WARNING: the model declared support for unknown device 'cuda', it will be ignored (src/ML-METATOMIC/pair_metatomic.cpp:216)
Running simulation on cpu device with float32 data
Changing box ...
  triclinic box = (-0.01780021 -0.022767288 -0.01686398) to (17.3678 17.372767 17.366864) with tilt (1.0651693e-15 1.0644463e-15 -0.00010430237)
Neighbor list info ...
  update: every = 1 steps, delay = 0 steps, check = yes
  max neighbors/atom: 2000, page size: 100000
  master list distance cutoff = 11
  ghost atom cutoff = 11
  binsize = 5.5, bins = 4 4 4
  1 neighbor lists, perpetual/occasional/extra = 1 0 0
  (1) pair metatomic, perpetual
      attributes: full, newton on, ghost
      pair build: full/bin/ghost
      stencil: full/ghost/bin/3d
      bin: standard
Setting up cg style minimization ...
  Unit style    : metal
  Current step  : 0
Per MPI rank memory allocation (min/avg/max) = 19.79 | 19.79 | 19.79 Mbytes
   Step          Temp          PotEng         Press           Pxx            Pyy            Pzz            Pxy            Pxz            Pyz             Lx             Ly             Lz           Volume    
         0   0             -3820.5581     -0.050878369   -89.366084      247.3509      -158.13745     -1204.293       74.509875     -799.34586      17.3856        17.395535      17.383728      5257.3924    
Loop time of 4.055e-06 on 8 procs for 0 steps with 500 atoms

98.6% CPU use with 1 MPI tasks x 8 OpenMP threads

Minimization stats:
  Stopping criterion = max iterations
  Energy initial, next-to-last, final = 
     -3820.55810546875                  0  -3820.55810546875
  Force two-norm initial, final = 0.020554102 0.020554102
  Force max component initial, final = 0.0027306005 0.0027306005
  Final line search alpha, max atom move = 0 0
  Iterations, force evaluations = 0 0

MPI task timing breakdown:
Section |  min time  |  avg time  |  max time  |%varavg| %total
---------------------------------------------------------------
Pair    | 0          | 0          | 0          |   0.0 |  0.00
Neigh   | 0          | 0          | 0          |   0.0 |  0.00
Comm    | 0          | 0          | 0          |   0.0 |  0.00
Output  | 0          | 0          | 0          |   0.0 |  0.00
Modify  | 0          | 0          | 0          |   0.0 |  0.00
Other   |            | 4.055e-06  |            |       |100.00

Nlocal:            500 ave         500 max         500 min
Histogram: 1 0 0 0 0 0 0 0 0 0
Nghost:           5584 ave        5584 max        5584 min
Histogram: 1 0 0 0 0 0 0 0 0 0
Neighs:              0 ave           0 max           0 min
Histogram: 1 0 0 0 0 0 0 0 0 0
FullNghs:       271262 ave      271262 max      271262 min
Histogram: 1 0 0 0 0 0 0 0 0 0

Total # of neighbors = 271262
Ave neighs/atom = 542.524
Neighbor list builds = 0
Dangerous builds = 0
  using 8 OpenMP thread(s) per MPI task

The 'box' command has been removed and will be ignored

Reading restart file ...
  restart file = 12 Jun 2025, LAMMPS = 12 Jun 2025
  restoring atom style atomic from restart
  triclinic box = (-0.01780021 -0.022767288 -0.01686398) to (17.3678 17.372767 17.366864) with tilt (1.0651693e-15 1.0644463e-15 1.0644463e-15)
  1 by 1 by 1 MPI processor grid
  pair style metatomic stores no restart info
  500 atoms
  read_restart CPU = 0.001 seconds

This is the PET-MAD v1.0.2 model
================================

A universal interatomic potential for advanced materials modeling

Model authors
-------------

- Arslan Mazitov (arslan.mazitov@epfl.ch)
- Filippo Bigi
- Matthias Kellner
- Paolo Pegolo
- Davide Tisi
- Guillaume Fraux
- Sergey Pozdnyakov
- Philip Loche
- Michele Ceriotti (michele.ceriotti@epfl.ch)

Model references
----------------

Please cite the following references when using this model:
- about this specific model:
  * http://arxiv.org/abs/2503.14118
- about the architecture of this model:
  * LLPR (uncertainty method):
    https://iopscience.iop.org/article/10.1088/2632-2153/ad805f
  * LPR (if using per-atom uncertainty):
    https://pubs.acs.org/doi/10.1021/acs.jctc.3c00704
  * https://arxiv.org/abs/2305.19302v3

WARNING: the model declared support for unknown device 'cuda', it will be ignored (src/ML-METATOMIC/pair_metatomic.cpp:216)
Running simulation on cpu device with float32 data
Changing box ...
  triclinic box = (-0.01780021 -0.022767288 -0.01686398) to (17.3678 17.372767 17.366864) with tilt (1.0651693e-15 1.0644463e-15 0.00010430237)
Neighbor list info ...
  update: every = 1 steps, delay = 0 steps, check = yes
  max neighbors/atom: 2000, page size: 100000
  master list distance cutoff = 11
  ghost atom cutoff = 11
  binsize = 5.5, bins = 4 4 4
  1 neighbor lists, perpetual/occasional/extra = 1 0 0
  (1) pair metatomic, perpetual
      attributes: full, newton on, ghost
      pair build: full/bin/ghost
      stencil: full/ghost/bin/3d
      bin: standard
Setting up cg style minimization ...
  Unit style    : metal
  Current step  : 0
Per MPI rank memory allocation (min/avg/max) = 19.79 | 19.79 | 19.79 Mbytes
   Step          Temp          PotEng         Press           Pxx            Pyy            Pzz            Pxy            Pxz            Pyz             Lx             Ly             Lz           Volume    
         0   0             -3820.5581     -0.060039261   -89.556537      247.46023     -158.08381     -1204.2497      74.556392     -820.8497       17.3856        17.395535      17.383728      5257.3924    
Loop time of 3.977e-06 on 8 procs for 0 steps with 500 atoms

1408.1% CPU use with 1 MPI tasks x 8 OpenMP threads

Minimization stats:
  Stopping criterion = max iterations
  Energy initial, next-to-last, final = 
     -3820.55810546875                  0  -3820.55810546875
  Force two-norm initial, final = 0.020548778 0.020548778
  Force max component initial, final = 0.0027422979 0.0027422979
  Final line search alpha, max atom move = 0 0
  Iterations, force evaluations = 0 0

MPI task timing breakdown:
Section |  min time  |  avg time  |  max time  |%varavg| %total
---------------------------------------------------------------
Pair    | 0          | 0          | 0          |   0.0 |  0.00
Neigh   | 0          | 0          | 0          |   0.0 |  0.00
Comm    | 0          | 0          | 0          |   0.0 |  0.00
Output  | 0          | 0          | 0          |   0.0 |  0.00
Modify  | 0          | 0          | 0          |   0.0 |  0.00
Other   |            | 3.977e-06  |            |       |100.00

Nlocal:            500 ave         500 max         500 min
Histogram: 1 0 0 0 0 0 0 0 0 0
Nghost:           5584 ave        5584 max        5584 min
Histogram: 1 0 0 0 0 0 0 0 0 0
Neighs:              0 ave           0 max           0 min
Histogram: 1 0 0 0 0 0 0 0 0 0
FullNghs:       271262 ave      271262 max      271262 min
Histogram: 1 0 0 0 0 0 0 0 0 0

Total # of neighbors = 271262
Ave neighs/atom = 542.524
Neighbor list builds = 0
Dangerous builds = 0
  using 8 OpenMP thread(s) per MPI task

The 'box' command has been removed and will be ignored

Reading restart file ...
  restart file = 12 Jun 2025, LAMMPS = 12 Jun 2025
  restoring atom style atomic from restart
  triclinic box = (-0.01780021 -0.022767288 -0.01686398) to (17.3678 17.372767 17.366864) with tilt (1.0651693e-15 1.0644463e-15 1.0644463e-15)
  1 by 1 by 1 MPI processor grid
  pair style metatomic stores no restart info
  500 atoms
  read_restart CPU = 0.009 seconds

This is the PET-MAD v1.0.2 model
================================

A universal interatomic potential for advanced materials modeling

Model authors
-------------

- Arslan Mazitov (arslan.mazitov@epfl.ch)
- Filippo Bigi
- Matthias Kellner
- Paolo Pegolo
- Davide Tisi
- Guillaume Fraux
- Sergey Pozdnyakov
- Philip Loche
- Michele Ceriotti (michele.ceriotti@epfl.ch)

Model references
----------------

Please cite the following references when using this model:
- about this specific model:
  * http://arxiv.org/abs/2503.14118
- about the architecture of this model:
  * LLPR (uncertainty method):
    https://iopscience.iop.org/article/10.1088/2632-2153/ad805f
  * LPR (if using per-atom uncertainty):
    https://pubs.acs.org/doi/10.1021/acs.jctc.3c00704
  * https://arxiv.org/abs/2305.19302v3

WARNING: the model declared support for unknown device 'cuda', it will be ignored (src/ML-METATOMIC/pair_metatomic.cpp:216)
Running simulation on cpu device with float32 data
Changing box ...
  triclinic box = (-0.01780021 -0.022767288 -0.01686398) to (17.3678 17.372767 17.366864) with tilt (1.0651693e-15 -0.00010430237 1.0644463e-15)
Neighbor list info ...
  update: every = 1 steps, delay = 0 steps, check = yes
  max neighbors/atom: 2000, page size: 100000
  master list distance cutoff = 11
  ghost atom cutoff = 11
  binsize = 5.5, bins = 4 4 4
  1 neighbor lists, perpetual/occasional/extra = 1 0 0
  (1) pair metatomic, perpetual
      attributes: full, newton on, ghost
      pair build: full/bin/ghost
      stencil: full/ghost/bin/3d
      bin: standard
Setting up cg style minimization ...
  Unit style    : metal
  Current step  : 0
Per MPI rank memory allocation (min/avg/max) = 19.79 | 19.79 | 19.79 Mbytes
   Step          Temp          PotEng         Press           Pxx            Pyy            Pzz            Pxy            Pxz            Pyz             Lx             Ly             Lz           Volume    
         0   0             -3820.5581     -0.059149207   -89.485496      247.4681      -158.16005     -1204.2914      85.422084     -810.12898      17.3856        17.395535      17.383728      5257.3924    
Loop time of 4.086e-06 on 8 procs for 0 steps with 500 atoms

856.6% CPU use with 1 MPI tasks x 8 OpenMP threads

Minimization stats:
  Stopping criterion = max iterations
  Energy initial, next-to-last, final = 
     -3820.55810546875    114.15672299446  -3820.55810546875
  Force two-norm initial, final = 0.020547396 0.020547396
  Force max component initial, final = 0.0027310476 0.0027310476
  Final line search alpha, max atom move = 0 0
  Iterations, force evaluations = 0 0

MPI task timing breakdown:
Section |  min time  |  avg time  |  max time  |%varavg| %total
---------------------------------------------------------------
Pair    | 0          | 0          | 0          |   0.0 |  0.00
Neigh   | 0          | 0          | 0          |   0.0 |  0.00
Comm    | 0          | 0          | 0          |   0.0 |  0.00
Output  | 0          | 0          | 0          |   0.0 |  0.00
Modify  | 0          | 0          | 0          |   0.0 |  0.00
Other   |            | 4.086e-06  |            |       |100.00

Nlocal:            500 ave         500 max         500 min
Histogram: 1 0 0 0 0 0 0 0 0 0
Nghost:           5584 ave        5584 max        5584 min
Histogram: 1 0 0 0 0 0 0 0 0 0
Neighs:              0 ave           0 max           0 min
Histogram: 1 0 0 0 0 0 0 0 0 0
FullNghs:       271262 ave      271262 max      271262 min
Histogram: 1 0 0 0 0 0 0 0 0 0

Total # of neighbors = 271262
Ave neighs/atom = 542.524
Neighbor list builds = 0
Dangerous builds = 0
  using 8 OpenMP thread(s) per MPI task

The 'box' command has been removed and will be ignored

Reading restart file ...
  restart file = 12 Jun 2025, LAMMPS = 12 Jun 2025
  restoring atom style atomic from restart
  triclinic box = (-0.01780021 -0.022767288 -0.01686398) to (17.3678 17.372767 17.366864) with tilt (1.0651693e-15 1.0644463e-15 1.0644463e-15)
  1 by 1 by 1 MPI processor grid
  pair style metatomic stores no restart info
  500 atoms
  read_restart CPU = 0.003 seconds

This is the PET-MAD v1.0.2 model
================================

A universal interatomic potential for advanced materials modeling

Model authors
-------------

- Arslan Mazitov (arslan.mazitov@epfl.ch)
- Filippo Bigi
- Matthias Kellner
- Paolo Pegolo
- Davide Tisi
- Guillaume Fraux
- Sergey Pozdnyakov
- Philip Loche
- Michele Ceriotti (michele.ceriotti@epfl.ch)

Model references
----------------

Please cite the following references when using this model:
- about this specific model:
  * http://arxiv.org/abs/2503.14118
- about the architecture of this model:
  * LLPR (uncertainty method):
    https://iopscience.iop.org/article/10.1088/2632-2153/ad805f
  * LPR (if using per-atom uncertainty):
    https://pubs.acs.org/doi/10.1021/acs.jctc.3c00704
  * https://arxiv.org/abs/2305.19302v3

WARNING: the model declared support for unknown device 'cuda', it will be ignored (src/ML-METATOMIC/pair_metatomic.cpp:216)
Running simulation on cpu device with float32 data
Changing box ...
  triclinic box = (-0.01780021 -0.022767288 -0.01686398) to (17.3678 17.372767 17.366864) with tilt (1.0651693e-15 0.00010430237 1.0644463e-15)
Neighbor list info ...
  update: every = 1 steps, delay = 0 steps, check = yes
  max neighbors/atom: 2000, page size: 100000
  master list distance cutoff = 11
  ghost atom cutoff = 11
  binsize = 5.5, bins = 4 4 4
  1 neighbor lists, perpetual/occasional/extra = 1 0 0
  (1) pair metatomic, perpetual
      attributes: full, newton on, ghost
      pair build: full/bin/ghost
      stencil: full/ghost/bin/3d
      bin: standard
Setting up cg style minimization ...
  Unit style    : metal
  Current step  : 0
Per MPI rank memory allocation (min/avg/max) = 19.79 | 19.79 | 19.79 Mbytes
   Step          Temp          PotEng         Press           Pxx            Pyy            Pzz            Pxy            Pxz            Pyz             Lx             Ly             Lz           Volume    
         0   0             -3820.5581     -0.029568549   -89.404565      247.37105     -158.05519     -1204.2729      63.648313     -810.07856      17.3856        17.395535      17.383728      5257.3924    
Loop time of 4.068e-06 on 8 procs for 0 steps with 500 atoms

1401.2% CPU use with 1 MPI tasks x 8 OpenMP threads

Minimization stats:
  Stopping criterion = max iterations
  Energy initial, next-to-last, final = 
     -3820.55810546875    114.15672299446  -3820.55810546875
  Force two-norm initial, final = 0.020551735 0.020551735
  Force max component initial, final = 0.0027422532 0.0027422532
  Final line search alpha, max atom move = 0 0
  Iterations, force evaluations = 0 0

MPI task timing breakdown:
Section |  min time  |  avg time  |  max time  |%varavg| %total
---------------------------------------------------------------
Pair    | 0          | 0          | 0          |   0.0 |  0.00
Neigh   | 0          | 0          | 0          |   0.0 |  0.00
Comm    | 0          | 0          | 0          |   0.0 |  0.00
Output  | 0          | 0          | 0          |   0.0 |  0.00
Modify  | 0          | 0          | 0          |   0.0 |  0.00
Other   |            | 4.068e-06  |            |       |100.00

Nlocal:            500 ave         500 max         500 min
Histogram: 1 0 0 0 0 0 0 0 0 0
Nghost:           5584 ave        5584 max        5584 min
Histogram: 1 0 0 0 0 0 0 0 0 0
Neighs:              0 ave           0 max           0 min
Histogram: 1 0 0 0 0 0 0 0 0 0
FullNghs:       271262 ave      271262 max      271262 min
Histogram: 1 0 0 0 0 0 0 0 0 0

Total # of neighbors = 271262
Ave neighs/atom = 542.524
Neighbor list builds = 0
Dangerous builds = 0
  using 8 OpenMP thread(s) per MPI task

The 'box' command has been removed and will be ignored

Reading restart file ...
  restart file = 12 Jun 2025, LAMMPS = 12 Jun 2025
  restoring atom style atomic from restart
  triclinic box = (-0.01780021 -0.022767288 -0.01686398) to (17.3678 17.372767 17.366864) with tilt (1.0651693e-15 1.0644463e-15 1.0644463e-15)
  1 by 1 by 1 MPI processor grid
  pair style metatomic stores no restart info
  500 atoms
  read_restart CPU = 0.001 seconds

This is the PET-MAD v1.0.2 model
================================

A universal interatomic potential for advanced materials modeling

Model authors
-------------

- Arslan Mazitov (arslan.mazitov@epfl.ch)
- Filippo Bigi
- Matthias Kellner
- Paolo Pegolo
- Davide Tisi
- Guillaume Fraux
- Sergey Pozdnyakov
- Philip Loche
- Michele Ceriotti (michele.ceriotti@epfl.ch)

Model references
----------------

Please cite the following references when using this model:
- about this specific model:
  * http://arxiv.org/abs/2503.14118
- about the architecture of this model:
  * LLPR (uncertainty method):
    https://iopscience.iop.org/article/10.1088/2632-2153/ad805f
  * LPR (if using per-atom uncertainty):
    https://pubs.acs.org/doi/10.1021/acs.jctc.3c00704
  * https://arxiv.org/abs/2305.19302v3

WARNING: the model declared support for unknown device 'cuda', it will be ignored (src/ML-METATOMIC/pair_metatomic.cpp:216)
Running simulation on cpu device with float32 data
Changing box ...
  triclinic box = (-0.01780021 -0.022767288 -0.01686398) to (17.3678 17.372767 17.366864) with tilt (-0.00010437321 1.0644463e-15 1.0644463e-15)
Neighbor list info ...
  update: every = 1 steps, delay = 0 steps, check = yes
  max neighbors/atom: 2000, page size: 100000
  master list distance cutoff = 11
  ghost atom cutoff = 11
  binsize = 5.5, bins = 4 4 4
  1 neighbor lists, perpetual/occasional/extra = 1 0 0
  (1) pair metatomic, perpetual
      attributes: full, newton on, ghost
      pair build: full/bin/ghost
      stencil: full/ghost/bin/3d
      bin: standard
Setting up cg style minimization ...
  Unit style    : metal
  Current step  : 0
Per MPI rank memory allocation (min/avg/max) = 19.79 | 19.79 | 19.79 Mbytes
   Step          Temp          PotEng         Press           Pxx            Pyy            Pzz            Pxy            Pxz            Pyz             Lx             Ly             Lz           Volume    
         0   0             -3820.5581     -0.074879542   -89.522388      247.34847     -158.05072     -1193.4722      74.518973     -810.11572      17.3856        17.395535      17.383728      5257.3924    
Loop time of 3.987e-06 on 8 procs for 0 steps with 500 atoms

877.9% CPU use with 1 MPI tasks x 8 OpenMP threads

Minimization stats:
  Stopping criterion = max iterations
  Energy initial, next-to-last, final = 
     -3820.55810546875    114.15672299446  -3820.55810546875
  Force two-norm initial, final = 0.02053971 0.02053971
  Force max component initial, final = 0.0027442351 0.0027442351
  Final line search alpha, max atom move = 0 0
  Iterations, force evaluations = 0 0

MPI task timing breakdown:
Section |  min time  |  avg time  |  max time  |%varavg| %total
---------------------------------------------------------------
Pair    | 0          | 0          | 0          |   0.0 |  0.00
Neigh   | 0          | 0          | 0          |   0.0 |  0.00
Comm    | 0          | 0          | 0          |   0.0 |  0.00
Output  | 0          | 0          | 0          |   0.0 |  0.00
Modify  | 0          | 0          | 0          |   0.0 |  0.00
Other   |            | 3.987e-06  |            |       |100.00

Nlocal:            500 ave         500 max         500 min
Histogram: 1 0 0 0 0 0 0 0 0 0
Nghost:           5584 ave        5584 max        5584 min
Histogram: 1 0 0 0 0 0 0 0 0 0
Neighs:              0 ave           0 max           0 min
Histogram: 1 0 0 0 0 0 0 0 0 0
FullNghs:       271262 ave      271262 max      271262 min
Histogram: 1 0 0 0 0 0 0 0 0 0

Total # of neighbors = 271262
Ave neighs/atom = 542.524
Neighbor list builds = 0
Dangerous builds = 0
  using 8 OpenMP thread(s) per MPI task

The 'box' command has been removed and will be ignored

Reading restart file ...
  restart file = 12 Jun 2025, LAMMPS = 12 Jun 2025
  restoring atom style atomic from restart
  triclinic box = (-0.01780021 -0.022767288 -0.01686398) to (17.3678 17.372767 17.366864) with tilt (1.0651693e-15 1.0644463e-15 1.0644463e-15)
  1 by 1 by 1 MPI processor grid
  pair style metatomic stores no restart info
  500 atoms
  read_restart CPU = 0.001 seconds

This is the PET-MAD v1.0.2 model
================================

A universal interatomic potential for advanced materials modeling

Model authors
-------------

- Arslan Mazitov (arslan.mazitov@epfl.ch)
- Filippo Bigi
- Matthias Kellner
- Paolo Pegolo
- Davide Tisi
- Guillaume Fraux
- Sergey Pozdnyakov
- Philip Loche
- Michele Ceriotti (michele.ceriotti@epfl.ch)

Model references
----------------

Please cite the following references when using this model:
- about this specific model:
  * http://arxiv.org/abs/2503.14118
- about the architecture of this model:
  * LLPR (uncertainty method):
    https://iopscience.iop.org/article/10.1088/2632-2153/ad805f
  * LPR (if using per-atom uncertainty):
    https://pubs.acs.org/doi/10.1021/acs.jctc.3c00704
  * https://arxiv.org/abs/2305.19302v3

WARNING: the model declared support for unknown device 'cuda', it will be ignored (src/ML-METATOMIC/pair_metatomic.cpp:216)
Running simulation on cpu device with float32 data
Changing box ...
  triclinic box = (-0.01780021 -0.022767288 -0.01686398) to (17.3678 17.372767 17.366864) with tilt (0.00010437321 1.0644463e-15 1.0644463e-15)
Neighbor list info ...
  update: every = 1 steps, delay = 0 steps, check = yes
  max neighbors/atom: 2000, page size: 100000
  master list distance cutoff = 11
  ghost atom cutoff = 11
  binsize = 5.5, bins = 4 4 4
  1 neighbor lists, perpetual/occasional/extra = 1 0 0
  (1) pair metatomic, perpetual
      attributes: full, newton on, ghost
      pair build: full/bin/ghost
      stencil: full/ghost/bin/3d
      bin: standard
Setting up cg style minimization ...
  Unit style    : metal
  Current step  : 0
Per MPI rank memory allocation (min/avg/max) = 19.79 | 19.79 | 19.79 Mbytes
   Step          Temp          PotEng         Press           Pxx            Pyy            Pzz            Pxy            Pxz            Pyz             Lx             Ly             Lz           Volume    
         0   0             -3820.5581     -0.01665369    -89.369036      247.48917     -158.1701      -1215.09        74.539331     -810.08804      17.3856        17.395535      17.383728      5257.3924    
Loop time of 3.854e-06 on 8 procs for 0 steps with 500 atoms

1453.0% CPU use with 1 MPI tasks x 8 OpenMP threads

Minimization stats:
  Stopping criterion = max iterations
  Energy initial, next-to-last, final = 
     -3820.55810546875    114.15672299446  -3820.55810546875
  Force two-norm initial, final = 0.020557376 0.020557376
  Force max component initial, final = 0.0027269796 0.0027269796
  Final line search alpha, max atom move = 0 0
  Iterations, force evaluations = 0 0

MPI task timing breakdown:
Section |  min time  |  avg time  |  max time  |%varavg| %total
---------------------------------------------------------------
Pair    | 0          | 0          | 0          |   0.0 |  0.00
Neigh   | 0          | 0          | 0          |   0.0 |  0.00
Comm    | 0          | 0          | 0          |   0.0 |  0.00
Output  | 0          | 0          | 0          |   0.0 |  0.00
Modify  | 0          | 0          | 0          |   0.0 |  0.00
Other   |            | 3.854e-06  |            |       |100.00

Nlocal:            500 ave         500 max         500 min
Histogram: 1 0 0 0 0 0 0 0 0 0
Nghost:           5584 ave        5584 max        5584 min
Histogram: 1 0 0 0 0 0 0 0 0 0
Neighs:              0 ave           0 max           0 min
Histogram: 1 0 0 0 0 0 0 0 0 0
FullNghs:       271262 ave      271262 max      271262 min
Histogram: 1 0 0 0 0 0 0 0 0 0

Total # of neighbors = 271262
Ave neighs/atom = 542.524
Neighbor list builds = 0
Dangerous builds = 0
Elastic Constant C11all = 398.637068358841 GPa
Elastic Constant C22all = 399.350458505901 GPa
Elastic Constant C33all = 400.462734030902 GPa
Elastic Constant C12all = 218.584513765847 GPa
Elastic Constant C13all = 219.437223948335 GPa
Elastic Constant C23all = 219.371603457668 GPa
Elastic Constant C44all = 179.198664987251 GPa
Elastic Constant C55all = 181.448093766146 GPa
Elastic Constant C66all = 180.148055472166 GPa
Elastic Constant C14all = 1.57468460104919 GPa
Elastic Constant C15all = -0.607769039530484 GPa
Elastic Constant C16all = -1.22519293256846 GPa
Elastic Constant C24all = -1.06580734189593 GPa
Elastic Constant C25all = 0.768937981797537 GPa
Elastic Constant C26all = -1.05562098960436 GPa
Elastic Constant C34all = -0.422183340366664 GPa
Elastic Constant C35all = -0.917121107293838 GPa
Elastic Constant C36all = 1.05235283909101 GPa
Elastic Constant C45all = -0.403920467493181 GPa
Elastic Constant C46all = -0.295776308632868 GPa
Elastic Constant C56all = -0.161870926329577 GPa
=========================================
Averaged Elastic Properties
=========================================
Bulk Modulus = 279.248549248816 GPa
Shear Modulus 1 = 180.264938075188 GPa
Shear Modulus 2 = 90.176153287299 GPa
Poisson Ratio = 0.354228847969454
Bulk Modulus (B) = 279.248549248816 GPa
Shear Modulus (Voigt) (G) = 144.229424160032 GPa
Young Modulus (E) = 369.136373693661 GPa
Poisson Ratio (nu) = 0.279684696251992
Total wall time: 0:00:33
