LAMMPS data file via write_data, version 29 Aug 2024, timestep = 31, units = metal

500 atoms
3 atom types

0 17.658917274082594 xlo xhi
0 17.658917274082594 ylo yhi
0 17.658917274082594 zlo zhi

Masses

1 55.0307
2 55.845
3 55.845

Atoms # atomic

1 2 0.0018189050295741385 0.0018189050295742471 6.862834319089015e-16 0 0 0
2 3 1.7640728223786863 1.764072822378687 1.1979200952867648e-18 0 0 0
3 1 1.762688828002732 0.0032028994055284827 1.759232906572799 0 0 0
4 1 0.00320289940552846 1.7626888280027326 1.7592329065727987 0 0 0
5 1 3.5266866275472224 0.0031676867268410473 1.6933784953756794e-16 0 0 0
8 1 3.529915029248619 1.766682072381387 1.7638373886266618 0 0 0
21 1 0.003167686726840292 3.526686627547222 9.401628940540576e-17 0 0 0
23 1 1.766682072381386 3.5299150292486186 1.7638373886266612 0 0 0
25 1 3.526086607721144 3.5260866077211435 1.2987166767565848e-19 0 0 0
52 1 1.7665209292731343 1.766520929273134 3.530181731650061 0 0 0
53 1 1.7655156520059925 0.00037607540226728585 5.297107765670218 0 0 0
54 1 0.0003760754022686934 1.7655156520059925 5.297107765670219 0 0 0
58 1 3.5313649010495727 1.7655316662590632 5.297084753814166 0 0 0
73 1 1.7655316662590623 3.5313649010495727 5.297084753814165 0 0 0
75 1 3.532941695359527 3.5329416953595274 3.5331036531832223 0 0 0
6 1 5.2951768895575295 1.7656134788550826 0 0 0 0
9 1 7.063395336490478 0.0003808586241628494 5.743910069894164e-17 0 0 0
12 1 7.063159500741088 1.7658769885522194 1.7655073678809456 0 0 0
27 1 5.298290223888875 3.5324823075492797 1.7662546753439463 0 0 0
29 1 7.063284602482151 3.5312715841933304 0 0 0 0
56 1 5.294519297545849 1.765547657422314 3.528862690027985 0 0 0
57 1 5.29664424599234 0.00034545421620331375 5.296408397903829 0 0 0
59 1 7.063294863408764 0.000343087417473199 3.531570148576975 0 0 0
62 1 7.062509743526628 1.765727850962333 5.296631912206007 0 0 0
77 1 5.29772573768721 3.5313661618646424 5.297500936625592 0 0 0
79 1 7.0630888303062545 3.531318574199107 3.5316503401854136 0 0 0
11 1 8.8293092199352 4.3039460617836176e-05 1.7658240922809592 0 0 0
31 1 8.829313735534871 3.5316665431691803 1.76585818697928 0 0 0
60 1 8.82942985200883 1.765894251656868 3.531511031854881 0 0 0
61 1 8.829332282076594 0.00015303699386767775 5.297415787800257 0 0 0
81 1 8.829337179698909 3.53149734547468 5.2974536367782825 0 0 0
10 1 8.8295498173064 1.7658731630293214 1.7060895607584065e-16 0 0 0
13 1 10.595259184184453 1.856437894075066e-05 2.7809765530581e-16 0 0 0
14 1 12.361413665000375 1.7655108687840977 3.568049183653556e-20 0 0 0
15 1 12.361649500749765 1.473885604159528e-05 1.7655073678809463 0 0 0
16 1 10.595499781555654 1.7658486879476414 1.7658240922809585 0 0 0
33 1 10.595383261086836 3.531562194242105 2.7161054788401024e-17 0 0 0
35 1 12.361649710419696 3.531710427206861 1.765496862856134 0 0 0
64 1 12.36151413808209 1.7655486399907876 3.531570148576975 0 0 0
65 1 12.362299257964226 0.0001638764459258354 5.296631912206007 0 0 0
66 1 10.59547671941426 1.7657386904143921 5.297415787800258 0 0 0
83 1 10.595593573723656 3.5316497196486427 3.5315616292308776 0 0 0
85 1 12.361342075984561 3.531536611157721 5.297593808241432 0 0 0
71 1 17.658264439351075 3.5293566642774126 3.5294800501406223 -1 0 0
17 1 14.129632111933326 0.0002782485531790315 6.027164928145094e-16 0 0 0
18 1 15.898122373943632 1.7627240406814206 5.375484678093703e-16 0 0 0
20 1 14.12653841558476 1.7665282227259853 1.7662145501124231 0 0 0
37 1 14.13039542708692 3.528401142231751 0 0 0 0
39 1 15.891652746345597 3.533156255145255 1.7671025717916848 0 0 0
67 1 14.130289703945007 0.00034406998594534003 3.528862690027985 0 0 0
68 1 15.89545233721344 1.7665445621397817 3.529480050140622 0 0 0
69 1 15.89344410044128 0.0003600611491955655 5.297084753814166 0 0 0
70 1 14.128164755498513 1.7655462731920581 5.2964083979038294 0 0 0
87 1 14.126997896542006 3.531850095539262 3.5321481517394386 0 0 0
89 1 15.893437142869702 3.53137185862115 5.297101402659788 0 0 0
22 1 1.765613478855082 5.2951768895575295 0 0 0 0
28 1 3.53248230754928 5.298290223888875 1.7662546753439468 0 0 0
41 1 0.00038085862416138597 7.063395336490478 1.9760567327605455e-18 0 0 0
42 1 1.7658769885522196 7.0631595007410874 1.7655073678809463 0 0 0
43 1 3.5312715841933313 7.063284602482151 0 0 0 0
72 1 1.7655476574223141 5.294519297545848 3.528862690027985 0 0 0
74 1 0.0003454542162026873 5.29664424599234 5.296408397903829 0 0 0
78 1 3.5313661618646424 5.29772573768721 5.297500936625592 0 0 0
91 1 0.00034308741747296197 7.063294863408763 3.5315701485769755 0 0 0
92 1 1.7657278509623329 7.062509743526628 5.296631912206007 0 0 0
93 1 3.5313185741991067 7.063088830306255 3.5316503401854127 0 0 0
252 1 4.3039460619167834e-05 8.829309219935201 1.765824092280959 0 0 0
254 1 3.5316665431691794 8.829313735534873 1.7658581869792807 0 0 0
301 1 1.7658942516568685 8.829429852008833 3.531511031854881 0 0 0
302 1 0.0001530369938675413 8.829332282076594 5.297415787800257 0 0 0
304 1 3.5314973454746803 8.829337179698909 5.297453636778283 0 0 0
26 1 5.293844970212238 5.2938449702122385 4.470477609061163e-16 0 0 0
32 1 7.06321004515731 5.297560099185714 1.7654110130957332 0 0 0
44 1 5.297560099185714 7.06321004515731 1.765411013095733 0 0 0
45 1 7.062335809046278 7.062335809046278 0 0 0 0
76 1 5.298212682424628 5.298212682424629 3.532188721473326 0 0 0
82 1 7.063645393412672 5.297550694240398 5.297707459064954 0 0 0
94 1 5.297550694240397 7.063645393412672 5.297707459064954 0 0 0
95 1 7.06364581772181 7.06364581772181 3.531599373302723 0 0 0
30 1 8.829435993231609 5.297350055123342 0 0 0 0
46 1 8.82934409330543 7.063381723859651 1.7655910567180688 0 0 0
80 1 8.82922865710637 5.297429824088029 3.5315348554147414 0 0 0
253 1 5.297350055123342 8.82943599323161 9.708439419688567e-19 0 0 0
256 1 7.063381723859651 8.82934409330543 1.7655910567180697 0 0 0
303 1 5.29742982408803 8.82922865710637 3.531534855414742 0 0 0
255 1 8.829149092561767 8.829149092561767 1.985820824767807e-16 0 0 0
34 1 12.362240230604149 5.296518658161131 0 0 0 0
36 1 10.595486391962138 5.297466929511967 1.7657358572733552 0 0 0
47 1 10.595682642202345 7.063095849148693 2.711317390185851e-16 0 0 0
48 1 12.36151379212809 7.063295209362765 1.7655778531973358 0 0 0
84 1 12.361451987729346 5.297578040583158 3.5315554494460253 0 0 0
86 1 10.595365865311745 5.297479574966635 5.297504663003802 0 0 0
96 1 8.829476739947498 7.063487414097955 5.297557832312052 0 0 0
97 1 10.595365208813961 7.063441232324527 3.531529097129306 0 0 0
98 1 12.361313215296047 7.063495786194807 5.297562217281422 0 0 0
257 1 12.361713152342162 8.829126359288509 0 0 0 0
258 1 10.595433707952404 8.829375293538448 1.7655885343891755 0 0 0
307 1 12.361367769166328 8.829443792676892 3.531529097129307 0 0 0
308 1 10.595384157042146 8.82942484444871 5.29752842726697 0 0 0
100 1 15.893272390333134 7.063466925506293 5.297593808241431 0 0 0
99 1 14.127230960907697 7.063357013761507 3.5315554494460253 0 0 0
90 1 14.127183872005023 5.297625129485829 5.297766013158079 0 0 0
88 1 15.892958905951591 5.297811104948846 3.5321481517394386 0 0 0
50 1 15.893098574283991 7.063159291071158 1.7654968628561332 0 0 0
24 1 17.65828077876487 5.298270585906095 1.766214550112423 -1 0 0
38 1 15.896407859259103 5.294413574403934 0 0 0 0
40 1 14.127467326088473 5.297341675402382 1.765171910249117 0 0 0
49 1 14.128290343329722 7.062568770886706 0 0 0 0
259 1 15.89324680724875 8.82942574040402 1.0292405700572091e-18 0 0 0
260 1 14.127342071978887 8.829322609528715 1.7657358572733552 0 0 0
309 1 15.89315928184221 8.829215427767197 3.531561629230878 0 0 0
310 1 14.127329426524218 8.829443136179108 5.297504663003803 0 0 0
101 1 4.085205825937734e-05 4.0852058258677845e-05 7.063495226617858 0 0 0
102 1 1.7658508753500004 1.7658508753500006 7.063495226617858 0 0 0
103 1 1.765857208204958 3.4519203302934464e-05 8.829458637041297 0 0 0
104 1 3.451920330259096e-05 1.7658572082049582 8.829458637041297 0 0 0
105 1 3.5315324351613886 4.8962715744225013e-05 7.0633641290926725 0 0 0
108 1 3.53165639265138 1.7658898194467842 8.829458637041297 0 0 0
121 1 4.896271574492303e-05 3.5315324351613886 7.0633641290926725 0 0 0
123 1 1.7658898194467851 3.5316563926513815 8.829458637041297 0 0 0
125 1 3.531592896262091 3.531592896262091 7.063145129013687 0 0 0
151 1 4.085205826019493e-05 4.0852058258641334e-05 10.595422047464735 0 0 0
152 1 1.7658508753500006 1.76585087535 10.595422047464735 0 0 0
153 1 3.531532435161388 4.896271574395941e-05 10.595553144989921 0 0 0
161 1 4.896271574467799e-05 3.531532435161388 10.595553144989921 0 0 0
163 1 3.531592896262091 3.531592896262091 10.595772145068906 0 0 0
106 1 5.297336942252382 1.7657253227381424 7.063376798070809 0 0 0
107 1 5.297412749066469 6.46198730975254e-06 8.829458637041297 0 0 0
109 1 7.063092901292965 0.00015546117338792128 7.063098827094622 0 0 0
112 1 7.063315860190853 1.7657267098507226 8.829458637041297 0 0 0
127 1 5.297447584717263 3.5316359705522173 8.829458637041297 0 0 0
129 1 7.063447567024292 3.5314894192710478 7.063453789807996 0 0 0
154 1 5.2973369422523815 1.7657253227381422 10.595540476011786 0 0 0
155 1 7.063092901292965 0.00015546117338979893 10.595818446987971 0 0 0
165 1 7.063447567024292 3.5314894192710473 10.595463484274598 0 0 0
110 1 8.829140340738235 1.7657309628702116 7.0631868068456285 0 0 0
111 1 8.829356969095933 0.00015782232089120546 8.829458637041297 0 0 0
131 1 8.829393457848578 3.5314759799236546 8.829458637041297 0 0 0
156 1 8.829140340738235 1.7657309628702114 10.595730467236965 0 0 0
113 1 10.595668660752619 0.0001607645380492328 7.0631868068456285 0 0 0
114 1 12.36171610019789 1.7657362662348712 7.063098827094621 0 0 0
115 1 12.3614931413 0.00016501755753734243 8.829458637041297 0 0 0
116 1 10.59545203239492 1.7657339050873693 8.829458637041297 0 0 0
133 1 10.595372637125271 3.5314880812327445 7.063491788463325 0 0 0
135 1 12.361470923934572 3.5314832092793123 8.829458637041297 0 0 0
157 1 10.595668660752619 0.00016076453804912577 10.595730467236965 0 0 0
158 1 12.36171610019789 1.7657362662348708 10.595818446987973 0 0 0
167 1 10.595372637125273 3.5314880812327454 10.595425485619268 0 0 0
117 1 14.127472059238471 0.00016640467011710272 7.063376798070809 0 0 0
118 1 15.893276566329465 1.7658427646925157 7.063364129092672 0 0 0
119 1 15.893152608839474 1.90796147424839e-06 8.829458637041297 0 0 0
120 1 14.127396252424385 1.76588526542095 8.829458637041297 0 0 0
137 1 14.12742324633196 3.531472361828103 7.0631705666398314 0 0 0
139 1 15.893133382362116 3.5316756191287375 8.829458637041297 0 0 0
159 1 14.127472059238473 0.00016640467011787955 10.595540476011784 0 0 0
160 1 15.893276566329465 1.7658427646925163 10.595553144989921 0 0 0
169 1 14.127423246331961 3.5314723618281025 10.595746707442764 0 0 0
122 1 1.7657253227381422 5.297336942252382 7.063376798070808 0 0 0
124 1 6.46198730953973e-06 5.297412749066469 8.829458637041297 0 0 0
128 1 3.531635970552217 5.297447584717262 8.829458637041297 0 0 0
141 1 0.00015546117338887695 7.063092901292964 7.063098827094621 0 0 0
142 1 1.765726709850722 7.063315860190852 8.829458637041297 0 0 0
143 1 3.531489419271047 7.063447567024293 7.063453789807996 0 0 0
162 1 1.7657253227381426 5.2973369422523815 10.595540476011784 0 0 0
171 1 0.000155461173389 7.063092901292964 10.595818446987973 0 0 0
172 1 3.5314894192710473 7.0634475670242916 10.595463484274598 0 0 0
351 1 1.7657309628702114 8.829140340738235 7.063186806845629 0 0 0
352 1 0.00015782232089081848 8.829356969095933 8.829458637041297 0 0 0
354 1 3.5314759799236546 8.82939345784858 8.829458637041297 0 0 0
401 1 1.765730962870211 8.829140340738235 10.595730467236965 0 0 0
126 1 5.297482519980631 5.29748251998063 7.063345341391304 0 0 0
132 1 7.063424471015118 5.297459875070196 8.829458637041297 0 0 0
144 1 5.297459875070197 7.063424471015118 8.829458637041297 0 0 0
145 1 7.063489142600272 7.063489142600271 7.0635585373078005 0 0 0
164 1 5.29748251998063 5.29748251998063 10.595571932691291 0 0 0
173 1 7.063489142600271 7.063489142600272 10.595358736774793 0 0 0
146 1 8.829443185067639 7.063448331961159 8.829458637041297 0 0 0
356 1 7.063448331961159 8.829443185067639 8.829458637041297 0 0 0
355 1 8.82943397671031 8.82943397671031 7.063512187338253 0 0 0
403 1 8.82943397671031 8.82943397671031 10.595405086744341 0 0 0
130 1 8.829474313793064 5.29745950272552 7.063552291693269 0 0 0
134 1 12.361325009383732 5.297468305211754 7.0635656196993475 0 0 0
136 1 10.595400608983748 5.2974398155475555 8.829458637041297 0 0 0
147 1 10.595395727172459 7.06344835102658 7.063517546667208 0 0 0
148 1 12.361369342303808 7.063439659187045 8.829458637041297 0 0 0
166 1 8.829474313793064 5.29745950272552 10.595364982389324 0 0 0
168 1 12.361325009383732 5.297468305211755 10.595351654383245 0 0 0
174 1 10.595395727172459 7.0634483510265795 10.595399727415385 0 0 0
357 1 12.361360650464274 8.829413274318394 7.063517546667208 0 0 0
358 1 10.595394713257543 8.82941428823331 8.829458637041297 0 0 0
404 1 12.361360650464276 8.829413274318394 10.595399727415385 0 0 0
138 1 15.893336639662751 5.297385755158894 7.063170566639832 0 0 0
140 1 14.12741082930536 5.297398172185494 8.829458637041297 0 0 0
149 1 14.127340696279099 7.063483992107122 7.0635656196993475 0 0 0
150 1 15.893325792211543 7.063338077556283 8.829458637041297 0 0 0
170 1 15.893336639662751 5.297385755158894 10.595746707442764 0 0 0
175 1 14.1273406962791 7.063483992107123 10.595351654383245 0 0 0
359 1 15.893320920258109 8.829436364365582 7.063491788463325 0 0 0
360 1 14.127369185943298 8.829408392507105 8.829458637041299 0 0 0
405 1 15.893320920258107 8.829436364365582 10.595425485619268 0 0 0
176 1 1.7655156520059918 0.0003760754022688472 12.361809508412374 0 0 0
177 1 0.0003760754022686235 1.7655156520059916 12.361809508412376 0 0 0
179 1 3.5313649010495727 1.7655316662590634 12.361832520268427 0 0 0
186 1 1.7655316662590637 3.5313649010495727 12.361832520268429 0 0 0
202 1 1.766520929273134 1.7665209292731348 14.128735542432533 0 0 0
203 1 1.7626888280027322 0.003202899405528219 15.899684367509797 0 0 0
204 1 0.0032028994055288327 1.762688828002732 15.899684367509797 0 0 0
208 1 3.5299150292486177 1.7666820723813874 15.895079885455932 0 0 0
223 1 1.7666820723813865 3.529915029248618 15.895079885455933 0 0 0
225 1 3.5329416953595274 3.5329416953595265 14.125813620899372 0 0 0
178 1 5.296644245992339 0.0003454542162017921 12.362508876178765 0 0 0
181 1 7.062509743526628 1.7657278509623326 12.362285361876586 0 0 0
188 1 5.297725737687209 3.5313661618646424 12.361416337457003 0 0 0
206 1 5.294519297545849 1.7655476574223143 14.130054584054607 0 0 0
209 1 7.063294863408763 0.00034308741747256824 14.12734712550562 0 0 0
212 1 7.0631595007410874 1.76587698855222 15.893409906201649 0 0 0
227 1 5.298290223888875 3.5324823075492797 15.892662598738646 0 0 0
229 1 7.063088830306256 3.5313185741991076 14.127266933897182 0 0 0
180 1 8.829332282076594 0.00015303699386773684 12.361501486282336 0 0 0
190 1 8.829337179698909 3.5314973454746807 12.361463637304311 0 0 0
210 1 8.82942985200883 1.7658942516568692 14.127406242227712 0 0 0
211 1 8.8293092199352 4.303946061746214e-05 15.893093181801634 0 0 0
231 1 8.829313735534871 3.53166654316918 15.893059087103312 0 0 0
182 1 12.362299257964224 0.00016387644592659554 12.362285361876586 0 0 0
183 1 10.59547671941426 1.7657386904143912 12.361501486282336 0 0 0
192 1 12.361342075984561 3.5315366111577218 12.36132346584116 0 0 0
214 1 12.36151413808209 1.7655486399907865 14.12734712550562 0 0 0
215 1 12.361649500749765 1.4738856042351837e-05 15.893409906201647 0 0 0
216 1 10.595499781555654 1.765848687947642 15.893093181801634 0 0 0
233 1 10.595593573723656 3.5316497196486427 14.127355644851715 0 0 0
235 1 12.361649710419696 3.5317104272068605 15.893420411226458 0 0 0
221 1 17.658264439351075 3.529356664277413 14.129437223941972 -1 0 0
184 1 15.893444100441279 0.00036006114919722115 12.361832520268429 0 0 0
185 1 14.128164755498513 1.7655462731920575 12.362508876178765 0 0 0
194 1 15.893437142869702 3.53137185862115 12.361815871422806 0 0 0
217 1 14.130289703945007 0.0003440699859454864 14.130054584054609 0 0 0
218 1 15.89545233721344 1.7665445621397802 14.129437223941972 0 0 0
220 1 14.126538415584758 1.7665282227259846 15.89270272397017 0 0 0
237 1 14.126997896542008 3.531850095539262 14.126769122343156 0 0 0
239 1 15.891652746345597 3.5331562551452547 15.891814702290908 0 0 0
187 1 0.00034545421620068857 5.29664424599234 12.362508876178765 0 0 0
189 1 3.531366161864643 5.297725737687209 12.361416337457003 0 0 0
196 1 1.765727850962333 7.062509743526628 12.362285361876587 0 0 0
222 1 1.765547657422314 5.294519297545849 14.130054584054607 0 0 0
228 1 3.5324823075492797 5.298290223888875 15.892662598738646 0 0 0
241 1 0.0003430874174737673 7.063294863408763 14.127347125505619 0 0 0
242 1 1.7658769885522196 7.0631595007410874 15.893409906201647 0 0 0
243 1 3.531318574199107 7.063088830306255 14.12726693389718 0 0 0
426 1 0.00015303699386818383 8.829332282076596 12.361501486282336 0 0 0
427 1 3.5314973454746803 8.829337179698909 12.361463637304311 0 0 0
451 1 1.7658942516568688 8.829429852008833 14.127406242227712 0 0 0
452 1 4.3039460618440795e-05 8.8293092199352 15.893093181801635 0 0 0
454 1 3.53166654316918 8.829313735534873 15.893059087103314 0 0 0
191 1 7.063645393412672 5.297550694240398 12.36120981501764 0 0 0
197 1 5.297550694240397 7.063645393412672 12.36120981501764 0 0 0
226 1 5.298212682424629 5.298212682424629 14.126728552609269 0 0 0
232 1 7.06321004515731 5.297560099185714 15.89350626098686 0 0 0
244 1 5.297560099185714 7.0632100451573105 15.89350626098686 0 0 0
245 1 7.06364581772181 7.06364581772181 14.12731790077987 0 0 0
230 1 8.82922865710637 5.297429824088029 14.127382418667851 0 0 0
246 1 8.82934409330543 7.063381723859651 15.893326217364525 0 0 0
453 1 5.297429824088029 8.82922865710637 14.127382418667851 0 0 0
456 1 7.063381723859651 8.82934409330543 15.893326217364525 0 0 0
193 1 10.595365865311745 5.297479574966635 12.36141261107879 0 0 0
198 1 8.829476739947498 7.063487414097956 12.361359441770542 0 0 0
199 1 12.361313215296047 7.063495786194808 12.36135505680117 0 0 0
234 1 12.361451987729346 5.297578040583157 14.127361824636568 0 0 0
236 1 10.595486391962138 5.297466929511967 15.893181416809238 0 0 0
247 1 10.595365208813961 7.063441232324528 14.127388176953286 0 0 0
248 1 12.361513792128092 7.063295209362765 15.893339420885258 0 0 0
429 1 10.595384157042146 8.829424844448708 12.361388846815625 0 0 0
457 1 12.361367769166328 8.829443792676892 14.127388176953286 0 0 0
458 1 10.595433707952404 8.82937529353845 15.893328739693418 0 0 0
250 1 15.893098574283993 7.063159291071158 15.89342041122646 0 0 0
249 1 14.127230960907697 7.063357013761508 14.12736182463657 0 0 0
240 1 14.127467326088473 5.297341675402381 15.893745363833476 0 0 0
238 1 15.892958905951591 5.297811104948846 14.126769122343154 0 0 0
200 1 15.893272390333134 7.063466925506292 12.361323465841162 0 0 0
224 1 17.65828077876487 5.298270585906096 15.89270272397017 -1 0 0
195 1 14.127183872005023 5.297625129485828 12.361151260924515 0 0 0
430 1 14.127329426524218 8.82944313617911 12.36141261107879 0 0 0
459 1 15.89315928184221 8.829215427767199 14.127355644851715 0 0 0
460 1 14.127342071978887 8.829322609528715 15.893181416809238 0 0 0
251 1 1.7658731630293207 8.829549817306402 0 0 0 0
261 1 1.856437893886072e-05 10.595259184184451 4.1364278229249535e-19 0 0 0
262 1 1.7655108687840977 12.361413665000377 5.316526348877072e-19 0 0 0
263 1 1.7658486879476418 10.595499781555652 1.7658240922809598 0 0 0
264 1 1.4738856041473476e-05 12.361649500749767 1.765507367880946 0 0 0
265 1 3.5315621942421047 10.595383261086834 1.295131352384934e-16 0 0 0
268 1 3.531710427206861 12.361649710419696 1.7654968628561338 0 0 0
312 1 1.7655486399907867 12.36151413808209 3.531570148576975 0 0 0
313 1 1.7657386904143915 10.59547671941426 5.297415787800258 0 0 0
314 1 0.00016387644592629846 12.362299257964224 5.296631912206007 0 0 0
315 1 3.5316497196486427 10.595593573723656 3.531561629230878 0 0 0
318 1 3.531536611157722 12.361342075984561 5.297593808241432 0 0 0
266 1 5.296518658161132 12.362240230604147 0 0 0 0
267 1 5.297466929511967 10.595486391962138 1.7657358572733555 0 0 0
269 1 7.063095849148692 10.595682642202345 1.3358228675210584e-18 0 0 0
272 1 7.063295209362764 12.361513792128092 1.7655778531973352 0 0 0
306 1 7.063487414097955 8.8294767399475 5.297557832312052 0 0 0
316 1 5.297578040583157 12.361451987729346 3.5315554494460257 0 0 0
317 1 5.297479574966635 10.595365865311745 5.297504663003803 0 0 0
319 1 7.063441232324526 10.59536520881396 3.5315290971293067 0 0 0
322 1 7.063495786194807 12.361313215296049 5.297562217281423 0 0 0
270 1 8.829126359288509 12.36171315234216 4.285894534282684e-19 0 0 0
271 1 8.82937529353845 10.595433707952404 1.7655885343891755 0 0 0
320 1 8.829443792676894 12.361367769166328 3.5315290971293067 0 0 0
321 1 8.829424844448708 10.595384157042144 5.297528427266969 0 0 0
273 1 10.595659908929086 10.595659908929086 9.993645753807103e-17 0 0 0
274 1 12.362473192444575 12.362473192444577 5.349002501152304e-16 0 0 0
275 1 12.361427277631204 10.595464908185425 1.765591056718068 0 0 0
276 1 10.595464908185425 12.361427277631202 1.7655910567180686 0 0 0
305 1 8.829465641452897 8.829465641452897 3.531524759772178 0 0 0
323 1 10.595343360037957 10.595343360037957 3.5315247597721786 0 0 0
324 1 12.361163183769042 12.361163183769042 3.5315993733027224 0 0 0
325 1 12.361321587392899 10.595332261543353 5.2975578323120525 0 0 0
326 1 10.595332261543353 12.361321587392899 5.297557832312052 0 0 0
311 1 17.658914749833986 10.595379149482023 3.5315110318548815 -1 0 0
277 1 14.127458946367513 10.595373008259244 0 0 0 0
278 1 15.893537417297521 12.361524399008703 0 0 0 0
279 1 15.893142458321675 10.595495265955982 1.7658581869792798 0 0 0
280 1 14.12724890230514 12.361598956333545 1.7654110130957337 0 0 0
327 1 14.127379177402824 10.595580344384484 3.5315348554147414 0 0 0
328 1 15.893490427291747 12.361720171184599 3.531650340185414 0 0 0
329 1 15.893311656016174 10.595471821791946 5.297453636778283 0 0 0
330 1 14.127258307250457 12.361163608078181 5.297707459064954 0 0 0
281 1 0.00027824855317930107 14.129632111933324 9.657024917486722e-17 0 0 0
282 1 1.7627240406814209 15.898122373943632 5.906962444539812e-16 0 0 0
283 1 1.7665282227259849 14.126538415584758 1.7662145501124227 0 0 0
285 1 3.52840114223175 14.13039542708692 1.419953621013012e-16 0 0 0
288 1 3.5331562551452556 15.891652746345597 1.7671025717916848 0 0 0
331 1 0.0003440699859466552 14.130289703945005 3.5288626900279856 0 0 0
332 1 1.7665445621397806 15.895452337213442 3.529480050140623 0 0 0
333 1 1.7655462731920584 14.128164755498515 5.296408397903829 0 0 0
334 1 0.0003600611491976483 15.89344410044128 5.297084753814165 0 0 0
335 1 3.5318500955392627 14.126997896542006 3.532148151739439 0 0 0
338 1 3.5313718586211493 15.893437142869702 5.297101402659788 0 0 0
55 1 3.529356664277413 17.658264439351072 3.529480050140622 0 -1 0
341 1 8.829443136179108 14.127329426524218 5.297504663003802 0 0 0
340 1 8.829215427767197 15.893159281842212 3.5315616292308776 0 0 0
286 1 5.294413574403932 15.896407859259103 1.278004835580961e-18 0 0 0
287 1 5.297341675402381 14.127467326088471 1.7651719102491175 0 0 0
289 1 7.062568770886706 14.128290343329722 0 0 0 0
292 1 7.063159291071159 15.893098574283993 1.7654968628561343 0 0 0
336 1 5.297811104948846 15.892958905951591 3.5321481517394377 0 0 0
337 1 5.297625129485829 14.127183872005022 5.297766013158078 0 0 0
339 1 7.063357013761507 14.127230960907697 3.5315554494460257 0 0 0
342 1 7.063466925506293 15.893272390333133 5.297593808241431 0 0 0
290 1 8.829425740404018 15.893246807248747 4.644618430736977e-16 0 0 0
291 1 8.829322609528715 14.127342071978887 1.7657358572733555 0 0 0
7 1 5.298270585906095 17.65828077876487 1.7662145501124231 0 -1 0
346 1 10.595471821791946 15.893311656016174 5.297453636778282 0 0 0
345 1 12.361163608078181 14.127258307250457 5.297707459064953 0 0 0
344 1 12.361720171184599 15.893490427291747 3.5316503401854145 0 0 0
343 1 10.595580344384484 14.127379177402823 3.5315348554147414 0 0 0
296 1 10.59549526595598 15.893142458321675 1.7658581869792807 0 0 0
295 1 12.361598956333543 14.12724890230514 1.7654110130957326 0 0 0
294 1 12.361524399008703 15.89353741729752 1.014641413035121e-18 0 0 0
293 1 10.595373008259244 14.127458946367513 7.389468735154758e-17 0 0 0
63 1 10.59537914948202 17.658914749833983 3.5315110318548806 0 -1 0
350 1 14.127083263803645 15.893442839626212 5.297500936625592 0 0 0
349 1 15.893442839626212 14.127083263803645 5.297500936625592 0 0 0
348 1 15.891867306131326 15.891867306131328 3.533103653183222 0 0 0
347 1 14.126596319066225 14.126596319066225 3.5321887214733265 0 0 0
300 1 14.12651877760198 15.892326693941573 1.7662546753439465 0 0 0
299 1 15.892326693941573 14.126518777601978 1.7662546753439456 0 0 0
298 1 15.89872239376971 15.89872239376971 0 0 0 0
297 1 14.130964031278618 14.130964031278618 1.3747539529132932e-19 0 0 0
284 1 17.658126929109464 15.894893972242237 1.7638373886266612 -1 0 0
51 1 17.658288072217722 17.658288072217722 3.530181731650061 -1 -1 0
19 1 15.894893972242235 17.658126929109464 1.7638373886266612 0 -1 0
361 1 0.00016076453804709907 10.595668660752619 7.0631868068456285 0 0 0
362 1 1.7657362662348712 12.361716100197889 7.063098827094622 0 0 0
363 1 1.7657339050873702 10.59545203239492 8.829458637041297 0 0 0
364 1 0.00016501755753719303 12.361493141300002 8.829458637041297 0 0 0
365 1 3.531488081232745 10.595372637125273 7.063491788463326 0 0 0
368 1 3.531483209279311 12.361470923934572 8.829458637041297 0 0 0
406 1 0.0001607645380479101 10.595668660752619 10.595730467236965 0 0 0
407 1 1.7657362662348721 12.36171610019789 10.595818446987973 0 0 0
408 1 3.5314880812327436 10.595372637125273 10.595425485619268 0 0 0
353 1 5.29745950272552 8.829474313793064 7.063552291693269 0 0 0
366 1 5.297468305211754 12.36132500938373 7.063565619699347 0 0 0
367 1 5.297439815547555 10.595400608983747 8.829458637041297 0 0 0
369 1 7.06344835102658 10.595395727172459 7.063517546667208 0 0 0
372 1 7.063439659187046 12.36136934230381 8.829458637041297 0 0 0
402 1 5.29745950272552 8.829474313793064 10.595364982389322 0 0 0
409 1 5.297468305211755 12.361325009383732 10.595351654383245 0 0 0
410 1 7.06344835102658 10.595395727172459 10.595399727415385 0 0 0
370 1 8.829413274318394 12.361360650464274 7.063517546667209 0 0 0
371 1 8.82941428823331 10.595394713257543 8.829458637041297 0 0 0
411 1 8.829413274318394 12.361360650464274 10.595399727415385 0 0 0
373 1 10.595375024780543 10.595375024780543 7.063512187338253 0 0 0
374 1 12.361319858890583 12.361319858890583 7.063558537307801 0 0 0
375 1 12.361360669529695 10.595365816423215 8.829458637041297 0 0 0
376 1 10.595365816423215 12.361360669529695 8.829458637041297 0 0 0
412 1 10.595375024780543 10.595375024780543 10.595405086744341 0 0 0
413 1 12.361319858890583 12.361319858890583 10.595358736774793 0 0 0
377 1 14.127349498765334 10.595334687697791 7.063552291693268 0 0 0
378 1 15.893319582219807 12.361361434466561 7.063453789807995 0 0 0
379 1 15.8933330215672 10.595415543642275 8.829458637041297 0 0 0
380 1 14.127349126420658 12.361384530475735 8.829458637041297 0 0 0
414 1 14.127349498765334 10.59533468769779 10.595364982389324 0 0 0
415 1 15.893319582219807 12.361361434466563 10.595463484274598 0 0 0
381 1 0.00016640467011790782 14.127472059238471 7.063376798070809 0 0 0
382 1 1.7658427646925159 15.893276566329465 7.0633641290926725 0 0 0
383 1 1.7658852654209491 14.127396252424386 8.829458637041297 0 0 0
384 1 1.907961475182249e-06 15.893152608839475 8.829458637041297 0 0 0
385 1 3.5314723618281025 14.127423246331961 7.0631705666398314 0 0 0
388 1 3.5316756191287384 15.893133382362116 8.829458637041297 0 0 0
416 1 0.0001664046701171848 14.127472059238473 10.595540476011784 0 0 0
417 1 1.7658427646925154 15.893276566329467 10.595553144989921 0 0 0
418 1 3.531472361828103 14.12742324633196 10.595746707442764 0 0 0
421 1 8.829436364365582 15.893320920258107 10.595425485619268 0 0 0
386 1 5.297385755158893 15.893336639662753 7.063170566639832 0 0 0
387 1 5.297398172185495 14.12741082930536 8.829458637041297 0 0 0
389 1 7.063483992107123 14.127340696279099 7.0635656196993475 0 0 0
392 1 7.063338077556282 15.893325792211542 8.829458637041295 0 0 0
419 1 5.297385755158893 15.893336639662751 10.595746707442764 0 0 0
420 1 7.063483992107122 14.127340696279099 10.595351654383245 0 0 0
390 1 8.82943636436558 15.893320920258109 7.063491788463326 0 0 0
391 1 8.829408392507105 14.127369185943298 8.829458637041297 0 0 0
423 1 12.361361434466563 15.893319582219807 10.595463484274598 0 0 0
422 1 10.595334687697791 14.127349498765335 10.595364982389324 0 0 0
396 1 10.595415543642275 15.893333021567198 8.829458637041297 0 0 0
395 1 12.361384530475735 14.127349126420658 8.829458637041297 0 0 0
394 1 12.361361434466563 15.893319582219807 7.063453789807995 0 0 0
393 1 10.595334687697791 14.127349498765334 7.06355229169327 0 0 0
425 1 15.893216105228761 15.893216105228763 10.595772145068906 0 0 0
424 1 14.127326481510222 14.127326481510224 10.595571932691291 0 0 0
400 1 14.12736141677359 15.893173030938636 8.829458637041297 0 0 0
399 1 15.893173030938637 14.12736141677359 8.829458637041299 0 0 0
398 1 15.893216105228763 15.893216105228763 7.063145129013687 0 0 0
397 1 14.127326481510222 14.127326481510222 7.063345341391302 0 0 0
431 1 1.7657386904143906 10.59547671941426 12.361501486282336 0 0 0
432 1 0.0001638764459272756 12.362299257964226 12.362285361876586 0 0 0
434 1 3.5315366111577218 12.361342075984561 12.36132346584116 0 0 0
462 1 1.7655486399907867 12.36151413808209 14.127347125505619 0 0 0
463 1 1.7658486879476423 10.595499781555654 15.893093181801634 0 0 0
464 1 1.4738856041048272e-05 12.361649500749767 15.893409906201649 0 0 0
465 1 3.5316497196486436 10.595593573723656 14.127355644851715 0 0 0
468 1 3.531710427206861 12.361649710419696 15.893420411226458 0 0 0
428 1 7.063487414097955 8.8294767399475 12.361359441770542 0 0 0
433 1 5.297479574966636 10.595365865311745 12.36141261107879 0 0 0
436 1 7.063495786194807 12.361313215296047 12.36135505680117 0 0 0
466 1 5.297578040583157 12.361451987729346 14.127361824636568 0 0 0
467 1 5.297466929511967 10.595486391962138 15.89318141680924 0 0 0
469 1 7.063441232324527 10.595365208813961 14.127388176953286 0 0 0
472 1 7.0632952093627654 12.36151379212809 15.893339420885258 0 0 0
435 1 8.829424844448708 10.595384157042146 12.361388846815624 0 0 0
470 1 8.829443792676892 12.361367769166328 14.127388176953286 0 0 0
471 1 8.82937529353845 10.595433707952404 15.893328739693418 0 0 0
437 1 12.361321587392899 10.595332261543355 12.361359441770542 0 0 0
438 1 10.595332261543355 12.361321587392899 12.361359441770542 0 0 0
455 1 8.829465641452897 8.829465641452897 14.127392514310415 0 0 0
473 1 10.595343360037958 10.595343360037958 14.127392514310415 0 0 0
474 1 12.361163183769042 12.361163183769042 14.12731790077987 0 0 0
475 1 12.361427277631202 10.595464908185425 15.893326217364525 0 0 0
476 1 10.595464908185425 12.3614272776312 15.893326217364525 0 0 0
461 1 17.658914749833983 10.59537914948202 14.127406242227712 -1 0 0
439 1 15.893311656016174 10.595471821791945 12.361463637304311 0 0 0
440 1 14.127258307250457 12.361163608078181 12.36120981501764 0 0 0
477 1 14.127379177402824 10.595580344384484 14.127382418667851 0 0 0
478 1 15.893490427291745 12.361720171184599 14.12726693389718 0 0 0
479 1 15.893142458321675 10.595495265955982 15.893059087103314 0 0 0
480 1 14.12724890230514 12.361598956333545 15.89350626098686 0 0 0
441 1 1.7655462731920586 14.128164755498513 12.362508876178767 0 0 0
442 1 0.00036006114919715177 15.893444100441279 12.361832520268429 0 0 0
444 1 3.531371858621151 15.893437142869702 12.361815871422806 0 0 0
481 1 0.00034406998594676213 14.130289703945005 14.130054584054609 0 0 0
482 1 1.7665445621397806 15.89545233721344 14.129437223941972 0 0 0
483 1 1.7665282227259849 14.126538415584758 15.89270272397017 0 0 0
485 1 3.5318500955392618 14.126997896542006 14.126769122343154 0 0 0
488 1 3.533156255145256 15.8916527463456 15.891814702290908 0 0 0
205 1 3.529356664277414 17.658264439351072 14.129437223941972 0 -1 0
491 1 8.829322609528715 14.127342071978887 15.89318141680924 0 0 0
490 1 8.829215427767197 15.89315928184221 14.127355644851715 0 0 0
443 1 5.297625129485829 14.127183872005023 12.361151260924515 0 0 0
446 1 7.063466925506293 15.893272390333133 12.361323465841162 0 0 0
486 1 5.297811104948846 15.892958905951593 14.126769122343156 0 0 0
487 1 5.297341675402381 14.127467326088471 15.893745363833476 0 0 0
489 1 7.063357013761508 14.127230960907696 14.12736182463657 0 0 0
492 1 7.063159291071158 15.893098574283993 15.893420411226458 0 0 0
445 1 8.82944313617911 14.127329426524218 12.361412611078793 0 0 0
207 1 5.298270585906095 17.658280778764865 15.89270272397017 0 -1 0
496 1 10.595495265955982 15.893142458321673 15.893059087103314 0 0 0
495 1 12.361598956333543 14.127248902305142 15.893506260986861 0 0 0
494 1 12.3617201711846 15.893490427291745 14.127266933897182 0 0 0
493 1 10.595580344384484 14.127379177402823 14.127382418667851 0 0 0
448 1 10.595471821791945 15.893311656016174 12.36146363730431 0 0 0
447 1 12.361163608078181 14.127258307250457 12.361209815017638 0 0 0
213 1 10.59537914948202 17.658914749833986 14.127406242227712 0 -1 0
500 1 14.126518777601978 15.892326693941571 15.892662598738646 0 0 0
499 1 15.892326693941571 14.126518777601978 15.892662598738646 0 0 0
498 1 15.891867306131326 15.891867306131328 14.125813620899374 0 0 0
497 1 14.126596319066225 14.126596319066225 14.126728552609269 0 0 0
450 1 14.127083263803645 15.893442839626212 12.361416337457001 0 0 0
449 1 15.893442839626212 14.127083263803645 12.361416337457003 0 0 0
484 1 17.658126929109468 15.894893972242235 15.895079885455932 -1 0 0
201 1 17.658288072217722 17.658288072217722 14.128735542432533 -1 -1 0
219 1 15.894893972242235 17.658126929109464 15.895079885455932 0 -1 0

Velocities

1 -1.706985785300723e-09 -1.7069857277556012e-09 -6.702358250095456e-16
2 1.706984931714751e-09 1.7069830961902116e-09 1.1979200952867647e-15
3 -6.819517192360583e-10 6.819524406777345e-10 -5.4845267371414175e-09
4 6.81949686303443e-10 -6.819559688073482e-10 -5.484524289349423e-09
5 -5.527436674431297e-09 2.741650374907578e-09 6.277630842956209e-16
8 -7.005336151053106e-12 2.1340073958949005e-09 5.7053948483416516e-11
21 2.7416519266763098e-09 -5.5274342727939295e-09 -4.404079034996568e-16
23 2.134011261021722e-09 -7.0047975029888115e-12 5.705329395454336e-11
25 9.149111448734245e-10 9.149125372680256e-10 1.2987166767565847e-16
52 2.179330941176612e-09 2.1793290311202348e-09 -1.6869536337207383e-09
53 -2.0544075616624732e-10 2.054429375236257e-10 -5.515919056300344e-10
54 2.0543952253747894e-10 -2.0544238640544812e-10 -5.51594942254695e-10
58 -5.564341242245083e-09 -3.013923494561432e-10 -1.4066198188455632e-10
73 -3.0138919238843717e-10 -5.564340276267527e-09 -1.4065952496808917e-10
75 5.693631820890388e-11 5.693558399296531e-11 3.991995383165359e-09
6 1.0609984630573364e-09 1.0867843044429632e-09 -1.3942194956094107e-15
9 2.4262302070477044e-09 -7.189299301402873e-10 -1.642405164984908e-16
12 -2.210594681909856e-09 -9.014996031182604e-10 -1.0174864061191522e-09
27 2.675215580467414e-09 -4.190820791130148e-09 -1.8730949523883506e-09
29 2.243957212055752e-09 -2.4433482539585267e-09 -5.806206407326277e-16
56 3.5460455123368864e-09 1.299021539138088e-09 4.0578718166832875e-11
57 -1.4460724569446572e-09 -2.012695631107737e-09 1.2686044987815993e-09
59 2.3975785268067133e-09 3.2831615985034547e-10 -1.0049455775543281e-10
62 -1.4210375503184434e-09 1.19621062281472e-09 3.2198386089708336e-09
77 1.3018618360236115e-09 4.501969711336812e-10 4.329315206950386e-09
79 8.75599230129199e-11 1.0050959214982363e-09 2.068346328858158e-10
11 -1.3857347477985423e-09 -1.3726639765250966e-09 -2.3918076089951023e-09
31 -7.188656391025513e-10 6.771217383469395e-10 -1.0692818684190295e-09
60 3.6257363073097918e-09 -3.1401014611504385e-09 -1.0268833907727208e-09
61 -2.2207096421564027e-09 -3.263415022034662e-10 3.5383746207753907e-10
81 -1.9611419839362165e-09 -2.963451548648004e-09 -2.970793780421183e-09
10 2.975459935006865e-09 -2.9714943659849553e-09 -1.018291202290643e-15
13 -2.9754587432983977e-09 2.971486696561133e-09 -1.158199790418987e-15
14 -2.4262296637239414e-09 7.189294375200644e-10 3.568049183653556e-17
15 2.210594273133459e-09 9.014971188283738e-10 -1.017487713352004e-09
16 1.3857331154706925e-09 1.3726689889023409e-09 -2.3918034141706513e-09
33 -4.256098086695087e-09 -2.1696616530462674e-10 -7.104923084082861e-16
35 2.8519595292446872e-09 -1.5724761086051398e-09 1.7366948288663456e-09
64 -2.397581512334324e-09 -3.2832081941462836e-10 -1.0049362797161997e-10
65 1.42103636832552e-09 -1.196206387973128e-09 3.219835429453435e-09
66 2.2207101376176703e-09 3.2633913957322146e-10 3.5383339864550127e-10
83 -2.438348330640537e-09 -5.968016407499873e-10 3.5354873633747436e-10
85 3.0838113977424495e-09 -1.9131478823815557e-10 3.0130965161874423e-10
71 2.418533928076092e-09 -9.698093672318025e-10 3.221355528407535e-10
17 -1.061001293468904e-09 -1.0867911575305887e-09 -2.2345834716933553e-15
18 5.527435898166744e-09 -2.7416552674500748e-09 -5.742335095354641e-16
20 -3.7195153039321136e-09 -2.0295650549112816e-09 -7.17180860492608e-10
37 -1.5207094571333474e-09 -5.4236608027679636e-09 -1.834019100899814e-16
39 2.8550765900899385e-09 -2.8550723757999445e-09 -6.329477815808963e-09
67 -3.546048522889078e-09 -1.2990162508503797e-09 4.057903657624411e-11
68 9.698128114162634e-10 -2.418543309251075e-09 3.2213619527019513e-10
69 5.564339421000245e-09 3.0139807597548507e-10 -1.4066198675094202e-10
70 1.4460744908384312e-09 2.012690431540771e-09 1.2686021111015273e-09
87 -1.1113098720779124e-09 3.7870181470885205e-09 -2.2635694917915457e-09
89 1.2336353197381557e-09 -1.2336323402935268e-09 -1.5265547831985108e-10
22 1.0867873246435721e-09 1.060999860318323e-09 -1.29905676535502e-16
28 -4.190821863395573e-09 2.6752146534839116e-09 -1.8730967155978866e-09
41 -7.189235649078257e-10 2.426232275261616e-09 1.9760567327605456e-15
42 -9.015001943841198e-10 -2.2105909542584294e-09 -1.017488661080614e-09
43 -2.443352092320227e-09 2.2439596817464814e-09 -1.1922644901371925e-16
72 1.2990220302916658e-09 3.5460476481562527e-09 4.057971709768968e-11
74 -2.0126952005987315e-09 -1.4460737182997054e-09 1.2686047353000021e-09
78 4.5019678592834786e-10 1.3018623124102155e-09 4.329315687364589e-09
91 3.2831634963938677e-10 2.3975811875030805e-09 -1.0049781336744874e-10
92 1.1962114403675134e-09 -1.4210365806910978e-09 3.219836190985452e-09
93 1.0050957926910903e-09 8.755954495558285e-11 2.068365648409284e-10
252 -1.372671480491806e-09 -1.3857396141842163e-09 -2.3918044190792928e-09
254 6.771242026010039e-10 -7.188704282343528e-10 -1.0692831964410962e-09
301 -3.140101889392378e-09 3.6257311635401343e-09 -1.0268807346766087e-09
302 -3.263401566478273e-10 -2.2207092053982887e-09 3.5383672482010944e-10
304 -2.9634529939645493e-09 -1.9611406496340945e-09 -2.9707948525467767e-09
26 1.3718475789602558e-09 1.3718448530425274e-09 -1.9549262410351455e-15
32 -3.391083730876907e-10 7.984895708974543e-12 6.618505330830839e-10
44 7.98412463040211e-12 -3.39106497768468e-10 6.618506462265509e-10
45 4.455020512611009e-09 4.455021278762604e-09 -7.749719185891751e-16
76 1.5900632923839142e-09 1.5900618677700026e-09 9.809175830128738e-10
82 -4.117673624154737e-11 -5.071044718332857e-09 1.3449646254534794e-10
94 -5.071042539408671e-09 -4.1176430875846324e-11 1.3449697655733477e-10
95 1.5980072418233512e-09 1.5980072055819325e-09 -2.56181526656934e-09
30 3.20416125175832e-09 1.5385454023832757e-09 -7.214416761748522e-16
46 -2.811536182172356e-09 -4.6032280216593204e-10 1.8657505876746775e-09
80 4.505887668095399e-10 -4.196537367621833e-09 -1.971423892646053e-09
253 1.5385458671231076e-09 3.2041569147227864e-09 9.708439419688567e-16
256 -4.6032197025694464e-10 -2.8115356502783503e-09 1.865748114334159e-09
303 -4.196539961247962e-09 4.505882107924529e-10 -1.9714238710724672e-09
255 2.6994412762073883e-09 2.6994425823258187e-09 -6.958931513861981e-16
34 -1.6751704350530354e-09 -1.55267197469633e-10 -3.2693685891355603e-16
36 1.9229364950096115e-10 -1.820899276444517e-09 1.474177086264391e-09
47 -2.1798696713611644e-09 3.0857594654580057e-09 -1.44714143981448e-15
48 2.58586043367469e-09 -2.585859267135489e-09 -8.562939405548184e-10
84 2.998944135965065e-09 2.586261476728985e-09 -2.991498095395288e-09
86 -1.622968053101342e-09 -1.888686392097617e-09 -4.405089502778761e-09
96 7.046744381869465e-10 -1.5625125410086133e-09 -2.941291303889819e-09
97 -1.9422601541421306e-10 1.3401560680765711e-09 -1.4855177020178037e-09
98 -3.2380579556726244e-09 3.2380575430441372e-09 1.356346061428312e-09
257 -3.0857628184595155e-09 2.179872726639222e-09 -2.848197458803965e-16
258 1.5130808516729992e-09 -1.513073408010533e-09 -5.600873838821439e-09
307 -1.3401569000323772e-09 1.9422665020253957e-10 -1.4855228423277651e-09
308 2.1462607518505046e-09 -2.1462654235807517e-09 1.5888617833292653e-11
100 1.913136312549616e-10 -3.0838142561357347e-09 3.013130334526386e-10
99 -2.5862642939914327e-09 -2.9989445719957758e-09 -2.9914975742962355e-09
90 7.414948963792278e-10 -7.414932290338362e-10 -1.7969344883719721e-09
88 -3.7870145052071416e-09 1.1113092896323773e-09 -2.2635693351547567e-09
50 1.5724819628671056e-09 -2.85195727610812e-09 1.7366974631017408e-09
24 2.029560893780849e-09 3.7195141195755003e-09 -7.171814231684516e-10
38 5.4236597942095324e-09 1.5207060543131648e-09 -2.6947610669937565e-16
40 1.2840310344613629e-09 -1.2840345052778798e-09 -3.8026060137709827e-10
49 1.5526849201539787e-10 1.6751686369713492e-09 -4.0330171273518296e-16
259 2.169641116898723e-10 4.256094591638932e-09 1.029240570057209e-15
260 1.8208980531710752e-09 -1.9229232226614347e-10 1.4741775773394068e-09
309 5.968046617228498e-10 2.438349552922091e-09 3.5354800495006304e-10
310 1.888688652745835e-09 1.622969257360949e-09 -4.4050909101734964e-09
101 -1.2892560239626464e-09 -1.2892544253549523e-09 -1.90993149100097e-09
102 1.2892578537236597e-09 1.2892569260688907e-09 -1.9099310907407484e-09
103 -4.2694934114453476e-09 4.269492072428914e-09 -1.0116242776788715e-15
104 4.269491747141447e-09 -4.269495344008759e-09 -3.9265649407324374e-16
105 1.5492081789647268e-09 -1.1579132683652705e-09 -2.580705971528083e-09
108 -6.205780711757215e-09 -2.9053805652748834e-09 3.041496986680548e-16
121 -1.1579151530877202e-09 1.549209815895208e-09 -2.580705128426765e-09
123 -2.9053825165187544e-09 -6.205784588638924e-09 -5.970446923824768e-16
125 7.0616977174824e-11 7.061719957197593e-11 2.2417913735812827e-10
151 -1.289260101993841e-09 -1.2892555105589578e-09 1.9099315743378245e-09
152 1.2892573184212356e-09 1.289259855024768e-09 1.9099301490951205e-09
153 1.5492105816903779e-09 -1.1579139515627214e-09 2.580704341663541e-09
161 -1.1579135593464118e-09 1.5492098353607507e-09 2.5807057750477616e-09
163 7.061678639135771e-11 7.061701725567618e-11 -2.2417993167262304e-10
106 1.856120113836469e-10 -1.8068293826762078e-09 4.1994668612866877e-10
107 -2.6194696896429085e-09 -1.203152643638365e-09 1.5888749225705851e-15
109 1.557828217163719e-09 -2.9515756605884864e-09 -6.638582551973299e-10
112 -4.5262692853002947e-10 -2.5908487930492104e-09 -9.866596954094521e-16
127 -6.219622947244349e-09 -5.129151337332017e-09 4.0519150636622614e-16
129 2.6472783009840606e-09 6.174719761515153e-10 1.7778373018261353e-09
154 1.8561283190486412e-10 -1.8068290712275245e-09 -4.19947750650535e-10
155 1.5578280174898318e-09 -2.951581042811042e-09 6.638585976692217e-10
165 2.647277405568402e-09 6.174727725564412e-10 -1.7778358727763694e-09
110 2.9406376594822588e-09 -1.4748624456940484e-09 5.766301375367056e-09
111 -1.274728259508215e-09 -9.36169235940026e-10 5.450351954912879e-16
131 8.766177178789379e-10 -4.471699885581882e-09 3.8956510356449757e-16
156 2.9406398098092998e-09 -1.4748597448499993e-09 -5.766300844018571e-09
113 -2.9406385542889243e-09 1.4748609468472608e-09 5.766301451100184e-09
114 -1.5578325537216528e-09 2.9515774270864864e-09 -6.638552526373691e-10
115 4.5262565504703566e-10 2.590851105584256e-09 -1.3631998511847936e-16
116 1.2747306932329787e-09 9.361676689638389e-10 -3.102320867193715e-17
133 1.977561309201019e-10 -2.914887399892084e-11 -1.057093593072237e-09
135 3.459836379985541e-09 -2.4638854095607446e-09 6.505296391537766e-16
157 -2.9406387826288646e-09 1.4748612680287154e-09 -5.766302904932904e-09
158 -1.5578313359670025e-09 2.951578609618205e-09 6.638554600670584e-10
167 1.9775132683156513e-10 -2.915145722518454e-11 1.0570958841690776e-09
117 -1.856081121921256e-10 1.806831223690738e-09 4.1994688200069217e-10
118 -1.5492087349492902e-09 1.1579122033356477e-09 -2.580702564145664e-09
119 6.205783004022089e-09 2.9053851613993683e-09 -9.61111170620798e-16
120 2.619472905215358e-09 1.2031558767433472e-09 -6.222890680665041e-16
137 -1.7979886224787608e-09 2.0695322837751198e-09 -5.765088159648715e-10
139 8.392503548194925e-10 -8.392521772470671e-10 -7.664557436596237e-17
159 -1.856129384301178e-10 1.8068318317608354e-09 -4.1994432471502044e-10
160 -1.5492079305509457e-09 1.1579113524405087e-09 2.580704959928161e-09
169 -1.7979924600087937e-09 2.069532699446729e-09 5.765063884209211e-10
122 -1.8068286429855852e-09 1.8561133617263465e-10 4.199478564944234e-10
124 -1.2031540938212958e-09 -2.619470289228315e-09 4.286601443334453e-16
128 -5.12914837953425e-09 -6.219620129681721e-09 -1.7101067062326325e-15
141 -2.951577295694073e-09 1.5578302306307918e-09 -6.638560993884764e-10
142 -2.590848248014015e-09 -4.5262467822585097e-10 2.883333511862394e-16
143 6.174741228335196e-10 2.6472754043848403e-09 1.7778392764525655e-09
162 -1.8068303608197281e-09 1.8561360360183346e-10 -4.1994229239070336e-10
171 -2.951577402754558e-09 1.557830958763748e-09 6.638567180277551e-10
172 6.174722637696409e-10 2.6472795555434177e-09 -1.7778373044617478e-09
351 -1.4748628009402025e-09 2.940639863954969e-09 5.7663000638761176e-09
352 -9.361674524096765e-10 -1.2747295561433712e-09 2.8468356193071737e-16
354 -4.471700784409019e-09 8.766123276188563e-10 4.625602946337179e-16
401 -1.4748602606868808e-09 2.940637199000514e-09 -5.7663013641135395e-09
126 -1.3737057942689284e-10 -1.3736746007367578e-10 5.365192113240551e-09
132 -3.054366614038146e-09 -2.8408131215221795e-09 7.737553221706678e-16
144 -2.8408162603409395e-09 -3.054367242410196e-09 -8.856821926733429e-16
145 -9.933201608447073e-10 -9.93317323133561e-10 -1.0482294901961252e-09
164 -1.3736762562038683e-10 -1.3736805012293875e-10 -5.365190810874084e-09
173 -9.933185622370132e-10 -9.933201565866197e-10 1.0482299264599971e-09
146 -2.517653843805482e-09 -7.180927564449916e-09 2.0925458398326236e-16
356 -7.1809264463978076e-09 -2.5176538693540066e-09 -6.09514805672177e-16
355 7.504091054631713e-10 7.504088347704682e-10 -1.7212231231140712e-09
403 7.504098302504876e-10 7.504089933462076e-10 1.7212237895047594e-09
130 8.462393594235955e-10 -1.7617385893217066e-10 -2.6491344407790737e-09
134 -4.252676518852815e-09 1.4586948995390203e-09 4.11870083579023e-09
136 2.597987128734813e-10 -2.281267833945736e-09 -8.051318368581846e-16
147 -2.5247616356239194e-09 7.448749443100312e-11 -3.7655770190907545e-10
148 3.766592337146441e-10 -3.766592997221003e-10 2.4317849593233396e-16
166 8.46238422377116e-10 -1.761735862676962e-10 2.649134965001441e-09
168 -4.252673520565792e-09 1.4586942156030276e-09 -4.118702082328702e-09
174 -2.5247614652077225e-09 7.44906092219836e-11 3.7655735700399077e-10
357 -7.448890172891022e-11 2.5247623804850766e-09 -3.765559968491949e-10
358 1.4385501102494736e-09 -1.4385494478127237e-09 7.615893579855944e-16
404 -7.44953702764268e-11 2.524762126976798e-09 3.765575461847339e-10
138 -2.069531935524395e-09 1.7979897974875318e-09 -5.765128692300425e-10
140 3.6742016909435627e-09 -3.6742009865342365e-09 1.4778604993817904e-15
149 -1.458691213729333e-09 4.2526748023695216e-09 4.118701613455378e-09
150 2.4638814889711046e-09 -3.4598357474314406e-09 1.7518988426505686e-16
170 -2.0695324099969983e-09 1.7979900237744655e-09 5.765069480552735e-10
175 -1.4586939170065748e-09 4.252670707914275e-09 -4.118699980174686e-09
359 2.914750350305539e-11 -1.977547239779698e-10 -1.0570936295701297e-09
360 2.2812698671403233e-09 -2.5979726646225115e-10 -6.54680947709262e-15
405 2.9154098368091015e-11 -1.977549423570269e-10 1.057097171690602e-09
176 -2.0543868551914302e-10 2.054393141953423e-10 5.515990111614167e-10
177 2.0543916242493908e-10 -2.05439676741075e-10 5.515931830562738e-10
179 -5.564341451802628e-09 -3.013938109266972e-10 1.4066386947964082e-10
186 -3.0139286650962103e-10 -5.564340313982016e-09 1.4065893400637886e-10
202 2.1793310324213434e-09 2.179324572294361e-09 1.686953269958409e-09
203 -6.819536037439106e-10 6.81951895642539e-10 5.484521461979347e-09
204 6.819509199322114e-10 -6.819527861911173e-10 5.4845224595884104e-09
208 -7.000653471438271e-12 2.134004639087416e-09 -5.705329091305232e-11
223 2.1340081270693478e-09 -7.001863984874686e-12 -5.7055897470878966e-11
225 5.693541792755419e-11 5.693777751630788e-11 -3.991994799660054e-09
178 -1.4460698044329898e-09 -2.0126931859150628e-09 -1.2686057888725004e-09
181 -1.4210379818680042e-09 1.1962118540102956e-09 -3.219837012720295e-09
188 1.301865500555177e-09 4.5019774055971685e-10 -4.329316697676926e-09
206 3.546044918219629e-09 1.299017860013889e-09 -4.0574554976554097e-11
209 2.397581415006611e-09 3.2832120629228943e-10 1.0049234354995113e-10
212 -2.2105941101095392e-09 -9.015024548202654e-10 1.0174852527857475e-09
227 2.675214900445856e-09 -4.190820275293312e-09 1.873096551115298e-09
229 8.755497024890016e-11 1.005094633122629e-09 -2.0683807402878557e-10
180 -2.2207113766617185e-09 -3.2634179418660664e-10 -3.538364827174222e-10
190 -1.9611409521818427e-09 -2.9634535496604085e-09 2.9707897596837788e-09
210 3.625734691669748e-09 -3.1401039965373748e-09 1.0268836711981954e-09
211 -1.3857339399785203e-09 -1.3726651833887437e-09 2.3918067525112236e-09
231 -7.188644042571866e-10 6.771227430274694e-10 1.0692858734544391e-09
182 1.421041061425806e-09 -1.1962103785363568e-09 -3.2198350571749634e-09
183 2.220710218678456e-09 3.263440375904024e-10 -3.538354884539992e-10
192 3.083812460342908e-09 -1.913186772074156e-10 -3.01307429572958e-10
214 -2.3975799177203696e-09 -3.2831509826941155e-10 1.004896770463854e-10
215 2.210593455580666e-09 9.014922378435427e-10 1.017490175743155e-09
216 1.3857322144604543e-09 1.3726680959205696e-09 2.391804599135563e-09
233 -2.4383474017394694e-09 -5.968023853069955e-10 -3.535476010087164e-10
235 2.8519589172966884e-09 -1.5724750614197724e-09 -1.736693510075828e-09
221 2.418535190903174e-09 -9.69810773008964e-10 -3.2213366990354626e-10
184 5.564344357948511e-09 3.0139065717052503e-10 1.4065954930001753e-10
185 1.4460718447412209e-09 2.0126922442694345e-09 -1.2686035602328568e-09
194 1.233635601486263e-09 -1.233635421876415e-09 1.5265652845522702e-10
217 -3.5460501055289437e-09 -1.2990185812408193e-09 -4.057952548375377e-11
218 9.698133169120753e-10 -2.418537669718377e-09 -3.221347222594482e-10
220 -3.7195113347862983e-09 -2.029563881927439e-09 7.171824724828625e-10
237 -1.1113132326213696e-09 3.787016331155599e-09 2.263566672633495e-09
239 2.8550770781351956e-09 -2.8550728208793884e-09 6.329478500752746e-09
187 -2.0126877744941932e-09 -1.446074395791836e-09 -1.268605944596842e-09
189 4.501963422365845e-10 1.3018638374916356e-09 -4.329317364371764e-09
196 1.196211089987745e-09 -1.4210376859689439e-09 -3.219842269785494e-09
222 1.2990225412621617e-09 3.5460442003220028e-09 -4.0576196267654526e-11
228 -4.190821075041094e-09 2.6752146787282872e-09 1.8730953721712915e-09
241 3.283138921146214e-10 2.397583357911091e-09 1.0049661623657292e-10
242 -9.014990361843294e-10 -2.210591036986986e-09 1.0174895808275063e-09
243 1.0050951716566374e-09 8.755868968830064e-11 -2.0683242476331622e-10
426 -3.2634220782938895e-10 -2.2207145985702118e-09 -3.538362552138919e-10
427 -2.9634524631055536e-09 -1.9611401321778566e-09 2.970788507408205e-09
451 -3.140103543963507e-09 3.6257333588883715e-09 1.026884469285446e-09
452 -1.3726679572285779e-09 -1.3857357770391124e-09 2.3917999298385085e-09
454 6.77122691588252e-10 -7.188699276049266e-10 1.0692807241578223e-09
191 -4.117782022895626e-11 -5.071044708600085e-09 -1.3449999949528564e-10
197 -5.071042771299831e-09 -4.117657921209724e-11 -1.345003234794266e-10
226 1.5900613844405418e-09 1.5900610409662053e-09 -9.80917458436044e-10
232 -3.3910856038220436e-10 7.986074794066173e-12 -6.618484454040585e-10
244 7.984431042803785e-12 -3.391084957239363e-10 -6.618490405856724e-10
245 1.5980077911371252e-09 1.5980080432767328e-09 2.561816795035023e-09
230 4.505901360876209e-10 -4.1965359509541136e-09 1.97142549498642e-09
246 -2.8115352402473385e-09 -4.60322066733397e-10 -1.865749747158627e-09
453 -4.196536586618614e-09 4.5059005028341597e-10 1.971426617410569e-09
456 -4.603218755440521e-10 -2.8115349462492103e-09 -1.865749701992485e-09
193 -1.6229680750003142e-09 -1.8886853268373573e-09 4.405090576521929e-09
198 7.046732924572693e-10 -1.5625151080270564e-09 2.9412895568573626e-09
199 -3.2380552229820255e-09 3.2380552892865304e-09 -1.356345106935206e-09
234 2.99894456661198e-09 2.586264226523406e-09 2.991499424672707e-09
236 1.9229396738775222e-10 -1.8208984795477252e-09 -1.4741779730018978e-09
247 -1.9422455717359573e-10 1.3401526490127769e-09 1.485522427145228e-09
248 2.5858553595507595e-09 -2.5858595110630707e-09 8.562920566552644e-10
429 2.1462613576685913e-09 -2.146259329038914e-09 -1.5894475628615685e-11
457 -1.3401560602172572e-09 1.9422692489576892e-10 1.4855232942767014e-09
458 1.5130809760386473e-09 -1.5130782091182054e-09 5.600873044840202e-09
250 1.5724764705425742e-09 -2.851956673892893e-09 -1.7366988110905726e-09
249 -2.58626347034617e-09 -2.9989465192105447e-09 2.9914947889462588e-09
240 1.2840318226827769e-09 -1.2840322722151536e-09 3.8026101775722254e-10
238 -3.787015191367522e-09 1.1113099949541509e-09 2.263572231870829e-09
200 1.9131283408015835e-10 -3.083808493460668e-09 -3.013116121638727e-10
224 2.0295618548920193e-09 3.7195111845366406e-09 7.17181491297851e-10
195 7.414938513229042e-10 -7.414901750726767e-10 1.7969349065027359e-09
430 1.8886880799992536e-09 1.6229652257451648e-09 4.405091273099415e-09
459 5.968040398781246e-10 2.438342692087413e-09 -3.5354481710864566e-10
460 1.8208994267084318e-09 -1.922913205723995e-10 -1.4741766210946218e-09
251 -2.9714926481508126e-09 2.975453650678065e-09 -1.8918074307789126e-16
261 2.9714963758022386e-09 -2.975451420048532e-09 4.1364278229249536e-16
262 7.189288011388109e-10 -2.426237799217654e-09 5.316526348877072e-16
263 1.3726666214057105e-09 1.3857410546343759e-09 -2.391807394874133e-09
264 9.014987028369107e-10 2.2105876305170143e-09 -1.0174888253211305e-09
265 -2.1696685146500677e-10 -4.256092116514656e-09 6.593953411691629e-16
268 -1.5724767965904144e-09 2.8519577274653914e-09 1.736695731276739e-09
312 -3.283151354761611e-10 -2.3975803930656192e-09 -1.0049289314738319e-10
313 3.263427698969343e-10 2.2207098185628836e-09 3.5383638660630515e-10
314 -1.1962070508876354e-09 1.4210415340634157e-09 3.219837394807608e-09
315 -5.968009545896073e-10 -2.438347494457423e-09 3.5355000937063046e-10
318 -1.913204302040464e-10 3.0838117389977448e-09 3.013106142506604e-10
266 -1.5526970192053606e-10 -1.6751674836379443e-09 -4.1504947190139445e-16
267 -1.8208990230722739e-09 1.9229446522777034e-10 1.474177701489418e-09
269 3.085763291653742e-09 -2.1798712815265243e-09 1.3358228675210584e-15
272 -2.5858557393100243e-09 2.58585507839402e-09 -8.562906721685401e-10
306 -1.5625144048343266e-09 7.046693129703844e-10 -2.9412890020893953e-09
316 2.5862642479954327e-09 2.998942281288032e-09 -2.99149949046571e-09
317 -1.888686652185496e-09 -1.6229683682009194e-09 -4.405091342994751e-09
319 1.3401578828105692e-09 -1.9421871021120836e-10 -1.4855213048350318e-09
322 3.2380588019167176e-09 -3.2380619306863788e-09 1.3563437157572015e-09
270 2.179872333203437e-09 -3.0857594472090597e-09 4.285894534282684e-16
271 -1.5130792786300177e-09 1.5130801335456275e-09 -5.600873234781318e-09
320 1.9422008654100413e-10 -1.3401585282149692e-09 -1.485521899370494e-09
321 -2.1462617859574603e-09 2.1462658968367586e-09 1.5890914767330793e-11
273 -2.699440473964225e-09 -2.6994436492808776e-09 5.790998952094935e-16
274 -4.455018749795471e-09 -4.455022568068139e-09 -2.031826065043257e-15
275 4.6031906587239404e-10 2.8115303422687703e-09 1.8657518731549086e-09
276 2.81153162543523e-09 4.603216013852669e-10 1.86574980905297e-09
305 1.7082198606048046e-09 1.7082177511976986e-09 -2.5061260014742653e-09
323 -1.7082170504381617e-09 -1.7082196934938808e-09 -2.5061286938021395e-09
324 -1.598006343083238e-09 -1.5980080335439615e-09 -2.5618125697196238e-09
325 1.5625139840891874e-09 -7.046683270064598e-10 -2.9412922370342667e-09
326 -7.046697847056457e-10 1.5625128646232606e-09 -2.9412884083903434e-09
311 3.140099823611659e-09 -3.6257352196725934e-09 -1.0268846335259624e-09
277 -1.5385486999678682e-09 -3.204159823908972e-09 -1.1019322060630225e-15
278 2.4433525096127985e-09 -2.243956527111968e-09 -4.379747106626421e-16
279 -6.771226015601172e-10 7.188676087721529e-10 -1.0692805897761937e-09
280 -7.98329839866665e-12 3.3910826184768035e-10 6.618495073022076e-10
327 4.196535998964525e-09 -4.505888272998663e-10 -1.9714230576494486e-09
328 -1.0050961410938896e-09 -8.755687851840122e-11 2.0683293907945214e-10
329 2.963450657491128e-09 1.961136170430231e-09 -2.9707955493523754e-09
330 5.071041981599213e-09 4.117743335129518e-11 1.344952036722039e-10
281 -1.0867918047598833e-09 -1.0609939798995342e-09 -8.6449630660418e-16
282 -2.741653320287507e-09 5.527436783848937e-09 2.506188622125119e-16
283 -2.029563738183275e-09 -3.719509401006291e-09 -7.171783658616519e-10
285 -5.423658052043462e-09 -1.520709505188906e-09 -1.219029908364964e-15
288 -2.855075626849724e-09 2.855075522222432e-09 -6.3294783851760866e-09
331 -1.2990232079569989e-09 -3.546042852333171e-09 4.057738366575899e-11
332 -2.4185394733225675e-09 9.69806423676768e-10 3.221308887641335e-10
333 2.0126909522440383e-09 1.4460677971249366e-09 1.2686048356692066e-09
334 3.013912873674698e-10 5.564338554479446e-09 -1.406597901861084e-10
335 3.787014630516572e-09 -1.1113091731432702e-09 -2.2635710207490946e-09
338 -1.2336292538644503e-09 1.2336349368144328e-09 -1.5265474775370176e-10
55 -9.698092802451586e-10 2.4185435014733093e-09 3.2213546712060545e-10
341 1.6229711760839418e-09 1.888689470020617e-09 -4.40508877775561e-09
340 2.4383479375977987e-09 5.967970867934615e-10 3.535511859267401e-10
286 1.5207123703590134e-09 5.423659101278719e-09 1.2780048355809611e-15
287 -1.2840325310715855e-09 1.2840352261577414e-09 -3.802618889663849e-10
289 1.675166365984196e-09 1.5526862705047183e-10 -1.9465557547147926e-16
292 -2.851962607537775e-09 1.572476231481378e-09 1.7366938881331651e-09
336 1.111310418077831e-09 -3.7870160328588395e-09 -2.2635675287391177e-09
337 -7.414933063245393e-10 7.415001024780662e-10 -1.7969306813985187e-09
339 -2.9989440191282953e-09 -2.5862643119837707e-09 -2.9914993562880182e-09
342 -3.083815029586908e-09 1.9131756816097186e-10 3.013130480517956e-10
290 4.256098466802674e-09 2.1697050368745514e-10 -9.319128565766218e-16
291 -1.9229291237290547e-10 1.820897347119819e-09 1.474177691468982e-09
7 3.7195148318261707e-09 2.0295625162945434e-09 -7.171822669708867e-10
346 1.9611352446003563e-09 2.963449627033961e-09 -2.9707893872915156e-09
345 4.117659162221237e-11 5.071042221191928e-09 1.3449800099196283e-10
344 -8.755659791811784e-11 -1.0050984485822582e-09 2.0683073216523238e-10
343 -4.5058878228342266e-10 4.196540708476982e-09 -1.9714243443082764e-09
296 7.188704921686331e-10 -6.771238692535852e-10 -1.0692852651562298e-09
295 3.391110257991044e-10 -7.981714595073974e-12 6.618533631335318e-10
294 -2.2439565830754036e-09 2.4433600476442075e-09 1.0146414130351208e-15
293 -3.2041632548761226e-09 -1.5385508851104771e-09 6.400498609716003e-16
63 -3.6257306045921038e-09 3.1401100797174316e-09 -1.0268813990582496e-09
350 -1.3018626883004903e-09 -4.5019876154786623e-10 4.329315334551628e-09
349 -4.5019627817042696e-10 -1.301862252492842e-09 4.3293148442632705e-09
348 -5.693235392947417e-11 -5.694138928692532e-11 3.9919965303112295e-09
347 -1.5900628803094007e-09 -1.590062526279843e-09 9.809162854511617e-10
300 -2.675220570400593e-09 4.190819890684481e-09 -1.8730964690289006e-09
299 4.19082330141254e-09 -2.675215192436125e-09 -1.873093251947883e-09
298 -9.149081368387799e-10 -9.149113012060644e-10 -3.1959987914187802e-15
297 -1.3718487862100298e-09 -1.3718495301967585e-09 1.3747539529132932e-16
284 -2.1340047228804946e-09 7.000582908845998e-12 5.7054156521404085e-11
51 -2.1793340221874385e-09 -2.1793284556499315e-09 -1.68695454639854e-09
19 7.0067556149243995e-12 -2.134000568964098e-09 5.705447196204422e-11
361 1.4748655747800369e-09 -2.9406387142713536e-09 5.766302784489858e-09
362 2.951577013443704e-09 -1.5578277408662213e-09 -6.638581201551275e-10
363 9.361622818748977e-10 1.2747308968326244e-09 3.862693628760802e-16
364 2.5908528418820913e-09 4.526214536370437e-10 2.4575247653848254e-16
365 -2.9150689160777255e-11 1.977514419083975e-10 -1.0570968231357283e-09
368 -2.4638815334434064e-09 3.4598382002190244e-09 -2.490198517586461e-16
406 1.4748628350049022e-09 -2.940636518314818e-09 -5.76630331735909e-09
407 2.9515736799695174e-09 -1.5578301916997062e-09 6.638552648033332e-10
408 -2.914736588509021e-11 1.9775162640661067e-10 1.0570975695341157e-09
353 -1.761731569560372e-10 8.462383994856495e-10 -2.6491345310353204e-09
366 1.4586952002116472e-09 -4.252671414756794e-09 4.1187051942027864e-09
367 -2.2812650621927684e-09 2.598048549824116e-10 3.026283591037006e-17
369 7.448825206642275e-11 -2.524761226847523e-09 -3.7655644638157156e-10
372 -3.7666229391977094e-10 3.766537594958951e-10 -1.962580016623599e-16
402 -1.7617521300398445e-10 8.462387449990323e-10 2.6491389786837147e-09
409 1.4586935787927705e-09 -4.252676126634723e-09 -4.118703177694223e-09
410 7.448813283997374e-11 -2.5247615042315065e-09 3.7655571885691327e-10
370 2.5247633650157283e-09 -7.448998936610837e-11 -3.7655988630794486e-10
371 -1.4385498018422815e-09 1.4385497531784248e-09 1.6271977097535662e-16
411 2.5247641874349073e-09 -7.448798441521067e-11 3.765578965645024e-10
373 -7.504088928629472e-10 -7.504078295576774e-10 -1.7212228140985808e-09
374 9.933162102519872e-10 9.933164195065713e-10 -1.0482316441800843e-09
375 7.1809277533787855e-09 2.5176543851512358e-09 9.079296304026e-17
376 2.5176547382467683e-09 7.180928042572309e-09 1.7334427244974924e-15
412 -7.504078149585204e-10 -7.504098637068891e-10 1.7212240538103312e-09
413 9.933171295503414e-10 9.93316633627541e-10 1.0482287166689148e-09
377 1.7617496299342045e-10 -8.462430073445845e-10 -2.6491307703076788e-09
378 -6.174767826103111e-10 -2.6472742368734583e-09 1.7778410318834286e-09
379 4.471696534457542e-09 -8.766168120557777e-10 1.265260275247633e-16
380 2.840817000031562e-09 3.0543661243580877e-09 -1.836300219184515e-17
414 1.7617547639710907e-10 -8.462352972028009e-10 2.6491346354345006e-09
415 -6.174765902360024e-10 -2.6472794585052863e-09 -1.7778348832051295e-09
381 1.8068304776129844e-09 -1.856081043983048e-10 4.1994550603014283e-10
382 1.15791221135758e-09 -1.5492072330610116e-09 -2.5807042336200993e-09
383 1.2031583081112895e-09 2.619470672152632e-09 7.293489588539299e-16
384 2.9053822245356142e-09 6.205780305611233e-09 -6.812939943641099e-17
385 2.069533706038113e-09 -1.7979931746460365e-09 -5.765085477381821e-10
388 -8.392543977226539e-10 8.392499555152317e-10 2.0514274946684433e-15
416 1.8068335045048735e-09 -1.8561004901362386e-10 -4.1994246940548223e-10
417 1.1579147418781308e-09 -1.5492134345471988e-09 2.580705424667993e-09
418 2.0695306435750357e-09 -1.7979878445634219e-09 5.765059548568179e-10
421 -1.977567299250746e-10 2.915173185994519e-11 1.0570951430160743e-09
386 1.7979924639627319e-09 -2.0695365610239783e-09 -5.765148772224311e-10
387 -3.6742040408634047e-09 3.6742002095354495e-09 -7.816631988909655e-16
389 4.252670562436105e-09 -1.4586917066843406e-09 4.1186993630929395e-09
392 -3.4598350361647628e-09 2.4638848241389028e-09 4.722311074825333e-15
419 1.7979929349560358e-09 -2.0695314175204514e-09 5.76508216965338e-10
420 4.252674880403668e-09 -1.4586906522843427e-09 -4.118699550609074e-09
390 -1.9774954006063054e-10 2.914761725482052e-11 -1.0570970774043796e-09
391 -2.5979678545712515e-10 2.281269092192166e-09 -3.041491046268348e-18
423 -2.647279033907697e-09 -6.174744921014228e-10 -1.777838090761587e-09
422 -8.462410771196146e-10 1.761701996335033e-10 2.6491334939537033e-09
396 -8.766176677840359e-10 4.4717014251751445e-09 -1.0766878303789952e-15
395 3.0543668221153403e-09 2.8408159356452856e-09 -2.5773072369804405e-17
394 -2.6472790311757946e-09 -6.174768945371815e-10 1.777839463082347e-09
393 -8.462424552399342e-10 1.761760520848315e-10 -2.649137018268384e-09
425 -7.061454915252176e-11 -7.061879963625892e-11 -2.2417810264287433e-10
424 1.3737183396591214e-10 1.3736706506002614e-10 -5.365191253715181e-09
400 6.219621973205266e-09 5.129147342514116e-09 -2.8252410328786686e-15
399 5.129144290073702e-09 6.219622012136351e-09 -6.216807698572504e-15
398 -7.061925038523199e-11 -7.062150078445712e-11 2.2418050450835357e-10
397 1.373732796626437e-10 1.3737115761434074e-10 5.36519648173414e-09
431 3.263437310081049e-10 2.220711476783802e-09 -3.538348260172493e-10
432 -1.196213087639064e-09 1.4210364486903863e-09 -3.219837677057977e-09
434 -1.9131682164362772e-10 3.0838107178903414e-09 -3.013077209127518e-10
462 -3.2831702606699546e-10 -2.3975835270179933e-09 1.0049553529065508e-10
463 1.3726643244716723e-09 1.3857371408436974e-09 2.3918039884041607e-09
464 9.014981529353296e-10 2.2105881366211243e-09 1.01748559160785e-09
465 -5.968028816783342e-10 -2.438347016563736e-09 -3.535474352501276e-10
468 -1.5724764906164152e-09 2.85195761584267e-09 -1.7366936502885651e-09
428 -1.5625144753969189e-09 7.046703495105331e-10 2.941288895028911e-09
433 -1.8886884425407854e-09 -1.6229681417420333e-09 4.405088822189893e-09
436 3.2380579438999153e-09 -3.2380562291072635e-09 -1.3563453152773426e-09
466 2.5862642258430416e-09 2.9989425533156943e-09 2.991499365612243e-09
467 -1.8208984221253246e-09 1.9229429003896798e-10 -1.4741824978077815e-09
469 1.3401547634573522e-09 -1.9422405836906414e-10 1.4855233998140646e-09
472 -2.585860310366918e-09 2.5858583729371215e-09 8.562922044717292e-10
435 -2.1462593868293228e-09 2.1462618334047206e-09 -1.5889650723651964e-11
470 1.942263711188557e-10 -1.3401578702644187e-09 1.4855234399617465e-09
471 -1.513078678496311e-09 1.5130789376313482e-09 5.600872641082266e-09
437 1.5625144451786361e-09 -7.046732761206903e-10 2.941288887441244e-09
438 -7.04673268125341e-10 1.5625146019229464e-09 2.9412882065493937e-09
455 1.7082190067252026e-09 1.7082206515635605e-09 2.50612784096805e-09
473 -1.7082227635749429e-09 -1.7082226467816869e-09 2.5061270218945115e-09
474 -1.5980048590090674e-09 -1.5980042627503385e-09 2.5618153143266895e-09
475 4.603249312126346e-10 2.811530794597893e-09 -1.8657479703156694e-09
476 2.8115306816605583e-09 4.603281904714696e-10 -1.8657478545908237e-09
461 3.1401084833449663e-09 -3.625730736514791e-09 1.0268864827525185e-09
439 2.9634512816050903e-09 1.9611435454377197e-09 2.9707877886838218e-09
440 5.07104341961618e-09 4.117787193430405e-11 -1.3450043431359542e-10
477 4.196534925964502e-09 -4.5058807574742877e-10 1.9714273659215154e-09
478 -1.005091883006425e-09 -8.755740830812285e-11 -2.0683318726512153e-10
479 -6.771238935855136e-10 7.188676185049242e-10 1.0692814882326487e-09
480 -7.986080754675775e-12 3.39106975905266e-10 -6.618492749322918e-10
441 2.012690611597041e-09 1.4460740711126668e-09 -1.2686097403396492e-09
442 3.013897897372786e-10 5.564343029425222e-09 1.4066064666998702e-10
444 -1.2336357364628238e-09 1.2336348927116247e-09 1.5265526985118363e-10
481 -1.2990248941596349e-09 -3.546044942445818e-09 -4.0578410473136205e-11
482 -2.418537463505284e-09 9.698126867151305e-10 -3.2213591817372765e-10
483 -2.0295610641043473e-09 -3.7195115032849023e-09 7.171810965123131e-10
485 3.787019252366367e-09 -1.111308048399881e-09 2.2635716743655206e-09
488 -2.855077549072065e-09 2.8550700283771553e-09 6.3294795452007715e-09
205 -9.698140298375764e-10 2.418546951436603e-09 -3.221361195204349e-10
491 -1.9229122822853408e-10 1.8208963415648605e-09 -1.474181204650559e-09
490 2.438350063293038e-09 5.968008767274365e-10 -3.5354626972476937e-10
443 -7.414919489546087e-10 7.414949277125259e-10 1.7969364801637957e-09
446 -3.0838136658744395e-09 1.9131663043542195e-10 -3.013128705641599e-10
486 1.1113101109347586e-09 -3.7870242326860275e-09 2.263566617101631e-09
487 -1.2840324595923875e-09 1.2840349107903168e-09 3.8026109611969086e-10
489 -2.998947271016118e-09 -2.5862604382267183e-09 2.9914964685734526e-09
492 -2.8519585745705474e-09 1.572473439772784e-09 -1.7366923114242066e-09
445 1.6229655537062632e-09 1.8886865803950206e-09 4.40508586674453e-09
207 3.7195138771377735e-09 2.0295739025101247e-09 7.171825207490087e-10
496 7.188663849925879e-10 -6.771170519795169e-10 1.0692811305533017e-09
495 3.391099159328838e-10 -7.990641840290313e-12 -6.618533772688506e-10
494 -8.756261175040893e-11 -1.0050920094736891e-09 -2.0683822581730703e-10
493 -4.505878021896648e-10 4.19653880163912e-09 1.9714272094369496e-09
448 1.9611418089074058e-09 2.9634514802039113e-09 2.970795866455143e-09
447 4.117794504295699e-11 5.071043983688911e-09 -1.3449402603015485e-10
213 -3.6257320825028924e-09 3.140098723808497e-09 1.026884684623012e-09
500 -2.6752173190466647e-09 4.190826970667339e-09 1.873100010140988e-09
499 4.190827267516864e-09 -2.6752146863320147e-09 1.8730972375177503e-09
498 -5.6932583257899065e-11 -5.694033662687421e-11 -3.991999490290316e-09
497 -1.5900644983826373e-09 -1.5900634110495883e-09 -9.809200645037867e-10
450 -1.3018629836672895e-09 -4.501977514686898e-10 -4.329313023679749e-09
449 -4.501974753013028e-10 -1.3018619507769301e-09 -4.329316139938456e-09
484 -2.1340116022770176e-09 7.005288703792784e-12 -5.705011377150538e-11
201 -2.1793289861061672e-09 -2.1793306723088034e-09 1.6869534852959751e-09
219 7.005936845534744e-12 -2.1340055576177122e-09 -5.704980049792762e-11
