#Generated by cif2cell 2.1.0.  :  Failed to get author information, No journal information.

500 atoms
3 atom types

0.0 17.600000 xlo xhi
0.0 17.600000 ylo yhi
0.0 17.600000 zlo zhi
1.0776891771264368e-15 1.0776891771264368e-15 1.0776891771264368e-15 xy xz yz

Atoms

1 1  14.079999920000001  14.079999920000001  10.559999939999999 
2 1  15.839999910000001   8.799999950000000   0.000000000000000 
3 1  15.839999910000001   7.039999960000000   1.759999990000000 
4 1   7.039999960000002  10.559999939999999  10.559999939999999 
5 1   8.799999950000000  12.319999930000000  10.559999939999999 
6 1   8.799999950000000  10.559999939999999  12.319999930000000 
7 1   7.039999960000001   1.759999990000001  12.319999930000000 
8 1   0.000000000000000   0.000000000000000   7.039999960000000 
9 1   0.000000000000001   7.039999960000000   7.039999960000000 
10 1   1.759999990000001   8.799999950000000  14.079999920000001 
11 1   7.039999960000000   7.039999960000000   7.039999960000000 
12 1  14.079999920000001   7.039999960000000   0.000000000000000 
13 1   0.000000000000001  10.559999939999999   0.000000000000000 
14 1  15.839999910000001  14.079999920000001  12.319999930000000 
15 1   1.759999990000001  10.559999939999999   1.759999990000000 
16 1   0.000000000000000   1.759999990000000   5.279999970000000 
17 1   1.759999990000001  12.319999930000000   0.000000000000000 
18 1  14.079999920000001  14.079999920000001  14.079999920000001 
19 1   8.799999950000000   8.799999950000000   3.519999980000000 
20 1   0.000000000000001  12.319999930000000   5.279999970000000 
21 1   8.799999950000000   1.759999990000000   3.519999980000000 
22 1   1.759999990000001  12.319999930000000   3.519999980000000 
23 1   7.039999960000000   7.039999960000000   3.519999980000000 
24 1   1.759999990000001   1.759999990000001  10.559999939999999 
25 1   1.759999990000000   5.279999970000000   0.000000000000000 
26 1   7.039999960000002   8.799999950000000  12.319999930000000 
27 1   8.799999950000000   5.279999970000000  10.559999939999999 
28 1  15.839999910000001  12.319999930000000  14.079999920000001 
29 1   1.759999990000001   5.279999970000000   3.519999980000000 
30 1   1.759999990000001   0.000000000000001  15.839999910000001 
31 1   7.039999960000001   7.039999960000001  14.079999920000001 
32 1  14.079999920000002  15.839999910000001   1.759999990000000 
33 1  15.839999910000001  10.559999939999999   8.799999950000000 
34 1   7.039999960000001   3.519999980000001  10.559999939999999 
35 1  15.839999910000001  14.079999920000001   1.759999990000000 
36 1   3.519999980000002  15.839999910000003  15.839999910000001 
37 1  15.839999910000001   7.039999960000001   8.799999950000000 
38 1   7.039999960000000   3.519999980000000   3.519999980000000 
39 1   8.799999950000000   1.759999990000001  14.079999920000001 
40 1  15.839999910000001  14.079999920000001   5.279999970000000 
41 1  15.839999910000001   8.799999950000000  14.079999920000001 
42 1  15.839999910000003   7.039999960000001  15.839999910000001 
43 1   7.039999960000001   1.759999990000001  15.839999910000001 
44 1   1.759999990000001   8.799999950000000   3.519999980000000 
45 1   1.759999990000001   1.759999990000001   7.039999960000000 
46 1  15.839999910000003  10.559999940000001  15.839999910000001 
47 1  14.079999920000002  15.839999910000001   8.799999950000000 
48 1  15.839999910000001   8.799999950000000   7.039999960000000 
49 1   7.039999960000001   8.799999950000000   1.759999990000000 
50 1  10.559999939999999  10.559999939999999  10.559999939999999 
51 1   5.279999970000000   3.519999980000001  12.319999930000000 
52 1   3.519999980000001   5.279999970000000  12.319999930000000 
53 1   5.279999970000000   3.519999980000001   8.799999950000000 
54 1   5.279999970000001  10.559999940000001  15.839999910000001 
55 1  10.559999939999999   0.000000000000001  10.559999939999999 
56 1  12.319999930000000  12.319999930000000   3.519999980000000 
57 1   3.519999980000001   5.279999970000000   5.279999970000000 
58 1  12.319999930000000  10.559999939999999   8.799999950000000 
59 1  12.319999930000000   8.799999950000000  14.079999920000001 
60 1   5.279999970000000  14.079999920000001   1.759999990000000 
61 1   5.279999970000000  15.839999910000001   0.000000000000000 
62 1  10.559999939999999  10.559999939999999  14.079999920000001 
63 1  10.559999940000001  12.319999930000002  15.839999910000001 
64 1  12.319999930000002  10.559999940000001  15.839999910000001 
65 1  12.319999930000000  12.319999930000000  14.079999920000001 
66 1  10.559999940000001  15.839999910000001   1.759999990000000 
67 1   5.279999970000000   0.000000000000001  15.839999910000001 
68 1  10.559999939999999   5.279999970000000   5.279999970000000 
69 1   5.279999970000001   8.799999950000000  14.079999920000001 
70 1  10.559999939999999   3.519999980000001  14.079999920000001 
71 1  10.559999940000001   5.279999970000000  15.839999910000001 
72 1  12.319999930000002   3.519999980000001  15.839999910000001 
73 1   5.279999970000000  12.319999930000000   0.000000000000000 
74 1   3.519999980000001  10.559999939999999   3.519999980000000 
75 1   5.279999970000000   7.039999960000001  12.319999930000000 
76 1   5.279999970000000  12.319999930000000   3.519999980000000 
77 1  12.319999930000002  15.839999910000001   0.000000000000000 
78 1  10.559999939999999   8.799999950000000   5.279999970000000 
79 1   5.279999970000000   8.799999950000000   3.519999980000000 
80 1   5.279999970000001  10.559999939999999   8.799999950000000 
81 1   3.519999980000001   8.799999950000000   5.279999970000000 
82 1  10.559999939999999   8.799999950000000  12.319999930000000 
83 1  12.319999930000000   1.759999990000001  14.079999920000001 
84 1  10.559999939999999   7.039999960000001  14.079999920000001 
85 1  10.559999940000001   1.759999990000001  15.839999910000001 
86 1   3.519999980000001  10.559999939999999   0.000000000000000 
87 1   0.000000000000001  14.079999920000001   7.039999960000000 
88 1   5.279999970000001  15.839999910000001  10.559999939999999 
89 1  14.079999920000001   1.759999990000001   8.799999950000000 
90 1  15.839999910000001   0.000000000000001   8.799999950000000 
91 1   0.000000000000001  15.839999910000001   5.279999970000000 
92 1  14.079999920000001   0.000000000000001  10.559999939999999 
93 1  15.839999910000001   0.000000000000001  12.319999930000000 
94 1  15.839999910000001   1.759999990000001  10.559999939999999 
95 1   1.759999990000001  15.839999910000001   7.039999960000000 
96 1  14.079999920000002   1.759999990000001  15.839999910000001 
97 1  15.839999910000001   1.759999990000001  14.079999920000001 
98 1   0.000000000000001  14.079999920000001   0.000000000000000 
99 1  15.839999910000001   3.519999980000000   1.759999990000000 
100 1   7.039999960000000   0.000000000000000   0.000000000000000 
101 1   1.759999990000002  10.559999940000001  15.839999910000001 
102 1   8.799999950000002  15.839999910000001   3.519999980000000 
103 1   8.799999950000000  14.079999920000001   5.279999970000000 
104 1  10.559999940000001  15.839999910000001  12.319999930000000 
105 1   3.519999980000001  15.839999910000001   5.279999970000000 
106 1   3.519999980000001   0.000000000000001  14.079999920000001 
107 1   5.279999970000000  14.079999920000001   5.279999970000000 
108 1   3.519999980000001   1.759999990000001  12.319999930000000 
109 1   5.279999970000000   1.759999990000001   7.039999960000000 
110 1   5.279999970000000  15.839999910000001   3.519999980000000 
111 1  12.319999930000000  14.079999920000001   8.799999950000000 
112 1   5.279999970000000   0.000000000000000   5.279999970000000 
113 1   8.799999950000002  15.839999910000001   0.000000000000000 
114 1  10.559999940000003  15.839999910000003  15.839999910000001 
115 1  12.319999930000002  14.079999920000002  15.839999910000001 
116 1   8.799999950000002  14.079999920000002  15.839999910000001 
117 1   0.000000000000002  15.839999910000003  15.839999910000001 
118 1   7.039999960000002  14.079999920000001  14.079999920000001 
119 1   8.799999950000002  15.839999910000001  10.559999939999999 
120 1   0.000000000000002  14.079999920000001  10.559999939999999 
121 2  10.559999939999999  12.319999930000000  12.319999930000000 
122 2  10.559999939999999   7.039999960000000   0.000000000000000 
123 2  10.559999939999999   1.759999990000001  12.319999930000000 
124 2  12.319999930000000   5.279999970000000  10.559999939999999 
125 2  10.559999939999999   0.000000000000001  14.079999920000001 
126 2  12.319999930000002   0.000000000000001  15.839999910000001 
127 2  12.319999930000000   5.279999970000000  14.079999920000001 
128 2  12.319999930000000   3.519999980000001  12.319999930000000 
129 2  12.319999930000000   3.519999980000000   1.759999990000000 
130 2  12.319999930000000   5.279999970000000   0.000000000000000 
131 2  10.559999939999999   5.279999970000000  12.319999930000000 
132 2  12.319999930000000   3.519999980000001   5.279999970000000 
133 2  10.559999939999999   3.519999980000001  10.559999939999999 
134 2  12.319999930000000   5.279999970000000   7.039999960000000 
135 2  10.559999939999999   3.519999980000001   7.039999960000000 
136 2  12.319999930000000   3.519999980000001   8.799999950000000 
137 2  10.559999939999999   8.799999950000000   1.759999990000000 
138 2  10.559999939999999   5.279999970000000   8.799999950000000 
139 2   8.799999950000000  12.319999930000000   0.000000000000000 
140 2   8.799999950000000  12.319999930000000  14.079999920000001 
141 2   7.039999960000002  12.319999930000002  15.839999910000001 
142 2   7.039999960000002  10.559999939999999  14.079999920000001 
143 2   7.039999960000002  12.319999930000000  12.319999930000000 
144 2   8.799999950000000  12.319999930000000   7.039999960000000 
145 2   7.039999960000002  12.319999930000000   8.799999950000000 
146 2   7.039999960000001  10.559999939999999   7.039999960000000 
147 2   8.799999950000000  10.559999939999999   5.279999970000000 
148 2   7.039999960000001  12.319999930000000   5.279999970000000 
149 2   7.039999960000001  10.559999939999999   3.519999980000000 
150 2   7.039999960000001  14.079999920000001   0.000000000000000 
151 2   8.799999950000000  10.559999939999999   1.759999990000000 
152 2   7.039999960000001  10.559999939999999   0.000000000000000 
153 2   8.799999950000000   8.799999950000000  14.079999920000001 
154 2   7.039999960000002   8.799999950000002  15.839999910000001 
155 2   8.799999950000000   8.799999950000000  10.559999939999999 
156 2   7.039999960000001   7.039999960000001  10.559999939999999 
157 2   8.799999950000000   8.799999950000000   7.039999960000000 
158 2   7.039999960000002   8.799999950000000   8.799999950000000 
159 2   7.039999960000001   8.799999950000000   5.279999970000000 
160 2   8.799999950000000  14.079999920000001  12.319999930000000 
161 2  10.559999939999999   1.759999990000001   8.799999950000000 
162 2  10.559999939999999   0.000000000000000   7.039999960000000 
163 2  12.319999930000000   1.759999990000000   3.519999980000000 
164 2  12.319999930000000   0.000000000000000   5.279999970000000 
165 2  10.559999939999999   1.759999990000000   5.279999970000000 
166 2  12.319999930000000   0.000000000000000   1.759999990000000 
167 2  10.559999939999999   0.000000000000000   0.000000000000000 
168 2   8.799999950000002  15.839999910000001  14.079999920000001 
169 2   7.039999960000002  15.839999910000003  15.839999910000001 
170 2  12.319999930000000   0.000000000000001   8.799999950000000 
171 2   7.039999960000002  14.079999920000001  10.559999939999999 
172 2   8.799999950000002  15.839999910000001   7.039999960000000 
173 2   8.799999950000000  14.079999920000001   8.799999950000000 
174 2   7.039999960000002  15.839999910000001   8.799999950000000 
175 2   7.039999960000001  14.079999920000001   7.039999960000000 
176 2   7.039999960000001  15.839999910000001   5.279999970000000 
177 2   7.039999960000001  14.079999920000001   3.519999980000000 
178 2   8.799999950000000  14.079999920000001   1.759999990000000 
179 2   7.039999960000001  15.839999910000001   1.759999990000000 
180 2  15.839999910000003   3.519999980000001  15.839999910000001 
181 2  15.839999910000001  10.559999939999999   1.759999990000000 
182 2  14.079999920000001  12.319999930000000   1.759999990000000 
183 2  14.079999920000001   7.039999960000001  14.079999920000001 
184 2  15.839999910000001   8.799999950000000  10.559999939999999 
185 2  14.079999920000001   8.799999950000000  12.319999930000000 
186 2  14.079999920000001   7.039999960000001  10.559999939999999 
187 2  14.079999920000001   7.039999960000000   7.039999960000000 
188 2  15.839999910000001   8.799999950000000   3.519999980000000 
189 2  15.839999910000001   7.039999960000000   5.279999970000000 
190 2  14.079999920000001   8.799999950000000   5.279999970000000 
191 2  14.079999920000001   7.039999960000000   3.519999980000000 
192 2  15.839999910000001  12.319999930000000   0.000000000000000 
193 2  14.079999920000002   5.279999970000000  15.839999910000001 
194 2  15.839999910000001   5.279999970000000  10.559999939999999 
195 2  14.079999920000001   5.279999970000000  12.319999930000000 
196 2  14.079999920000001   3.519999980000001  10.559999939999999 
197 2  15.839999910000001   3.519999980000001   8.799999950000000 
198 2  14.079999920000001   5.279999970000000   8.799999950000000 
199 2  14.079999920000001   3.519999980000001   7.039999960000000 
200 2  15.839999910000001   5.279999970000000   3.519999980000000 
201 2  15.839999910000001   3.519999980000001   5.279999970000000 
202 2  14.079999920000001   5.279999970000000   5.279999970000000 
203 2  14.079999920000001  10.559999939999999  14.079999920000001 
204 2  15.839999910000003  15.839999910000001  14.079999920000001 
205 2  14.079999920000004  15.839999910000003  15.839999910000001 
206 2  15.839999910000003  15.839999910000001  10.559999939999999 
207 2  14.079999920000002  15.839999910000001  12.319999930000000 
208 2  15.839999910000003  15.839999910000001   7.039999960000000 
209 2  15.839999910000001  14.079999920000001   8.799999950000000 
210 2  14.079999920000001  14.079999920000001   7.039999960000000 
211 2  15.839999910000003  15.839999910000001   3.519999980000000 
212 2  15.839999910000003  15.839999910000001   0.000000000000000 
213 2  14.079999920000002  12.319999930000002  15.839999910000001 
214 2  15.839999910000001   5.279999970000000   0.000000000000000 
215 2  15.839999910000001  10.559999939999999  12.319999930000000 
216 2  14.079999920000001  12.319999930000000  12.319999930000000 
217 2  14.079999920000001  10.559999939999999  10.559999939999999 
218 2  15.839999910000001  12.319999930000000   7.039999960000000 
219 2  14.079999920000001  12.319999930000000   8.799999950000000 
220 2  14.079999920000001  10.559999939999999   7.039999960000000 
221 2  15.839999910000001  12.319999930000000   3.519999980000000 
222 2  15.839999910000001  10.559999939999999   5.279999970000000 
223 2  14.079999920000001  12.319999930000000   5.279999970000000 
224 2  14.079999920000001  10.559999939999999   3.519999980000000 
225 2  10.559999939999999  10.559999939999999   0.000000000000000 
226 2  12.319999930000000  10.559999939999999  12.319999930000000 
227 2   8.799999950000000   7.039999960000001   8.799999950000000 
228 2  12.319999930000000  12.319999930000000   7.039999960000000 
229 2  10.559999939999999  12.319999930000000   8.799999950000000 
230 2  10.559999939999999  10.559999939999999   7.039999960000000 
231 2  12.319999930000000  10.559999939999999   5.279999970000000 
232 2  10.559999939999999  12.319999930000000   5.279999970000000 
233 2  10.559999939999999  10.559999939999999   3.519999980000000 
234 2  12.319999930000000  12.319999930000000   0.000000000000000 
235 2  12.319999930000000  10.559999939999999   1.759999990000000 
236 2  10.559999939999999  12.319999930000000   1.759999990000000 
237 2  12.319999930000000  14.079999920000001   1.759999990000000 
238 2  12.319999930000002   7.039999960000001  15.839999910000001 
239 2  12.319999930000000   8.799999950000000  10.559999939999999 
240 2  12.319999930000000   7.039999960000001  12.319999930000000 
241 2  10.559999939999999   7.039999960000001  10.559999939999999 
242 2  12.319999930000000   8.799999950000000   7.039999960000000 
243 2  10.559999939999999   8.799999950000000   8.799999950000000 
244 2  10.559999939999999   7.039999960000000   7.039999960000000 
245 2  12.319999930000000   8.799999950000000   3.519999980000000 
246 2  12.319999930000000   7.039999960000000   5.279999970000000 
247 2  12.319999930000000   8.799999950000000   0.000000000000000 
248 2  14.079999920000001   1.759999990000000   1.759999990000000 
249 2  14.079999920000001   3.519999980000000   0.000000000000000 
250 2  15.839999910000003   0.000000000000001  15.839999910000001 
251 2  14.079999920000001   0.000000000000001  14.079999920000001 
252 2  15.839999910000001   1.759999990000001   7.039999960000000 
253 2  14.079999920000001   0.000000000000000   7.039999960000000 
254 2  15.839999910000001   1.759999990000000   3.519999980000000 
255 2  15.839999910000001   0.000000000000000   5.279999970000000 
256 2  14.079999920000001   0.000000000000000   3.519999980000000 
257 2  15.839999910000001   1.759999990000000   0.000000000000000 
258 2  15.839999910000001   0.000000000000000   1.759999990000000 
259 2  12.319999930000000   7.039999960000000   1.759999990000000 
260 2  14.079999920000001   0.000000000000000   0.000000000000000 
261 2  10.559999939999999  14.079999920000001  14.079999920000001 
262 2  12.319999930000002  15.839999910000001  10.559999939999999 
263 2  12.319999930000000  14.079999920000001  12.319999930000000 
264 2  10.559999939999999  14.079999920000001  10.559999939999999 
265 2  12.319999930000002  15.839999910000001   7.039999960000000 
266 2  10.559999940000001  15.839999910000001   8.799999950000000 
267 2  10.559999939999999  14.079999920000001   7.039999960000000 
268 2  12.319999930000000  14.079999920000001   5.279999970000000 
269 2  10.559999939999999  14.079999920000001   3.519999980000000 
270 2   1.759999990000002  15.839999910000001  14.079999920000001 
271 2   5.279999970000000   3.519999980000000   1.759999990000000 
272 2   3.519999980000001   5.279999970000000   1.759999990000000 
273 2   3.519999980000000   3.519999980000000   0.000000000000000 
274 2   5.279999970000000   1.759999990000001  14.079999920000001 
275 2   3.519999980000001   1.759999990000001  15.839999910000001 
276 2   5.279999970000000   1.759999990000001  10.559999939999999 
277 2   5.279999970000000   0.000000000000001   8.799999950000000 
278 2   3.519999980000001   1.759999990000001   8.799999950000000 
279 2   5.279999970000000   1.759999990000000   0.000000000000000 
280 2   3.519999980000000   1.759999990000000   1.759999990000000 
281 2   5.279999970000000   5.279999970000000   0.000000000000000 
282 2   1.759999990000002  14.079999920000002  15.839999910000001 
283 2   0.000000000000002  14.079999920000001  14.079999920000001 
284 2   1.759999990000002  15.839999910000001  10.559999939999999 
285 2   1.759999990000002  14.079999920000001  12.319999930000000 
286 2   0.000000000000002  15.839999910000001  12.319999930000000 
287 2   1.759999990000001  15.839999910000001   3.519999980000000 
288 2   0.000000000000001  14.079999920000001   3.519999980000000 
289 2   1.759999990000001  15.839999910000001   0.000000000000000 
290 2   1.759999990000001  14.079999920000001   1.759999990000000 
291 2   0.000000000000001  15.839999910000001   1.759999990000000 
292 2   5.279999970000000   8.799999950000000   0.000000000000000 
293 2   5.279999970000000   7.039999960000001  15.839999910000001 
294 2   3.519999980000001   8.799999950000002  15.839999910000001 
295 2   3.519999980000001   7.039999960000001  14.079999920000001 
296 2   5.279999970000001   8.799999950000000  10.559999939999999 
297 2   3.519999980000001   8.799999950000000  12.319999930000000 
298 2   3.519999980000001   7.039999960000001  10.559999939999999 
299 2   5.279999970000000   8.799999950000000   7.039999960000000 
300 2   3.519999980000001   7.039999960000000   7.039999960000000 
301 2   5.279999970000000   7.039999960000000   5.279999970000000 
302 2   3.519999980000001   7.039999960000000   3.519999980000000 
303 2   1.759999990000002  12.319999930000000  14.079999920000001 
304 2   3.519999980000001   8.799999950000000   1.759999990000000 
305 2   3.519999980000001   7.039999960000000   0.000000000000000 
306 2   5.279999970000000   5.279999970000000  14.079999920000001 
307 2   3.519999980000001   5.279999970000000  15.839999910000001 
308 2   5.279999970000000   5.279999970000000  10.559999939999999 
309 2   5.279999970000000   5.279999970000000   7.039999960000000 
310 2   3.519999980000001   5.279999970000000   8.799999950000000 
311 2   5.279999970000000   5.279999970000000   3.519999980000000 
312 2   5.279999970000000   3.519999980000001   5.279999970000000 
313 2   3.519999980000000   3.519999980000000   3.519999980000000 
314 2   1.759999990000001   3.519999980000001   5.279999970000000 
315 2   0.000000000000001   8.799999950000000   1.759999990000000 
316 2   0.000000000000000   7.039999960000000   0.000000000000000 
317 2   1.759999990000001   5.279999970000000  14.079999920000001 
318 2   0.000000000000001   3.519999980000001  14.079999920000001 
319 2   1.759999990000001   5.279999970000000  10.559999939999999 
320 2   0.000000000000001   5.279999970000000  12.319999930000000 
321 2   0.000000000000001   3.519999980000001  10.559999939999999 
322 2   1.759999990000001   3.519999980000001   8.799999950000000 
323 2   0.000000000000001   5.279999970000000   8.799999950000000 
324 2   0.000000000000001   3.519999980000001   7.039999960000000 
325 2   1.759999990000001   7.039999960000000   1.759999990000000 
326 2   0.000000000000001   5.279999970000000   5.279999970000000 
327 2   0.000000000000000   3.519999980000000   3.519999980000000 
328 2   1.759999990000001   0.000000000000001  12.319999930000000 
329 2   0.000000000000001   1.759999990000001  12.319999930000000 
330 2   0.000000000000001   0.000000000000001  10.559999939999999 
331 2   1.759999990000001   0.000000000000001   8.799999950000000 
332 2   1.759999990000000   1.759999990000000   3.519999980000000 
333 2   1.759999990000000   1.759999990000000   0.000000000000000 
334 2   1.759999990000000   0.000000000000000   1.759999990000000 
335 2   0.000000000000000   1.759999990000000   1.759999990000000 
336 2   1.759999990000001   7.039999960000001  15.839999910000001 
337 2   1.759999990000001  12.319999930000000  10.559999939999999 
338 2   1.759999990000001  10.559999939999999  12.319999930000000 
339 2   0.000000000000002  12.319999930000000  12.319999930000000 
340 2   0.000000000000001  10.559999939999999  10.559999939999999 
341 2   1.759999990000001  12.319999930000000   7.039999960000000 
342 2   0.000000000000001  12.319999930000000   8.799999950000000 
343 2   0.000000000000001  10.559999939999999   7.039999960000000 
344 2   1.759999990000001  10.559999939999999   5.279999970000000 
345 2   0.000000000000001  10.559999939999999   3.519999980000000 
346 2   0.000000000000001  12.319999930000000   1.759999990000000 
347 2   8.799999950000000   8.799999950000000   0.000000000000000 
348 2   0.000000000000002   8.799999950000002  15.839999910000001 
349 2   0.000000000000001   7.039999960000001  14.079999920000001 
350 2   1.759999990000001   8.799999950000000  10.559999939999999 
351 2   1.759999990000001   7.039999960000001  12.319999930000000 
352 2   0.000000000000001   8.799999950000000  12.319999930000000 
353 2   1.759999990000001   8.799999950000000   7.039999960000000 
354 2   0.000000000000001   8.799999950000000   8.799999950000000 
355 2   0.000000000000001   8.799999950000000   5.279999970000000 
356 2   0.000000000000001   7.039999960000000   3.519999980000000 
357 2   1.759999990000001   8.799999950000000   0.000000000000000 
358 2   7.039999960000000   3.519999980000001   7.039999960000000 
359 2   5.279999970000001  14.079999920000001   8.799999950000000 
360 2   3.519999980000001  15.839999910000001   8.799999950000000 
361 2   7.039999960000001   0.000000000000001  14.079999920000001 
362 2   3.519999980000001  14.079999920000001   7.039999960000000 
363 2   8.799999950000002   0.000000000000001  15.839999910000001 
364 2   7.039999960000000   3.519999980000000   0.000000000000000 
365 2   7.039999960000000   5.279999970000000   1.759999990000000 
366 2   8.799999950000000   3.519999980000001   5.279999970000000 
367 2   5.279999970000000  15.839999910000001   7.039999960000000 
368 2   8.799999950000000   3.519999980000001   8.799999950000000 
369 2   8.799999950000000   5.279999970000000   7.039999960000000 
370 2   7.039999960000001   5.279999970000000  12.319999930000000 
371 2   3.519999980000001  15.839999910000001   1.759999990000000 
372 2   3.519999980000001  14.079999920000001   0.000000000000000 
373 2   8.799999950000000   3.519999980000001  12.319999930000000 
374 2   5.279999970000001  12.319999930000000  14.079999920000001 
375 2   3.519999980000001  14.079999920000001   3.519999980000000 
376 2   8.799999950000000   1.759999990000001  10.559999939999999 
377 2   8.799999950000000   0.000000000000001  12.319999930000000 
378 2   3.519999980000001  14.079999920000001  10.559999939999999 
379 2   3.519999980000002  15.839999910000001  12.319999930000000 
380 2   7.039999960000001   0.000000000000001  10.559999939999999 
381 2   8.799999950000000   1.759999990000001   7.039999960000000 
382 2   3.519999980000002  14.079999920000001  14.079999920000001 
383 2   8.799999950000000   0.000000000000001   8.799999950000000 
384 2   5.279999970000001  14.079999920000002  15.839999910000001 
385 2   5.279999970000001  15.839999910000001  14.079999920000001 
386 2   7.039999960000000   0.000000000000000   7.039999960000000 
387 2   7.039999960000000   1.759999990000000   5.279999970000000 
388 2   8.799999950000000   1.759999990000000   0.000000000000000 
389 2   7.039999960000000   1.759999990000000   1.759999990000000 
390 2   8.799999950000000   0.000000000000000   1.759999990000000 
391 2   3.519999980000001  10.559999939999999   7.039999960000000 
392 2   7.039999960000001   3.519999980000001  14.079999920000001 
393 2   5.279999970000000  10.559999939999999   5.279999970000000 
394 2   5.279999970000000  12.319999930000000   7.039999960000000 
395 2   5.279999970000001  12.319999930000000  10.559999939999999 
396 2   7.039999960000000   7.039999960000000   0.000000000000000 
397 2   3.519999980000001  10.559999939999999  10.559999939999999 
398 2   5.279999970000001  10.559999939999999  12.319999930000000 
399 2   8.799999950000000   5.279999970000000  14.079999920000001 
400 2   3.519999980000002  12.319999930000000  12.319999930000000 
401 2   3.519999980000001  10.559999939999999  14.079999920000001 
402 2   8.799999950000000   7.039999960000000   1.759999990000000 
403 2   3.519999980000002  12.319999930000002  15.839999910000001 
404 2   5.279999970000000  10.559999939999999   1.759999990000000 
405 2   3.519999980000001  12.319999930000000   1.759999990000000 
406 3   8.799999950000000   0.000000000000000   5.279999970000000 
407 3  10.559999939999999   3.519999980000000   0.000000000000000 
408 3  10.559999939999999   5.279999970000000   1.759999990000000 
409 3  14.079999920000001   5.279999970000000   1.759999990000000 
410 3  14.079999920000001   3.519999980000000   3.519999980000000 
411 3   0.000000000000002  12.319999930000002  15.839999910000001 
412 3   0.000000000000002  10.559999939999999  14.079999920000001 
413 3   3.519999980000001   3.519999980000001   7.039999960000000 
414 3   3.519999980000001  12.319999930000000   8.799999950000000 
415 3  10.559999939999999   3.519999980000000   3.519999980000000 
416 3   7.039999960000000   0.000000000000000   3.519999980000000 
417 3   1.759999990000001  10.559999939999999   8.799999950000000 
418 3   3.519999980000001   3.519999980000001  10.559999939999999 
419 3  15.839999910000001   5.279999970000000   7.039999960000000 
420 3  14.079999920000001   1.759999990000001  12.319999930000000 
421 3  12.319999930000000   5.279999970000000   3.519999980000000 
422 3  15.839999910000001   3.519999980000001  12.319999930000000 
423 3   3.519999980000001  12.319999930000000   5.279999970000000 
424 3  14.079999920000001   3.519999980000001  14.079999920000001 
425 3   7.039999960000001   1.759999990000001   8.799999950000000 
426 3   8.799999950000002  10.559999940000001  15.839999910000001 
427 3  15.839999910000001   5.279999970000000  14.079999920000001 
428 3  14.079999920000001   8.799999950000000   1.759999990000000 
429 3   3.519999980000001   3.519999980000001  14.079999920000001 
430 3   5.279999970000000   3.519999980000001  15.839999910000001 
431 3   8.799999950000000  10.559999939999999   8.799999950000000 
432 3  14.079999920000001   8.799999950000000   8.799999950000000 
433 3  10.559999939999999   0.000000000000000   3.519999980000000 
434 3   3.519999980000001   0.000000000000001  10.559999939999999 
435 3  12.319999930000002  15.839999910000001   3.519999980000000 
436 3   5.279999970000000   0.000000000000001  12.319999930000000 
437 3  12.319999930000000   1.759999990000001   7.039999960000000 
438 3   3.519999980000001   0.000000000000000   7.039999960000000 
439 3   5.279999970000000   1.759999990000000   3.519999980000000 
440 3  10.559999940000001  15.839999910000001   5.279999970000000 
441 3   3.519999980000001   1.759999990000000   5.279999970000000 
442 3   3.519999980000000   0.000000000000000   3.519999980000000 
443 3   5.279999970000000   0.000000000000000   1.759999990000000 
444 3  12.319999930000000   0.000000000000001  12.319999930000000 
445 3   3.519999980000000   0.000000000000000   0.000000000000000 
446 3  10.559999940000001   8.799999950000002  15.839999910000001 
447 3  12.319999930000002  15.839999910000001  14.079999920000001 
448 3  12.319999930000000   1.759999990000000   0.000000000000000 
449 3  10.559999939999999  14.079999920000001   0.000000000000000 
450 3  10.559999939999999   1.759999990000000   1.759999990000000 
451 3  12.319999930000000  12.319999930000000  10.559999939999999 
452 3  12.319999930000000   1.759999990000001  10.559999939999999 
453 3  14.079999920000001   1.759999990000000   5.279999970000000 
454 3   1.759999990000001  14.079999920000001   8.799999950000000 
455 3   0.000000000000002  15.839999910000001   8.799999950000000 
456 3   5.279999970000001  14.079999920000001  12.319999930000000 
457 3   1.759999990000001  14.079999920000001   5.279999970000000 
458 3   7.039999960000002  15.839999910000001  12.319999930000000 
459 3   5.279999970000000   7.039999960000001   8.799999950000000 
460 3   1.759999990000001   5.279999970000000   7.039999960000000 
461 3   7.039999960000001  12.319999930000000   1.759999990000000 
462 3   0.000000000000001   1.759999990000001   8.799999950000000 
463 3   7.039999960000001   5.279999970000000   8.799999950000000 
464 3   8.799999950000002   3.519999980000001  15.839999910000001 
465 3   0.000000000000001   7.039999960000001  10.559999939999999 
466 3   8.799999950000002   7.039999960000001  15.839999910000001 
467 3  15.839999910000001  12.319999930000000  10.559999939999999 
468 3   7.039999960000001   5.279999970000000  15.839999910000001 
469 3   3.519999980000001   8.799999950000000   8.799999950000000 
470 3   8.799999950000000   5.279999970000000   3.519999980000000 
471 3   1.759999990000000   3.519999980000000   1.759999990000000 
472 3   0.000000000000000   5.279999970000000   1.759999990000000 
473 3  14.079999920000002  15.839999910000001   5.279999970000000 
474 3   0.000000000000000   3.519999980000000   0.000000000000000 
475 3   1.759999990000001   1.759999990000001  14.079999920000001 
476 3  14.079999920000001  14.079999920000001   0.000000000000000 
477 3   0.000000000000001   1.759999990000001  15.839999910000001 
478 3   0.000000000000001   0.000000000000001  14.079999920000001 
479 3   8.799999950000000   7.039999960000001  12.319999930000000 
480 3  14.079999920000001  14.079999920000001   3.519999980000000 
481 3   8.799999950000000   3.519999980000000   1.759999990000000 
482 3   8.799999950000000   7.039999960000000   5.279999970000000 
483 3   0.000000000000000   0.000000000000000   3.519999980000000 
484 3  15.839999910000001   7.039999960000001  12.319999930000000 
485 3   8.799999950000000  12.319999930000000   3.519999980000000 
486 3   1.759999990000001   7.039999960000000   5.279999970000000 
487 3  15.839999910000003  14.079999920000002  15.839999910000001 
488 3  14.079999920000002   8.799999950000002  15.839999910000001 
489 3  14.079999920000001  10.559999939999999   0.000000000000000 
490 3   5.279999970000000   7.039999960000000   1.759999990000000 
491 3   1.759999990000000   0.000000000000000   5.279999970000000 
492 3   8.799999950000000   5.279999970000000   0.000000000000000 
493 3   1.759999990000001   3.519999980000001  15.839999910000001 
494 3   0.000000000000001   5.279999970000000  15.839999910000001 
495 3   1.759999990000001   7.039999960000001   8.799999950000000 
496 3  12.319999930000000   7.039999960000001   8.799999950000000 
497 3   0.000000000000000   0.000000000000000   0.000000000000000 
498 3   7.039999960000000   5.279999970000000   5.279999970000000 
499 3   1.759999990000001   3.519999980000001  12.319999930000000 
500 3  10.559999939999999   7.039999960000000   3.519999980000000 
