LAMMPS data file via write_data, version 29 Aug 2024, timestep = 26, units = metal

500 atoms
3 atom types

0 17.56307833612293 xlo xhi
0 17.56307833612293 ylo yhi
0 17.56307833612293 zlo zhi

Masses

1 55.9142
2 58.71
3 58.71

Atoms # atomic

1 2 0.0029531024666186695 0.0029531024666187163 3.7375085149099327e-19 0 0 0
2 3 1.7533547311456734 1.7533547311456739 6.0632268944846e-20 0 0 0
3 1 1.7525569817800015 0.0037508518322906595 1.7486455387612023 0 0 0
4 1 0.0037508518322902262 1.7525569817800029 1.7486455387612028 0 0 0
5 1 3.508598574096037 0.0037146442663098574 3.352270324874545e-20 0 0 0
8 1 3.50826478093398 1.755830674289839 1.752140140430549 0 0 0
21 1 0.003714644266309404 3.5085985740960384 9.81845847260991e-20 0 0 0
23 1 1.755830674289839 3.5082647809339798 1.7521401404305494 0 0 0
25 1 3.508584346201686 3.5085843462016855 4.933165002898696e-19 0 0 0
51 1 0.0005214509690389516 0.0005214509690381272 3.5113978787136917 0 0 0
52 1 1.7557863826432532 1.7557863826432532 3.5113978787136917 0 0 0
53 1 1.7561613338437558 0.0001464997685369732 5.268786338927104 0 0 0
54 1 0.0001464997685353343 1.7561613338437556 5.268786338927104 0 0 0
55 1 3.511557562411776 0.0005078127911025622 3.5113175998137094 0 0 0
58 1 3.512202409983381 1.7561892059764932 5.268572184463447 0 0 0
71 1 0.0005078127911027487 3.5115575624117756 3.5113175998137094 0 0 0
73 1 1.7561892059764932 3.5122024099833813 5.268572184463447 0 0 0
75 1 3.5118132444668637 3.5118132444668624 3.5115963368792733 0 0 0
6 1 5.268443647979283 1.756207727445343 0 0 0 0
7 1 5.268194107243858 0.0005029396063811244 1.755671864222049 0 0 0
9 1 7.025235242707748 0.00014893134445138342 0 0 0 0
12 1 7.025172980224716 1.7562858381521214 1.7561358621095022 0 0 0
27 1 5.268002318979997 3.511896799202585 1.75572756209305 0 0 0
29 1 7.025118654134555 3.5124211375469687 1.4367078565997613e-16 0 0 0
56 1 5.268146824789621 1.75619782741745 3.5118346084706844 0 0 0
57 1 5.268394495034605 0.00011622810280463113 5.268383299393378 0 0 0
59 1 7.0249055726427105 0.00011438073523095347 3.512286249900822 0 0 0
62 1 7.024862291948129 1.7562563902311328 5.268553747052642 0 0 0
77 1 5.26850051693826 3.5123760407878617 5.268493033937796 0 0 0
79 1 7.0248784415687755 3.512419362932643 3.512284573591129 0 0 0
11 1 8.781526983921594 3.275100750765893e-05 1.7562752423748282 0 0 0
31 1 8.7815303478277 3.5125547849385073 1.756254491279412 0 0 0
60 1 8.781472706644045 1.7562844535857352 3.512509384793003 0 0 0
61 1 8.781421661536507 5.023028920464848e-05 5.2687432682802955 0 0 0
81 1 8.781426959791139 3.5124999750082337 5.2687399508952115 0 0 0
10 1 8.78159641456855 1.7563129302981602 7.303975205234202e-20 0 0 0
14 1 12.294150927027477 1.7561589022678412 6.934208881834088e-17 0 0 0
15 1 12.294213189510508 2.1995460170866766e-05 1.7561358621095033 0 0 0
16 1 10.537859185813629 1.7562750826047842 1.756275242374829 0 0 0
33 1 10.537916824962618 3.512544507865586 5.799354442060668e-19 0 0 0
35 1 12.294423669706223 3.512329304349905 1.7561623553753876 0 0 0
63 1 10.53791346309118 2.3380026555389228e-05 3.512509384793003 0 0 0
64 1 12.294480597092512 1.7561934528770615 3.512286249900822 0 0 0
65 1 12.294523877787094 5.1443381158994804e-05 5.268553747052642 0 0 0
66 1 10.537964508198716 1.7562576033230877 5.2687432682802955 0 0 0
83 1 10.5379523402706 3.5125023875770505 3.5124948408393077 0 0 0
85 1 12.294448908293973 3.512435081355748 5.268631852837953 0 0 0
17 1 14.05094252175594 0.00010010616695065451 0 0 0 0
18 1 15.810787595639185 1.7525931893459827 0 0 0 0
19 1 15.811121388801244 0.0004771593224526641 1.7521401404305497 0 0 0
20 1 14.051192062491365 1.755804894005911 1.7556718642220484 0 0 0
37 1 14.051022176381995 3.51195884038128 0 0 0 0
39 1 15.807998329283341 3.5113878404518832 1.755266753418077 0 0 0
67 1 14.051239344945602 0.00011000619484162663 3.5118346084706844 0 0 0
68 1 15.807828607323449 1.7558000208211895 3.51131759981371 0 0 0
69 1 15.807183759751842 0.00011862763580001061 5.268572184463447 0 0 0
70 1 14.050991674700617 1.7561916055094875 5.268383299393378 0 0 0
87 1 14.051054734073873 3.512177926115783 3.512024556400018 0 0 0
89 1 15.80715622463526 3.512229945099963 5.268368195265537 0 0 0
22 1 1.7562077274453431 5.268443647979282 2.784430071275614e-19 0 0 0
24 1 0.0005029396063809065 5.268194107243858 1.7556718642220486 0 0 0
28 1 3.5118967992025856 5.268002318979996 1.7557275620930506 0 0 0
41 1 0.0001489313444508991 7.025235242707747 0 0 0 0
42 1 1.7562858381521225 7.025172980224716 1.7561358621095027 0 0 0
43 1 3.5124211375469687 7.025118654134556 0 0 0 0
72 1 1.7561978274174503 5.268146824789621 3.5118346084706844 0 0 0
74 1 0.00011622810280527269 5.268394495034604 5.268383299393378 0 0 0
78 1 3.512376040787862 5.268500516938259 5.268493033937796 0 0 0
91 1 0.00011438073523066094 7.02490557264271 3.5122862499008214 0 0 0
92 1 1.7562563902311332 7.024862291948129 5.268553747052642 0 0 0
93 1 3.512419362932643 7.024878441568776 3.5122845735911286 0 0 0
252 1 3.275100750721146e-05 8.781526983921594 1.7562752423748282 0 0 0
254 1 3.5125547849385073 8.7815303478277 1.7562544912794122 0 0 0
301 1 1.756284453585736 8.781472706644045 3.512509384793003 0 0 0
302 1 5.023028920425933e-05 8.781421661536507 5.2687432682802955 0 0 0
304 1 3.5124999750082333 8.781426959791139 5.268739950895211 0 0 0
26 1 5.268206571238727 5.268206571238727 2.5534531312502913e-17 0 0 0
32 1 7.0248732577892845 5.268567834027688 1.7561586284881334 0 0 0
44 1 5.268567834027688 7.0248732577892845 1.7561586284881336 0 0 0
45 1 7.024908709751244 7.0249087097512435 0 0 0 0
76 1 5.268458497553592 5.268458497553591 3.5121950089728946 0 0 0
82 1 7.024998160642315 5.26871740982634 5.268687105139854 0 0 0
94 1 5.2687174098263405 7.024998160642315 5.268687105139854 0 0 0
95 1 7.025007251808497 7.025007251808498 3.512439103631127 0 0 0
30 1 8.781476286499155 5.26879528392346 2.268963340082704e-19 0 0 0
46 1 8.781431391772987 7.025057954550131 1.756229419261308 0 0 0
80 1 8.781441395264906 5.268765322222659 3.512473994793699 0 0 0
96 1 8.781472105278654 7.025104214518207 5.268792673953203 0 0 0
253 1 5.26879528392346 8.781476286499156 0 0 0 0
256 1 7.025057954550131 8.781431391772987 1.7562294192613086 0 0 0
303 1 5.268765322222659 8.781441395264906 3.5124739947936985 0 0 0
306 1 7.025104214518207 8.781472105278652 5.268792673953203 0 0 0
255 1 8.781451317512778 8.781451317512778 2.903349726250801e-16 0 0 0
305 1 8.781474966490624 8.781474966490624 3.5125034469656713 0 0 0
34 1 12.294472407017567 5.268603637487732 0 0 0 0
36 1 10.537964000017086 5.268773012800338 1.7562380374238538 0 0 0
47 1 10.537942950277932 7.025076865618884 0 0 0 0
48 1 12.294392483596136 7.024993686139087 1.7562138421202813 0 0 0
84 1 12.294432412960107 5.268662735311907 3.512401869137848 0 0 0
86 1 10.537926008083637 5.268771876772095 5.268774176196067 0 0 0
97 1 10.537919092442626 7.025089767309113 3.512494112859984 0 0 0
98 1 12.294316773731348 7.025069396003875 5.268763267639046 0 0 0
257 1 12.29430930411634 8.781443219457293 0 0 0 0
258 1 10.537910481856844 8.78147568787838 1.7562400287214526 0 0 0
307 1 12.29429640242611 8.781467077292596 3.512494112859984 0 0 0
308 1 10.537894272604795 8.781491897130428 5.268813518510543 0 0 0
100 1 15.806951088379476 7.02493726144125 5.268631852837954 0 0 0
38 1 15.807427329353942 5.268363993353229 0 0 0 0
40 1 14.050988087460489 5.268398082274733 1.7560787349896276 0 0 0
49 1 14.050782532247492 7.024913762717657 0 0 0 0
50 1 15.807056865385318 7.024962500029001 1.7561623553753873 0 0 0
88 1 15.80720824361944 5.26833143566135 3.5120245564000174 0 0 0
90 1 14.050766240427967 5.268619929307257 5.268581474401243 0 0 0
99 1 14.050723434423317 7.024953756775116 3.5124018691378485 0 0 0
259 1 15.806841661869639 8.781469344772605 1.008190125519812e-17 0 0 0
260 1 14.050613156934885 8.78142216971814 1.7562380374238538 0 0 0
309 1 15.806883782158174 8.781433829464623 3.5124948408393073 0 0 0
310 1 14.050614292963129 8.781460161651585 5.268774176196067 0 0 0
101 1 3.516170752974924e-05 3.51617075300963e-05 7.02525966538894 0 0 0
102 1 1.7562726719047626 1.7562726719047628 7.025259665388939 0 0 0
103 1 1.7563037160695079 4.117542782988977e-06 8.781539168061466 0 0 0
104 1 4.11754278429664e-06 1.7563037160695083 8.781539168061466 0 0 0
105 1 3.512498562399414 3.720727900768772e-05 7.025135772492327 0 0 0
108 1 3.5125713585440383 1.756281393992998 8.781539168061466 0 0 0
121 1 3.7207279007267124e-05 3.512498562399414 7.025135772492327 0 0 0
123 1 1.7562813939929982 3.5125713585440383 8.781539168061466 0 0 0
125 1 3.5124849365730575 3.5124849365730575 7.025099161393193 0 0 0
151 1 3.516170752900411e-05 3.516170752996713e-05 10.537818670733989 0 0 0
152 1 1.7562726719047626 1.7562726719047632 10.53781867073399 0 0 0
153 1 3.512498562399415 3.7207279007606133e-05 10.537942563630605 0 0 0
161 1 3.720727900737341e-05 3.512498562399415 10.537942563630605 0 0 0
163 1 3.512484936573058 3.512484936573058 10.53797917472974 0 0 0
106 1 5.268716029196604 1.7562550411186642 7.0250334416116855 0 0 0
107 1 5.268809260836565 2.837474274082065e-05 8.781539168061466 0 0 0
109 1 7.025002690712815 5.149667027878591e-05 7.025013982497638 0 0 0
112 1 7.0250912876033365 1.7562663589134955 8.781539168061466 0 0 0
127 1 5.268803235694854 3.5125187935827262 8.781539168061466 0 0 0
129 1 7.0250398529133715 3.512493714576781 7.0250503071921795 0 0 0
154 1 5.268716029196604 1.756255041118664 10.538044894511247 0 0 0
155 1 7.025002690712816 5.1496670278725254e-05 10.538064353625295 0 0 0
165 1 7.0250398529133715 3.5124937145767805 10.538028028930754 0 0 0
110 1 8.78144249746042 1.756267128074831 7.025078056345897 0 0 0
111 1 8.781467894391183 4.0508389185232604e-05 8.781539168061466 0 0 0
131 1 8.781477231967752 3.5125129751478736 8.781539168061466 0 0 0
156 1 8.78144249746042 1.7562671280748305 10.538000279777032 0 0 0
113 1 10.537943672274803 4.070553746065342e-05 7.025078056345897 0 0 0
114 1 12.294383479022407 1.7562563369420146 7.025013982497637 0 0 0
115 1 12.294294882131886 4.147469879582824e-05 8.781539168061466 0 0 0
116 1 10.53791827534404 1.756267325223107 8.781539168061466 0 0 0
133 1 10.537923281042298 3.5125041660958094 7.025103576945523 0 0 0
135 1 12.2943063205039 3.5125047738517297 8.781539168061466 0 0 0
157 1 10.537943672274803 4.0705537461182206e-05 10.538000279777032 0 0 0
158 1 12.29438347902241 1.7562563369420139 10.538064353625295 0 0 0
167 1 10.537923281042298 3.5125041660958094 10.537974759177407 0 0 0
117 1 14.050670140538621 5.279249362716321e-05 7.025033441611685 0 0 0
118 1 15.80688760733581 1.7562706263332843 7.025135772492326 0 0 0
119 1 15.806814811191185 2.6439619294652634e-05 8.781539168061466 0 0 0
120 1 14.050576908898659 1.7562794588695523 8.781539168061466 0 0 0
137 1 14.050687411737256 3.5124666491560212 7.024999002013544 0 0 0
139 1 15.806840865563245 3.512545304171978 8.781539168061466 0 0 0
159 1 14.05067014053862 5.279249362787982e-05 10.538044894511247 0 0 0
160 1 15.806887607335806 1.756270626333285 10.537942563630605 0 0 0
169 1 14.050687411737258 3.5124666491560204 10.538079334109387 0 0 0
122 1 1.7562550411186644 5.268716029196604 7.025033441611685 0 0 0
124 1 2.8374742739835147e-05 5.268809260836566 8.781539168061466 0 0 0
128 1 3.5125187935827267 5.268803235694854 8.781539168061466 0 0 0
141 1 5.14966702787669e-05 7.025002690712816 7.025013982497638 0 0 0
142 1 1.756266358913496 7.0250912876033365 8.781539168061466 0 0 0
143 1 3.51249371457678 7.0250398529133715 7.0250503071921795 0 0 0
162 1 1.7562550411186642 5.268716029196604 10.538044894511247 0 0 0
171 1 5.149667027877402e-05 7.025002690712815 10.538064353625295 0 0 0
172 1 3.5124937145767805 7.0250398529133715 10.538028028930752 0 0 0
351 1 1.7562671280748305 8.78144249746042 7.0250780563458965 0 0 0
352 1 4.050838918586166e-05 8.781467894391183 8.781539168061466 0 0 0
354 1 3.5125129751478736 8.781477231967752 8.781539168061466 0 0 0
401 1 1.7562671280748303 8.78144249746042 10.538000279777034 0 0 0
126 1 5.268745962083607 5.268745962083607 7.0250563847488285 0 0 0
132 1 7.025109487365429 5.268792009098623 8.781539168061466 0 0 0
144 1 5.268792009098622 7.02510948736543 8.781539168061466 0 0 0
145 1 7.025105936345206 7.025105936345206 7.0251258205644795 0 0 0
164 1 5.268745962083606 5.268745962083607 10.538021951374102 0 0 0
173 1 7.025105936345207 7.025105936345207 10.537952515558453 0 0 0
130 1 8.781475536269763 5.268790211273764 7.025126115421257 0 0 0
146 1 8.781496697569397 7.025131213050579 8.781539168061466 0 0 0
166 1 8.781475536269763 5.268790211273764 10.537952220701674 0 0 0
353 1 5.268790211273763 8.781475536269763 7.025126115421257 0 0 0
356 1 7.025131213050578 8.781496697569398 8.781539168061466 0 0 0
402 1 5.268790211273764 8.781475536269761 10.537952220701674 0 0 0
355 1 8.781497656581955 8.781497656581955 7.025162215192383 0 0 0
403 1 8.781497656581953 8.781497656581953 10.537916120930548 0 0 0
134 1 12.294317277851086 5.26876317325589 7.02509184739518 0 0 0
136 1 10.537900658017302 5.2687959646173015 8.781539168061466 0 0 0
147 1 10.537895332704087 7.025122688860954 7.025150831449434 0 0 0
148 1 12.294270544245538 7.025115625489685 8.781539168061466 0 0 0
168 1 12.294317277851086 5.26876317325589 10.537986488727752 0 0 0
174 1 10.537895332704085 7.025122688860954 10.537927504673497 0 0 0
357 1 12.29426348087427 8.781490837031138 7.025150831449433 0 0 0
358 1 10.537885857098725 8.781500312636497 8.781539168061464 0 0 0
404 1 12.29426348087427 8.781490837031136 10.537927504673497 0 0 0
138 1 15.806919520579203 5.268698757997966 7.024999002013544 0 0 0
140 1 14.050614267710356 5.2687719020248664 8.781539168061466 0 0 0
149 1 14.050622996479333 7.025068891884137 7.025091847395179 0 0 0
150 1 15.806881395883494 7.0250798492313224 8.781539168061466 0 0 0
170 1 15.806919520579203 5.268698757997966 10.538079334109387 0 0 0
175 1 14.050622996479333 7.025068891884138 10.537986488727752 0 0 0
359 1 15.806882003639416 8.781462888692925 7.025103576945522 0 0 0
360 1 14.050590205117922 8.781485511717923 8.781539168061466 0 0 0
405 1 15.806882003639414 8.781462888692925 10.537974759177407 0 0 0
176 1 1.756161333843756 0.00014649976853670397 12.294291997195828 0 0 0
177 1 0.00014649976853718636 1.7561613338437558 12.294291997195828 0 0 0
179 1 3.512202409983381 1.7561892059764928 12.294506151659483 0 0 0
186 1 1.756189205976493 3.512202409983381 12.294506151659483 0 0 0
201 1 0.0005214509690386579 0.0005214509690385393 14.051680457409239 0 0 0
202 1 1.7557863826432527 1.7557863826432534 14.051680457409239 0 0 0
203 1 1.7525569817800017 0.0037508518322910103 15.814432797361729 0 0 0
204 1 0.0037508518322906664 1.752556981780002 15.814432797361729 0 0 0
205 1 3.511557562411776 0.0005078127911023822 14.051760736309221 0 0 0
208 1 3.5082647809339806 1.7558306742898393 15.810938195692382 0 0 0
221 1 0.000507812791102747 3.511557562411775 14.051760736309221 0 0 0
223 1 1.7558306742898389 3.5082647809339806 15.810938195692382 0 0 0
225 1 3.5118132444668633 3.511813244466863 14.05148199924366 0 0 0
178 1 5.268394495034604 0.0001162281028051685 12.294695036729552 0 0 0
181 1 7.0248622919481285 1.7562563902311328 12.294524589070289 0 0 0
188 1 5.26850051693826 3.512376040787862 12.294585302185135 0 0 0
206 1 5.268146824789621 1.7561978274174495 14.051243727652247 0 0 0
207 1 5.268194107243858 0.0005029396063810414 15.807406471900883 0 0 0
209 1 7.0249055726427105 0.00011438073523089018 14.05079208622211 0 0 0
212 1 7.025172980224716 1.7562858381521218 15.806942474013429 0 0 0
227 1 5.268002318979996 3.5118967992025847 15.807350774029882 0 0 0
229 1 7.0248784415687755 3.5124193629326435 14.050793762531804 0 0 0
180 1 8.781421661536505 5.023028920356784e-05 12.294335067842635 0 0 0
190 1 8.781426959791139 3.512499975008234 12.29433838522772 0 0 0
210 1 8.781472706644045 1.7562844535857356 14.050568951329929 0 0 0
211 1 8.781526983921596 3.2751007507745875e-05 15.806803093748103 0 0 0
231 1 8.7815303478277 3.5125547849385073 15.80682384484352 0 0 0
182 1 12.294523877787096 5.144338115846765e-05 12.294524589070289 0 0 0
183 1 10.537964508198717 1.756257603323089 12.294335067842635 0 0 0
192 1 12.29444890829397 3.5124350813557483 12.294446483284977 0 0 0
213 1 10.53791346309118 2.3380026555808042e-05 14.050568951329929 0 0 0
214 1 12.294480597092512 1.7561934528770609 14.05079208622211 0 0 0
215 1 12.294213189510508 2.1995460169274822e-05 15.806942474013427 0 0 0
216 1 10.537859185813629 1.7562750826047846 15.806803093748103 0 0 0
233 1 10.5379523402706 3.512502387577051 14.050583495283623 0 0 0
235 1 12.294423669706223 3.512329304349905 15.806915980747544 0 0 0
184 1 15.807183759751842 0.00011862763579913573 12.294506151659483 0 0 0
185 1 14.050991674700619 1.7561916055094864 12.294695036729552 0 0 0
194 1 15.807156224635259 3.512229945099964 12.294710140857395 0 0 0
217 1 14.051239344945602 0.00011000619484103917 14.051243727652247 0 0 0
218 1 15.807828607323449 1.755800020821189 14.051760736309221 0 0 0
219 1 15.811121388801244 0.0004771593224527494 15.810938195692382 0 0 0
220 1 14.051192062491364 1.7558048940059117 15.807406471900883 0 0 0
237 1 14.051054734073873 3.512177926115784 14.051053779722913 0 0 0
239 1 15.807998329283341 3.5113878404518837 15.807811582704854 0 0 0
187 1 0.00011622810280474257 5.268394495034604 12.294695036729552 0 0 0
189 1 3.5123760407878626 5.26850051693826 12.294585302185135 0 0 0
196 1 1.7562563902311321 7.024862291948129 12.294524589070289 0 0 0
222 1 1.7561978274174503 5.268146824789621 14.051243727652247 0 0 0
224 1 0.0005029396063809819 5.268194107243858 15.807406471900883 0 0 0
228 1 3.511896799202585 5.268002318979997 15.807350774029882 0 0 0
241 1 0.00011438073523117951 7.0249055726427105 14.05079208622211 0 0 0
242 1 1.756285838152122 7.025172980224717 15.806942474013429 0 0 0
243 1 3.512419362932643 7.024878441568776 14.050793762531804 0 0 0
426 1 5.023028920530592e-05 8.781421661536505 12.294335067842635 0 0 0
427 1 3.5124999750082333 8.781426959791139 12.294338385227721 0 0 0
451 1 1.7562844535857354 8.781472706644044 14.050568951329929 0 0 0
452 1 3.275100750778174e-05 8.781526983921594 15.806803093748103 0 0 0
454 1 3.5125547849385073 8.7815303478277 15.806823844843517 0 0 0
191 1 7.024998160642315 5.2687174098263405 12.294391230983077 0 0 0
197 1 5.2687174098263405 7.024998160642315 12.294391230983077 0 0 0
226 1 5.268458497553591 5.268458497553592 14.050883327150036 0 0 0
232 1 7.024873257789285 5.268567834027688 15.806919707634798 0 0 0
244 1 5.268567834027687 7.024873257789285 15.806919707634798 0 0 0
245 1 7.025007251808497 7.025007251808497 14.050639232491804 0 0 0
198 1 8.781472105278654 7.025104214518208 12.294285662169727 0 0 0
230 1 8.781441395264906 5.268765322222659 14.050604341329231 0 0 0
246 1 8.781431391772987 7.02505795455013 15.806848916861624 0 0 0
428 1 7.025104214518208 8.781472105278652 12.294285662169727 0 0 0
453 1 5.2687653222226585 8.781441395264906 14.050604341329231 0 0 0
456 1 7.025057954550131 8.781431391772989 15.806848916861622 0 0 0
455 1 8.781474966490624 8.781474966490624 14.050574889157259 0 0 0
193 1 10.537926008083637 5.268771876772094 12.294304159926863 0 0 0
199 1 12.294316773731348 7.025069396003876 12.294315068483886 0 0 0
234 1 12.294432412960107 5.268662735311907 14.050676466985083 0 0 0
236 1 10.537964000017086 5.268773012800338 15.806840298699077 0 0 0
247 1 10.537919092442626 7.0250897673091135 14.050584223262947 0 0 0
248 1 12.294392483596136 7.024993686139087 15.80686449400265 0 0 0
429 1 10.537894272604795 8.781491897130428 12.294264817612389 0 0 0
457 1 12.29429640242611 8.781467077292596 14.050584223262948 0 0 0
458 1 10.537910481856844 8.78147568787838 15.80683830740148 0 0 0
195 1 14.050766240427967 5.268619929307257 12.294496861721688 0 0 0
200 1 15.806951088379476 7.0249372614412495 12.294446483284977 0 0 0
238 1 15.80720824361944 5.26833143566135 14.051053779722913 0 0 0
240 1 14.050988087460489 5.268398082274734 15.806999601133302 0 0 0
249 1 14.050723434423317 7.024953756775117 14.050676466985083 0 0 0
250 1 15.807056865385317 7.024962500029001 15.806915980747544 0 0 0
430 1 14.050614292963129 8.781460161651585 12.294304159926863 0 0 0
459 1 15.806883782158174 8.781433829464623 14.050583495283625 0 0 0
460 1 14.050613156934885 8.78142216971814 15.806840298699075 0 0 0
251 1 1.7563129302981604 8.78159641456855 0 0 0 0
262 1 1.7561589022678399 12.294150927027477 3.294272423508295e-19 0 0 0
263 1 1.756275082604784 10.537859185813629 1.7562752423748285 0 0 0
264 1 2.1995460169279965e-05 12.294213189510508 1.7561358621095025 0 0 0
265 1 3.512544507865586 10.537916824962618 0 0 0 0
268 1 3.5123293043499055 12.294423669706223 1.756162355375388 0 0 0
311 1 2.338002655561995e-05 10.53791346309118 3.5125093847930025 0 0 0
312 1 1.7561934528770613 12.294480597092514 3.512286249900822 0 0 0
313 1 1.7562576033230872 10.537964508198717 5.2687432682802955 0 0 0
314 1 5.144338115880712e-05 12.294523877787094 5.268553747052642 0 0 0
315 1 3.512502387577051 10.5379523402706 3.512494840839307 0 0 0
318 1 3.512435081355748 12.294448908293973 5.268631852837954 0 0 0
266 1 5.268603637487732 12.294472407017567 0 0 0 0
267 1 5.268773012800338 10.537964000017086 1.7562380374238546 0 0 0
269 1 7.025076865618883 10.537942950277932 2.658168025511464e-19 0 0 0
272 1 7.024993686139086 12.294392483596138 1.7562138421202815 0 0 0
316 1 5.268662735311907 12.294432412960106 3.512401869137847 0 0 0
317 1 5.268771876772095 10.537926008083637 5.268774176196067 0 0 0
319 1 7.025089767309113 10.537919092442626 3.5124941128599843 0 0 0
322 1 7.025069396003877 12.294316773731346 5.268763267639046 0 0 0
270 1 8.781443219457293 12.29430930411634 0 0 0 0
271 1 8.78147568787838 10.537910481856844 1.7562400287214521 0 0 0
320 1 8.781467077292596 12.294296402426111 3.5124941128599843 0 0 0
321 1 8.78149189713043 10.537894272604795 5.268813518510544 0 0 0
273 1 10.537934852222445 10.537934852222447 2.011586613900567e-19 0 0 0
274 1 12.29447745998398 12.294477459983982 9.193497594673575e-19 0 0 0
275 1 12.294328215185093 10.537954777962234 1.756229419261308 0 0 0
276 1 10.537954777962234 12.294328215185093 1.7562294192613077 0 0 0
323 1 10.5379112032446 10.5379112032446 3.5125034469656713 0 0 0
324 1 12.294378917926725 12.294378917926727 3.512439103631127 0 0 0
325 1 12.294281955217016 10.53791406445657 5.268792673953203 0 0 0
326 1 10.53791406445657 12.294281955217016 5.268792673953204 0 0 0
261 1 17.563073239437063 10.537789755166672 7.470704126763831e-16 -1 0 0
277 1 14.050590885811763 10.537909883236068 8.770757111203365e-20 0 0 0
278 1 15.806965032188254 12.29426751560067 0 0 0 0
279 1 15.806831384796718 10.537855821907524 1.7562544912794122 0 0 0
280 1 14.050818335707534 12.29451291194594 1.7561586284881332 0 0 0
327 1 14.050620847512564 10.537944774470317 3.5124739947936985 0 0 0
328 1 15.806966806802581 12.294507728166447 3.512284573591128 0 0 0
329 1 15.80688619472699 10.537959209944084 5.268739950895211 0 0 0
330 1 14.050668759908882 12.294388009092907 5.268687105139854 0 0 0
281 1 0.00010010616695073733 14.05094252175594 0 0 0 0
282 1 1.7525931893459823 15.810787595639187 0 0 0 0
283 1 1.7558048940059117 14.051192062491365 1.7556718642220484 0 0 0
284 1 0.0004771593224522247 15.811121388801244 1.7521401404305503 0 0 0
285 1 3.51195884038128 14.051022176381995 0 0 0 0
288 1 3.511387840451883 15.807998329283341 1.7552667534180773 0 0 0
331 1 0.00011000619484151363 14.0512393449456 3.511834608470685 0 0 0
332 1 1.7558000208211892 15.807828607323447 3.511317599813709 0 0 0
333 1 1.7561916055094877 14.050991674700617 5.268383299393378 0 0 0
334 1 0.00011862763579873468 15.80718375975184 5.268572184463447 0 0 0
335 1 3.512177926115783 14.051054734073873 3.5120245564000174 0 0 0
338 1 3.512229945099964 15.807156224635259 5.268368195265537 0 0 0
341 1 8.781460161651585 14.050614292963129 5.268774176196067 0 0 0
340 1 8.781433829464623 15.806883782158174 3.512494840839307 0 0 0
291 1 8.78142216971814 14.050613156934885 1.7562380374238542 0 0 0
286 1 5.268363993353229 15.807427329353942 7.902661697466513e-19 0 0 0
287 1 5.268398082274734 14.05098808746049 1.7560787349896276 0 0 0
289 1 7.024913762717657 14.050782532247492 4.668795805576815e-19 0 0 0
292 1 7.024962500029001 15.807056865385318 1.7561623553753876 0 0 0
336 1 5.268331435661351 15.80720824361944 3.512024556400018 0 0 0
337 1 5.268619929307256 14.050766240427969 5.268581474401243 0 0 0
339 1 7.024953756775117 14.050723434423317 3.5124018691378476 0 0 0
342 1 7.024937261441249 15.806951088379476 5.268631852837954 0 0 0
290 1 8.781469344772606 15.806841661869637 4.3994268245305697e-16 0 0 0
346 1 10.537959209944084 15.80688619472699 5.268739950895211 0 0 0
345 1 12.294388009092907 14.050668759908882 5.268687105139853 0 0 0
344 1 12.294507728166447 15.806966806802581 3.512284573591129 0 0 0
343 1 10.537944774470317 14.050620847512564 3.5124739947936985 0 0 0
296 1 10.537855821907524 15.806831384796716 1.7562544912794127 0 0 0
295 1 12.29451291194594 14.050818335707534 1.7561586284881336 0 0 0
294 1 12.29426751560067 15.806965032188254 0 0 0 0
293 1 10.537909883236068 14.050590885811763 0 0 0 0
13 1 10.537789755166672 17.563073239437063 0 0 -1 0
350 1 14.050885652796964 15.807010128947363 5.268493033937796 0 0 0
349 1 15.807010128947363 14.050885652796964 5.268493033937796 0 0 0
348 1 15.807572925268362 15.80757292526836 3.5115963368792724 0 0 0
347 1 14.050927672181633 14.050927672181633 3.5121950089728937 0 0 0
300 1 14.051383850755228 15.807489370532638 1.7557275620930506 0 0 0
299 1 15.807489370532638 14.051383850755226 1.7557275620930504 0 0 0
298 1 15.810801823533536 15.810801823533536 3.3349664695012654e-16 0 0 0
297 1 14.051179598496496 14.051179598496498 4.879294911693339e-19 0 0 0
361 1 4.070553746135946e-05 10.537943672274803 7.0250780563458965 0 0 0
362 1 1.7562563369420143 12.29438347902241 7.0250139824976365 0 0 0
363 1 1.756267325223107 10.537918275344042 8.781539168061466 0 0 0
364 1 4.147469879536711e-05 12.294294882131886 8.781539168061466 0 0 0
365 1 3.5125041660958094 10.537923281042298 7.025103576945523 0 0 0
368 1 3.512504773851729 12.2943063205039 8.781539168061466 0 0 0
406 1 4.070553746080931e-05 10.537943672274805 10.538000279777032 0 0 0
407 1 1.7562563369420139 12.294383479022407 10.538064353625293 0 0 0
408 1 3.512504166095809 10.537923281042298 10.537974759177407 0 0 0
366 1 5.2687631732558895 12.294317277851086 7.02509184739518 0 0 0
367 1 5.268795964617301 10.537900658017302 8.781539168061466 0 0 0
369 1 7.025122688860954 10.537895332704087 7.025150831449433 0 0 0
372 1 7.0251156254896845 12.294270544245538 8.781539168061464 0 0 0
409 1 5.2687631732558895 12.294317277851086 10.537986488727752 0 0 0
410 1 7.025122688860954 10.537895332704087 10.537927504673497 0 0 0
370 1 8.781490837031138 12.29426348087427 7.025150831449433 0 0 0
371 1 8.781500312636497 10.537885857098725 8.781539168061466 0 0 0
411 1 8.781490837031138 12.29426348087427 10.537927504673497 0 0 0
373 1 10.537888513153268 10.537888513153268 7.025162215192382 0 0 0
374 1 12.294280233390017 12.294280233390017 7.0251258205644795 0 0 0
375 1 12.294254956684647 10.537889472165826 8.781539168061466 0 0 0
376 1 10.537889472165825 12.294254956684647 8.781539168061466 0 0 0
412 1 10.53788851315327 10.53788851315327 10.537916120930548 0 0 0
413 1 12.294280233390017 12.294280233390017 10.537952515558453 0 0 0
377 1 14.050595958461459 10.537910633465462 7.025126115421258 0 0 0
378 1 15.806892455158442 12.294346316821851 7.0250503071921795 0 0 0
379 1 15.806873194587348 10.537908937767472 8.781539168061467 0 0 0
380 1 14.050594160636601 12.294276682369794 8.781539168061466 0 0 0
414 1 14.050595958461459 10.53791063346546 10.537952220701674 0 0 0
415 1 15.806892455158444 12.294346316821851 10.538028028930752 0 0 0
381 1 5.279249362734399e-05 14.05067014053862 7.025033441611685 0 0 0
382 1 1.7562706263332843 15.806887607335808 7.025135772492328 0 0 0
383 1 1.7562794588695507 14.050576908898659 8.781539168061466 0 0 0
384 1 2.6439619294405554e-05 15.806814811191185 8.781539168061466 0 0 0
385 1 3.5124666491560204 14.050687411737256 7.024999002013543 0 0 0
388 1 3.512545304171977 15.806840865563247 8.781539168061466 0 0 0
416 1 5.279249362823333e-05 14.050670140538621 10.538044894511245 0 0 0
417 1 1.7562706263332841 15.806887607335808 10.537942563630603 0 0 0
418 1 3.5124666491560212 14.050687411737258 10.538079334109387 0 0 0
421 1 8.781462888692925 15.806882003639414 10.537974759177407 0 0 0
391 1 8.781485511717923 14.050590205117922 8.781539168061466 0 0 0
390 1 8.781462888692925 15.806882003639414 7.025103576945523 0 0 0
386 1 5.268698757997966 15.806919520579203 7.024999002013544 0 0 0
387 1 5.268771902024867 14.050614267710356 8.781539168061466 0 0 0
389 1 7.025068891884136 14.050622996479333 7.02509184739518 0 0 0
392 1 7.0250798492313224 15.806881395883494 8.781539168061466 0 0 0
419 1 5.268698757997966 15.806919520579203 10.538079334109387 0 0 0
420 1 7.025068891884136 14.050622996479333 10.537986488727752 0 0 0
423 1 12.294346316821851 15.806892455158444 10.538028028930752 0 0 0
422 1 10.537910633465462 14.050595958461459 10.537952220701674 0 0 0
396 1 10.53790893776747 15.80687319458735 8.781539168061466 0 0 0
395 1 12.294276682369794 14.050594160636603 8.781539168061466 0 0 0
394 1 12.294346316821851 15.806892455158444 7.0250503071921795 0 0 0
393 1 10.537910633465462 14.050595958461459 7.025126115421256 0 0 0
425 1 15.806901233162165 15.806901233162165 10.537979174729738 0 0 0
424 1 14.050640207651616 14.050640207651615 10.538021951374102 0 0 0
400 1 14.050582934040369 15.806867376152498 8.781539168061466 0 0 0
399 1 15.806867376152498 14.050582934040367 8.781539168061466 0 0 0
398 1 15.806901233162165 15.806901233162165 7.025099161393193 0 0 0
397 1 14.050640207651616 14.050640207651615 7.0250563847488285 0 0 0
431 1 1.7562576033230877 10.537964508198717 12.294335067842635 0 0 0
432 1 5.144338115931111e-05 12.294523877787094 12.29452458907029 0 0 0
434 1 3.5124350813557492 12.294448908293974 12.294446483284977 0 0 0
461 1 2.338002655587016e-05 10.53791346309118 14.050568951329927 0 0 0
462 1 1.7561934528770615 12.294480597092514 14.05079208622211 0 0 0
463 1 1.7562750826047844 10.537859185813629 15.806803093748101 0 0 0
464 1 2.1995460170812153e-05 12.294213189510508 15.806942474013429 0 0 0
465 1 3.5125023875770505 10.5379523402706 14.050583495283623 0 0 0
468 1 3.5123293043499046 12.294423669706223 15.806915980747544 0 0 0
433 1 5.268771876772094 10.537926008083637 12.294304159926863 0 0 0
436 1 7.025069396003876 12.294316773731348 12.294315068483886 0 0 0
466 1 5.268662735311907 12.294432412960106 14.050676466985083 0 0 0
467 1 5.268773012800338 10.537964000017086 15.806840298699075 0 0 0
469 1 7.0250897673091135 10.537919092442626 14.050584223262947 0 0 0
472 1 7.024993686139087 12.294392483596136 15.80686449400265 0 0 0
435 1 8.781491897130428 10.537894272604795 12.294264817612387 0 0 0
470 1 8.781467077292595 12.294296402426111 14.050584223262947 0 0 0
471 1 8.78147568787838 10.537910481856843 15.80683830740148 0 0 0
437 1 12.294281955217016 10.53791406445657 12.29428566216973 0 0 0
438 1 10.53791406445657 12.294281955217016 12.294285662169727 0 0 0
473 1 10.537911203244601 10.5379112032446 14.050574889157259 0 0 0
474 1 12.294378917926725 12.294378917926725 14.050639232491802 0 0 0
475 1 12.294328215185093 10.537954777962236 15.806848916861624 0 0 0
476 1 10.537954777962236 12.294328215185093 15.806848916861624 0 0 0
439 1 15.80688619472699 10.537959209944084 12.294338385227721 0 0 0
440 1 14.050668759908882 12.294388009092907 12.294391230983077 0 0 0
477 1 14.050620847512565 10.537944774470317 14.050604341329231 0 0 0
478 1 15.806966806802581 12.294507728166447 14.050793762531804 0 0 0
479 1 15.806831384796716 10.537855821907524 15.806823844843517 0 0 0
480 1 14.050818335707534 12.29451291194594 15.8069197076348 0 0 0
441 1 1.7561916055094877 14.050991674700619 12.294695036729552 0 0 0
442 1 0.00011862763579918423 15.80718375975184 12.294506151659483 0 0 0
444 1 3.5122299450999637 15.807156224635259 12.294710140857395 0 0 0
481 1 0.00011000619484172887 14.051239344945602 14.051243727652247 0 0 0
482 1 1.7558000208211895 15.807828607323447 14.051760736309221 0 0 0
483 1 1.7558048940059112 14.051192062491364 15.807406471900883 0 0 0
484 1 0.0004771593224523886 15.811121388801244 15.81093819569238 0 0 0
485 1 3.512177926115783 14.051054734073873 14.051053779722913 0 0 0
488 1 3.5113878404518837 15.807998329283341 15.807811582704854 0 0 0
491 1 8.781422169718137 14.050613156934885 15.806840298699077 0 0 0
490 1 8.781433829464623 15.806883782158174 14.050583495283623 0 0 0
445 1 8.781460161651585 14.050614292963129 12.294304159926865 0 0 0
443 1 5.268619929307255 14.050766240427967 12.294496861721687 0 0 0
446 1 7.02493726144125 15.806951088379476 12.294446483284977 0 0 0
486 1 5.26833143566135 15.80720824361944 14.051053779722915 0 0 0
487 1 5.268398082274734 14.05098808746049 15.806999601133304 0 0 0
489 1 7.024953756775117 14.050723434423317 14.050676466985083 0 0 0
492 1 7.024962500029001 15.807056865385317 15.806915980747544 0 0 0
496 1 10.537855821907524 15.806831384796718 15.806823844843517 0 0 0
495 1 12.29451291194594 14.050818335707534 15.806919707634798 0 0 0
494 1 12.294507728166447 15.806966806802581 14.050793762531804 0 0 0
493 1 10.537944774470317 14.050620847512564 14.050604341329231 0 0 0
448 1 10.537959209944084 15.80688619472699 12.294338385227721 0 0 0
447 1 12.29438800909291 14.050668759908882 12.294391230983077 0 0 0
500 1 14.051383850755226 15.807489370532638 15.80735077402988 0 0 0
499 1 15.807489370532638 14.051383850755226 15.807350774029882 0 0 0
498 1 15.80757292526836 15.80757292526836 14.05148199924366 0 0 0
497 1 14.050927672181633 14.050927672181633 14.050883327150036 0 0 0
450 1 14.050885652796964 15.807010128947363 12.294585302185135 0 0 0
449 1 15.807010128947363 14.050885652796964 12.294585302185135 0 0 0

Velocities

1 7.880382502809972e-09 7.880383470970073e-09 3.7375085149099326e-16
2 -7.880385312640935e-09 -7.880384851938132e-09 6.0632268944846e-17
3 -2.105822990526676e-09 2.1058245117890532e-09 -8.721645852452242e-09
4 2.1058238191087817e-09 -2.105825169745508e-09 -8.721647442563565e-09
5 4.583408466285208e-09 -2.443433286027167e-09 3.352270324874545e-17
8 5.344868822792141e-09 -4.42336296420012e-09 -3.485836681938556e-09
21 -2.443433393565059e-09 4.583403902629041e-09 9.81845847260991e-17
23 -4.423362670313604e-09 5.3448695558089146e-09 -3.4858367791385817e-09
25 6.8062805111691964e-09 6.806281599001262e-09 4.933165002898696e-16
51 1.5924363367300795e-09 1.59243630080889e-09 2.0309083798815297e-09
52 -1.592436080492261e-09 -1.59243579731355e-09 2.0309085329956e-09
53 -8.39410011411428e-10 8.394057303539937e-10 -1.52717636767893e-08
54 8.394150499569467e-10 -8.394089352724582e-10 -1.5271763906086225e-08
55 1.1622741060942712e-09 3.114575208745378e-09 -1.4259166172537552e-09
58 -5.844466114765374e-09 -1.5598068052868521e-09 -6.612281958431343e-09
71 3.1145760735795876e-09 1.1622764280998312e-09 -1.425917010041205e-09
73 -1.5598073122431966e-09 -5.844468859911321e-09 -6.612282727518979e-09
75 -5.4692066498150455e-09 -5.469204739440359e-09 2.335064074438126e-10
6 1.6557849527275755e-09 7.202547463937301e-10 -8.66598697506271e-17
7 -8.176041760355815e-10 3.0491289169048336e-09 -7.191810036516605e-09
9 6.428196114950266e-09 1.6919582457898135e-09 -1.4105053756993261e-15
12 -7.747839769088871e-10 1.3754087786238528e-09 5.390338179637803e-10
27 -5.689107759815065e-10 -5.3379486666383225e-09 -1.2661923689882392e-09
29 -1.5714942868239122e-09 -5.492566520732649e-09 -7.716098357943729e-16
56 -3.06400308886734e-10 -7.475555688633142e-10 -2.337841037859851e-10
57 2.7385169385914353e-09 -2.80332861769295e-09 1.4613153977931748e-09
59 6.7040571149067236e-09 -7.240513910213464e-10 1.4627886000130869e-09
62 -2.086855813031998e-11 -3.198721187660485e-09 7.532185478657212e-09
77 4.360689386520609e-09 -4.60916547998505e-09 8.18169522333044e-09
79 3.09286629910084e-10 -3.74596981390879e-09 5.061600643058316e-09
11 2.0481554241658672e-09 -1.7544492903232723e-09 4.798020298782721e-09
31 -1.4411547187728526e-09 -3.38335114713552e-09 1.9783250036458736e-09
60 1.899830044074099e-09 -2.851216051095636e-09 5.320547043279041e-09
61 -5.219206525889403e-11 -1.1813964798383392e-09 3.132996788999834e-09
81 -1.612546968514364e-10 1.1975001978232235e-09 9.52357554780126e-09
10 1.990745427102492e-09 2.775260597641538e-09 7.303975205234202e-17
14 -6.428199841965447e-09 -1.6919627320045117e-09 -5.910947499455571e-16
15 7.747846262662395e-10 -1.3754087391386077e-09 5.390302230481741e-10
16 -2.0481539679840445e-09 1.7544514527788822e-09 4.798018821224458e-09
33 -6.4996700046550434e-09 -3.26149736501748e-09 5.799354442060668e-16
35 -7.728516168732496e-09 -7.965361421361077e-10 -5.872989423190749e-10
63 -1.899833543276207e-09 2.851217974076649e-09 5.320546677780938e-09
64 -6.704056523105126e-09 7.240517454437497e-10 1.4627880436836638e-09
65 2.086919453084562e-11 3.198723870734804e-09 7.532185445254716e-09
66 5.21916630955547e-11 1.1813938551967572e-09 3.13299631469046e-09
83 -4.0900295647380565e-09 -7.094275088748302e-09 -1.9023527062969883e-09
85 -4.2272607003467805e-09 -3.83101502640814e-09 5.504244398134137e-09
17 -1.655786463751478e-09 -7.202614367152808e-10 -1.2018631331563656e-15
18 -4.583402686098088e-09 2.4434318345854333e-09 -1.118346367489958e-15
19 -5.3448683332910975e-09 4.423362813998362e-09 -3.4858379343041687e-09
20 8.176039000411086e-10 -3.0491294898478064e-09 -7.191805933568402e-09
37 2.3825452545846514e-10 1.3261223421096994e-10 -5.732423163124383e-16
39 -1.8303325276682597e-09 1.8303324748294995e-09 -1.0627913379749935e-08
67 3.0640130815061636e-10 7.475553320828065e-10 -2.337844767676698e-10
68 -1.16227817087621e-09 -3.114575958332438e-09 -1.4259191394193863e-09
69 5.844467972358596e-09 1.5598027885680612e-09 -6.6122822036682976e-09
70 -2.7385169532592546e-09 2.8033301646988458e-09 1.4613156576231126e-09
87 -1.8577343578578472e-09 2.7025543388856945e-09 -3.901042857240678e-09
89 -1.204075428219414e-09 1.2040728438394986e-09 -5.957315684837034e-09
22 7.20255986872142e-10 1.6557875441958455e-09 2.784430071275614e-16
24 3.0491300711723907e-09 -8.176042510959004e-10 -7.191808726440888e-09
28 -5.337948774327056e-09 -5.689099642362164e-10 -1.2661936527708612e-09
41 1.6919613398016055e-09 6.428196680709001e-09 -9.468226874654007e-16
42 1.3754066856158758e-09 -7.747848857149823e-10 5.390320518386282e-10
43 -5.49256617570214e-09 -1.571495099929292e-09 -1.607566776408168e-16
72 -7.475551138615801e-10 -3.064014743410755e-10 -2.337845010144727e-10
74 -2.8033304281209026e-09 2.738520114099426e-09 1.4613153955481006e-09
78 -4.609164893814847e-09 4.360691391737856e-09 8.181694009651434e-09
91 -7.240508737562171e-10 6.704058716692434e-09 1.4627893591475589e-09
92 -3.1987226101395906e-09 -2.086931967503145e-11 7.532184187889136e-09
93 -3.745967388293049e-09 3.0928365037300336e-10 5.06160297538771e-09
252 -1.7544480139236708e-09 2.0481540184499834e-09 4.7980210791705635e-09
254 -3.3833504941743556e-09 -1.4411542285573614e-09 1.978323401740894e-09
301 -2.8512193175291378e-09 1.899830772974903e-09 5.320547283352325e-09
302 -1.1813908497905662e-09 -5.219118704193679e-11 3.1329940684187414e-09
304 1.19750133727329e-09 -1.6125415996542295e-10 9.52357713161702e-09
26 -9.354399213474773e-10 -9.354396517465376e-10 -7.456991053619983e-16
32 -1.743652657448315e-09 1.2443514855550732e-09 3.466369214138136e-09
44 1.2443518410284302e-09 -1.7436526640338663e-09 3.4663680835186952e-09
45 -1.0085396204898178e-08 -1.0085391669960254e-08 -2.0003612421712113e-15
76 2.3634198368901307e-09 2.363422084727866e-09 4.008583848271476e-09
82 -1.0008432509340526e-09 -3.698764116547661e-09 1.1097375930303408e-08
94 -3.698767537851536e-09 -1.0008441998054175e-09 1.1097376148537498e-08
95 -1.5210947984152984e-09 -1.5210973622391927e-09 -6.220436784525949e-10
30 -3.680386364574951e-09 -5.5757371492788254e-09 2.2689633400827037e-16
46 -3.941912176424586e-09 -6.408814551863116e-09 8.229693451477163e-10
80 -1.2473387081774275e-09 -2.802867416675018e-10 1.276427041907253e-09
96 -3.195562186279658e-09 4.612000506875907e-09 3.0686430968329376e-09
253 -5.5757364907051205e-09 -3.6803904680236184e-09 -7.016605688962692e-16
256 -6.4088143647139525e-09 -3.941912097160649e-09 8.229674033080787e-10
303 -2.80286785800314e-10 -1.2473383449641547e-09 1.2764282995347589e-09
306 4.612001678176796e-09 -3.195558168868788e-09 3.068643474304771e-09
255 -1.3879634626730703e-09 -1.3879627099165971e-09 -2.8018527836472185e-16
305 -4.603044433510519e-09 -4.603044280863845e-09 -1.9510190656714932e-09
34 -9.446615353517034e-09 3.721852271164509e-09 -7.884654330317338e-16
36 -5.333862358370071e-09 3.109222978425835e-10 -5.386180623020605e-09
47 -5.88560748134108e-10 -8.630261118222234e-09 -1.625433826410726e-16
48 -2.8118301664002638e-09 2.811832331891666e-09 -4.518596672965536e-09
84 -5.657365161687862e-09 3.972550335313024e-09 -1.0139978828881891e-08
86 1.7395136055017985e-09 3.476289238251712e-09 4.273970349711023e-09
97 -3.8046812313918065e-10 -1.973144485995175e-09 -9.749077969011254e-10
98 -7.651013411779156e-11 7.651051410497963e-11 -3.303187534996782e-09
257 8.6302607229348e-09 5.885571291986213e-10 -1.2138286778341259e-15
258 5.314635732582026e-10 -5.314679042470916e-10 4.993138991758594e-10
307 1.9731465969395704e-09 3.804678073757721e-10 -9.749059540412031e-10
308 -1.8764646061492695e-09 1.876464653136074e-09 -1.2543646170124804e-09
100 3.831016567377278e-09 4.227257645831927e-09 5.504242509116889e-09
38 -1.3260967108442507e-10 -2.3825484021788845e-10 -1.65237471856118e-16
40 -4.158620567489918e-09 4.158623387602639e-09 7.288140366595201e-11
49 -3.7218541234835612e-09 9.44661719052573e-09 -5.753377190352514e-16
50 7.965324745826564e-10 7.728514531175268e-09 -5.872982096764801e-10
88 -2.7025540050431394e-09 1.8577359052836347e-09 -3.901042372377116e-09
90 -1.3816943009969151e-09 1.3816939851897905e-09 -2.2759917316636244e-10
99 -3.9725491544389966e-09 5.6573645213809655e-09 -1.0139980711200107e-08
259 3.2614931790015266e-09 6.499671053176968e-09 -1.6260325129029583e-15
260 -3.1091998395437033e-10 5.33385814366639e-09 -5.386180772816176e-09
309 7.094274084730006e-09 4.090029582446574e-09 -1.9023528034011307e-09
310 -3.4762906984737914e-09 -1.7395113042553053e-09 4.27397074924422e-09
101 -5.389350610347676e-10 -5.389369409103532e-10 3.1577059304226294e-09
102 5.389339786095896e-10 5.389338977869131e-10 3.1577082172553582e-09
103 3.051790313047911e-09 -3.0517860185200307e-09 -1.5820290557238833e-16
104 -3.0517892018857816e-09 3.0517899316846155e-09 4.1159696340971423e-16
105 -2.0324912567895802e-09 -2.6719115620290493e-09 2.1170850153351256e-09
108 -5.1105918371616134e-09 -3.532284394232121e-09 5.888186888964747e-16
121 -2.671910608423197e-09 -2.032489987461963e-09 2.117086618322886e-09
123 -3.53228486035497e-09 -5.110589543687207e-09 -2.11336331758006e-16
125 -6.478819202098015e-09 -6.478819636255637e-09 4.368893372995896e-09
151 -5.389352382459693e-10 -5.389356764844816e-10 -3.157702164834265e-09
152 5.389347114018561e-10 5.389325106303106e-10 -3.1577071298910166e-09
153 -2.0324944908565933e-09 -2.6719111028213084e-09 -2.1170853857526605e-09
161 -2.6719123203672216e-09 -2.032493553238711e-09 -2.117086293834807e-09
163 -6.478820267039677e-09 -6.478820962315816e-09 -4.368894934204226e-09
106 -2.535019300347854e-10 -5.128261644604672e-09 4.256354000335408e-09
107 -4.894191128323821e-09 -2.8578313692025854e-09 6.311652344359145e-16
109 -6.6257877037356744e-09 -8.856838793487253e-10 -2.5269212330949075e-09
112 -8.525885125539436e-09 1.8639052402698064e-09 6.516702467948712e-16
127 1.0311574169287018e-10 -2.7549923544526336e-09 7.711082019952173e-16
129 -4.249806237890514e-09 6.197867939024817e-10 -4.485446456700302e-10
154 -2.535025215987208e-10 -5.128260672337809e-09 -4.256357465832169e-09
155 -6.625790353409836e-09 -8.856844492982659e-10 2.5269184764429543e-09
165 -4.249806015246805e-09 6.197880884591219e-10 4.4854171051128003e-10
110 -2.306692505244043e-09 5.578429310961904e-10 -1.2601579472465487e-09
111 1.5368387522462278e-10 -4.0909784483247517e-10 -8.28133090380345e-16
131 -2.7865677199482652e-09 6.089121737331066e-09 1.8200069363862272e-16
156 -2.306691951754873e-09 5.578438985735619e-10 1.2601605838618606e-09
113 2.3066921247343434e-09 -5.578426006212468e-10 -1.260158759963462e-09
114 6.625791105861703e-09 8.856790994357714e-10 -2.5269184774906554e-09
115 8.525887902217569e-09 -1.8638992821780843e-09 -1.5351023246569554e-15
116 -1.5368313513761862e-10 4.090955506658369e-10 -5.088835183974648e-18
133 3.792749457839113e-09 8.555702061254743e-09 -5.322643776764996e-09
135 4.798595327326955e-09 9.563541187551406e-09 6.464469410120553e-16
157 2.3066927592157396e-09 -5.578426772531178e-10 1.2601618461923293e-09
158 6.625787232723754e-09 8.85682140763152e-10 2.5269185069759654e-09
167 3.792749788660549e-09 8.555701084497732e-09 5.322641554208044e-09
117 2.535002193208745e-10 5.128264811955559e-09 4.256356524697003e-09
118 2.032487179023628e-09 2.6719126717961923e-09 2.1170875971753005e-09
119 5.110591594787129e-09 3.5322831816380457e-09 2.730010404579341e-16
120 4.8941886465975915e-09 2.85782673117833e-09 -2.1561694017746702e-15
137 7.372058776062085e-10 -2.8985660353156307e-09 -1.8756813625619915e-09
139 4.113367400153227e-09 -4.113365860766552e-09 -9.81845847260991e-16
159 2.535049495428496e-10 5.128261951281828e-09 -4.2563582231705815e-09
160 2.0324980954731275e-09 2.671910543615384e-09 -2.1170846746871886e-09
169 7.372002197195136e-10 -2.898562778347635e-09 1.8756812200746062e-09
122 -5.128262626450519e-09 -2.5350209295351637e-10 4.256357022804164e-09
124 -2.8578256361807357e-09 -4.894193426758439e-09 -3.9518921173197243e-16
128 -2.754993105832245e-09 1.031149424687661e-10 -5.812099916211707e-16
141 -8.856826101333618e-10 -6.625790595990118e-09 -2.526921903623779e-09
142 1.8639037698957816e-09 -8.525885167296064e-09 2.5833322139824246e-16
143 6.197888122804455e-10 -4.249806071868191e-09 -4.48545815586457e-10
162 -5.128261213550397e-09 -2.5350228239569603e-10 -4.256357033580521e-09
171 -8.856848707735565e-10 -6.625788061899869e-09 2.526918287557366e-09
172 6.197869014321884e-10 -4.249805617695022e-09 4.485472856985566e-10
351 5.57844502049546e-10 -2.3066912347868726e-09 -1.260156063778844e-09
352 -4.090981705179269e-10 1.5368560764559626e-10 6.549630225021489e-16
354 6.089118969818566e-09 -2.786566106715015e-09 2.2312063345471935e-16
401 5.578438219416909e-10 -2.3066907724512293e-09 1.2601559123111616e-09
126 -1.5530341862234426e-09 -1.5530335282015065e-09 -5.352068678259273e-10
132 3.825159549225725e-09 4.271067308862311e-09 1.081362275570396e-15
144 4.271069350228901e-09 3.825157966845111e-09 -1.544611149959364e-16
145 6.3999573771239114e-09 6.399957899704156e-09 4.111434230693452e-10
164 -1.553031338880708e-09 -1.5530331065882373e-09 5.352062434894605e-10
173 6.3999544326607415e-09 6.399953505345303e-09 -4.111469900434659e-10
130 -1.809368284603497e-09 5.549037398108311e-09 1.3663548332228395e-10
146 4.058588030472649e-09 5.310108811677913e-09 -8.624078920606448e-16
166 -1.8093690771100638e-09 5.549036575260969e-09 -1.3663665367018598e-10
353 5.549038203921621e-09 -1.8093681338841726e-09 1.3663440718331417e-10
356 5.3101096201848e-09 4.058585634396006e-09 -1.1111621295831703e-15
402 5.54903593177542e-09 -1.8093638119663852e-09 -1.3663530311764978e-10
355 2.467584700167763e-09 2.4675857248196945e-09 -1.8436644935166996e-09
403 2.467592277593024e-09 2.4675919683714506e-09 1.8436614378208432e-09
134 1.6821718138850636e-09 3.5742180604928244e-09 -9.043386430510679e-09
136 9.454992711823064e-10 5.389748928383884e-09 3.054821212806473e-17
147 9.426893342096744e-10 8.122847416921583e-09 9.732560012340103e-10
148 -4.807448403779391e-09 4.807450983790193e-09 -5.465867356934388e-16
168 1.6821728355061447e-09 3.5742187314788956e-09 9.043386448873511e-09
174 9.42692923074478e-10 8.122848356859375e-09 -9.732572548835252e-10
357 -8.122845933376455e-09 -9.426918973471885e-10 9.732573485779611e-10
358 3.4642533358763408e-09 -3.4642518264698334e-09 4.856500391225416e-15
404 -8.122848269786775e-09 -9.426885285382966e-10 -9.732568796567661e-10
138 2.8985636225460706e-09 -7.372032831982944e-10 -1.875680809076329e-09
140 -4.2968746506323036e-09 4.29687658498836e-09 4.1548842560922427e-16
149 -3.574219270187993e-09 -1.6821709734952705e-09 -9.043383185330916e-09
150 -9.563542900947496e-09 -4.798593552474077e-09 7.184237906787738e-18
170 2.8985629831488967e-09 -7.372022726154955e-10 1.8756804012211564e-09
175 -3.574219355201475e-09 -1.6821743252415973e-09 9.043385226851855e-09
359 -8.55570423607697e-09 -3.792747315501343e-09 -5.3226389206364455e-09
360 -5.389749082007773e-09 -9.45503483725498e-10 -2.0425686398735892e-15
405 -8.555696721064778e-09 -3.7927489157903376e-09 5.322643545489598e-09
176 -8.394105717819848e-10 8.394059603992783e-10 1.5271760023604322e-08
177 8.394060361331196e-10 -8.394095646416332e-10 1.527175977784352e-08
179 -5.844467128014199e-09 -1.5598053565485705e-09 6.6122818051898184e-09
186 -1.559804735496534e-09 -5.844466545688686e-09 6.612281770518621e-09
201 1.592435472226785e-09 1.5924343275382118e-09 -2.0309065565818175e-09
202 -1.5924337575886712e-09 -1.5924359826070194e-09 -2.030904555172874e-09
203 -2.105822712736144e-09 2.105822620538424e-09 8.721645136123854e-09
204 2.105822913894805e-09 -2.105823065362488e-09 8.721646779218932e-09
205 1.1622737493145397e-09 3.1145759513914164e-09 1.4259191825486384e-09
208 5.344866878482921e-09 -4.423363810845281e-09 3.4858354411374143e-09
221 3.1145751929117573e-09 1.1622776877362109e-09 1.4259189833118835e-09
223 -4.423362349417644e-09 5.344867210753924e-09 3.4858353240310623e-09
225 -5.469206334428872e-09 -5.469205530700441e-09 -2.335075888673782e-10
178 2.7385201703759564e-09 -2.803332145153762e-09 -1.461312612703613e-09
181 -2.0866260374193737e-11 -3.1987202345515893e-09 -7.53218247310135e-09
188 4.360689446116809e-09 -4.609165639488228e-09 -8.181693803395752e-09
206 -3.064010162482716e-10 -7.475542661215071e-10 2.337841147120136e-10
207 -8.176034639354169e-10 3.049129865224237e-09 7.191809652908235e-09
209 6.704056280899022e-09 -7.240518508125724e-10 -1.4627866905025199e-09
212 -7.74784172875814e-10 1.3754073034603358e-09 -5.390318243377612e-10
227 -5.689089666716332e-10 -5.337946857426452e-09 1.2661923976024132e-09
229 3.0928626557845814e-10 -3.745969841205152e-09 -5.0616031015877824e-09
180 -5.2185742755357e-11 -1.1813894584431583e-09 -3.132996759514524e-09
190 -1.612553225595077e-10 1.1974985305748873e-09 -9.523573373925003e-09
210 1.8998302340928943e-09 -2.85121650609737e-09 -5.320549041993896e-09
211 2.0481505813200883e-09 -1.754449472323966e-09 -4.798020432888495e-09
231 -1.4411546394496878e-09 -3.3833507058661574e-09 -1.9783251411017198e-09
182 2.0864511511558614e-11 3.198723545361558e-09 -7.532183355404086e-09
183 5.218685132892756e-11 1.1813883664389965e-09 -3.1329973664329556e-09
192 -4.227253899716714e-09 -3.831016592971126e-09 -5.504244835390429e-09
213 -1.8998333593426447e-09 2.851218675737218e-09 -5.320550572984928e-09
214 -6.704055326770489e-09 7.240525676527141e-10 -1.4627884224627854e-09
215 7.747840092917459e-10 -1.375405546942231e-09 -5.390261424054006e-10
216 -2.0481524716969505e-09 1.7544499129572241e-09 -4.798020017998756e-09
233 -4.090030588645398e-09 -7.094275830960526e-09 1.9023534312350025e-09
235 -7.72851622202789e-09 -7.965350661374551e-10 5.872998470618195e-10
184 5.844469979155719e-09 1.5598040218622353e-09 6.612280036423196e-09
185 -2.738521652050189e-09 2.8033336990445526e-09 -1.4613111357268624e-09
194 -1.2040703234769428e-09 1.20406957614782e-09 5.957315085243158e-09
217 3.064016841257335e-10 7.475603308156734e-10 2.3378463766466454e-10
218 -1.1622780253953926e-09 -3.114574648406393e-09 1.4259190767069762e-09
219 -5.344869614480191e-09 4.423362756524458e-09 3.4858355952360434e-09
220 8.176072610670759e-10 -3.049131832807394e-09 7.191806883683865e-09
237 -1.8577355340980097e-09 2.7025517482504118e-09 3.901041289652595e-09
239 -1.8303326031027578e-09 1.8303311488277868e-09 1.0627912845272569e-08
187 -2.803330392199713e-09 2.738519353767581e-09 -1.4613124139396977e-09
189 -4.609167320599897e-09 4.360690460349023e-09 -8.181694188949853e-09
196 -3.198718112806661e-09 -2.0870413774596002e-11 -7.532183464675852e-09
222 -7.475558945487659e-10 -3.0640102437321905e-10 2.337843622688781e-10
224 3.0491300783566284e-09 -8.176030056034892e-10 7.19180760061094e-09
228 -5.337948458763147e-09 -5.689105777953031e-10 1.2661926272980744e-09
241 -7.240523920251614e-10 6.7040551808500105e-09 -1.4627869524278602e-09
242 1.3754073178288117e-09 -7.747872957274568e-10 -5.390304545430669e-10
243 -3.745969033446112e-09 3.0928366394486876e-10 -5.06160409121602e-09
426 -1.1813968315666534e-09 -5.218645981339412e-11 -3.1329974803330607e-09
427 1.1975003290337874e-09 -1.6125544019217458e-10 -9.523577981970501e-09
451 -2.851217521469661e-09 1.8998346084599155e-09 -5.320548783960018e-09
452 -1.7544500593360715e-09 2.0481554050078994e-09 -4.798020634047157e-09
454 -3.3833517307051785e-09 -1.4411533580788947e-09 -1.9783212333229745e-09
191 -1.000843454740078e-09 -3.6987656626157706e-09 -1.1097374559324204e-08
197 -3.698767301435853e-09 -1.0008434692582254e-09 -1.10973745018503e-08
226 2.3634218249425654e-09 2.3634204544250344e-09 -4.008582735924835e-09
232 -1.7436556529937184e-09 1.2443516120381915e-09 -3.4663671368269707e-09
244 1.244354686917028e-09 -1.7436536357020433e-09 -3.4663663943247576e-09
245 -1.521094630685007e-09 -1.5210945906820503e-09 6.220425508452957e-10
198 -3.195561849593342e-09 4.611997879240892e-09 -3.0686382848902563e-09
230 -1.2473377944328957e-09 -2.8028640742759527e-10 -1.27642905248943e-09
246 -3.94191233821375e-09 -6.408811532387792e-09 -8.229693729866382e-10
428 4.611998340699986e-09 -3.195557798281849e-09 -3.0686381953866257e-09
453 -2.802839899303703e-10 -1.2473378073109441e-09 -1.276429916528509e-09
456 -6.40881449526963e-09 -3.941917369044228e-09 -8.229652071763536e-10
455 -4.603044269179226e-09 -4.6030451301170044e-09 1.9510184593798117e-09
193 1.7395132383120185e-09 3.476292644354563e-09 -4.273968943156744e-09
199 -7.650970543487693e-11 7.650816217077158e-11 3.3031866306925286e-09
234 -5.657365698964555e-09 3.972551282226917e-09 1.0139977698821762e-08
236 -5.3338622432385975e-09 3.109228943309565e-10 5.3861802267579674e-09
247 -3.8046851386330565e-10 -1.9731472729471146e-09 9.749097463459524e-10
248 -2.811831113491335e-09 2.8118325800472172e-09 4.518598819555954e-09
429 -1.8764651887109525e-09 1.8764673267810805e-09 1.2543618700938596e-09
457 1.9731473928972275e-09 3.8046963856921213e-10 9.749051780791972e-10
458 5.314642261201585e-10 -5.314681070521409e-10 -4.993146030815026e-10
195 -1.3816963687103876e-09 1.3816951939378183e-09 2.275985939371812e-10
200 3.831016661969744e-09 4.227260964650497e-09 -5.50424442356662e-09
238 -2.7025527406172676e-09 1.8577363195746875e-09 3.901042706444179e-09
240 -4.158621359552147e-09 4.1586215077270534e-09 -7.287882392585699e-11
249 -3.972549899204993e-09 5.657362548110287e-09 1.01399775007454e-08
250 7.965372595844455e-10 7.728514085153832e-09 5.873008608099393e-10
430 -3.476290656134535e-09 -1.7395116388076315e-09 -4.273967535724314e-09
459 7.0942755242927244e-09 4.090030131914488e-09 1.9023472711216683e-09
460 -3.1092196770206236e-10 5.333859271446797e-09 5.386185568294978e-09
251 2.7752599462706345e-09 1.990745671366581e-09 -7.547939950818869e-16
262 -1.691959203688201e-09 -6.428200470993184e-09 3.2942724235082947e-16
263 1.7544512109095394e-09 -2.0481525160462312e-09 4.7980199778867614e-09
264 -1.3754053397686413e-09 7.747848842182661e-10 5.390321081151585e-10
265 -3.2614979637039725e-09 -6.499669653526293e-09 -1.1547318099028305e-15
268 -7.965368665467633e-10 -7.728515431899096e-09 -5.873005936460922e-10
311 2.8512188433694357e-09 -1.8998331338950853e-09 5.320547829653749e-09
312 7.240519753393627e-10 -6.704060415166013e-09 1.4627869079753881e-09
313 1.1813954596765564e-09 5.2189255080626353e-11 3.1329944174529663e-09
314 3.1987220018741143e-09 2.0869717801548783e-11 7.532185324196097e-09
315 -7.0942774077604295e-09 -4.0900286393574915e-09 -1.9023503322057033e-09
318 -3.831013911809797e-09 -4.227260779263483e-09 5.504240690094511e-09
266 3.7218517473763862e-09 -9.446615841959852e-09 -9.290340202047543e-16
267 3.109230989248666e-10 -5.333862250307159e-09 -5.386182715129383e-09
269 -8.630259295081548e-09 -5.885595042680487e-10 2.6581680255114637e-16
272 2.811834692243564e-09 -2.8118345158999896e-09 -4.518597674268695e-09
316 3.972551025452239e-09 -5.657359558569288e-09 -1.0139975020387263e-08
317 3.4762890481570576e-09 1.7395127759763748e-09 4.273970593136717e-09
319 -1.9731423124085752e-09 -3.8046841490458317e-10 -9.749081652149264e-10
322 7.650534594658884e-11 -7.650467646834217e-11 -3.3031872712870753e-09
270 5.885551885974438e-10 8.630260631639788e-09 -5.483886417179114e-16
271 -5.314696871237723e-10 5.314649623016687e-10 4.993158041962776e-10
320 3.804684858372394e-10 1.973141821906603e-09 -9.749072941260801e-10
321 1.8764619523116358e-09 -1.876466544985389e-09 -1.254366810150773e-09
273 1.3879656534522809e-09 1.3879609689362776e-09 2.011586613900567e-16
274 1.0085392530066945e-08 1.0085389709514551e-08 9.193497594673575e-16
275 6.408811997387123e-09 3.9419210399442435e-09 8.229692652315682e-10
276 3.941919954124341e-09 6.408812648339414e-09 8.229702042628326e-10
323 4.6030459678103696e-09 4.603047402730929e-09 -1.951018950302735e-09
324 1.5210944242372662e-09 1.5210903525803718e-09 -6.22045919055501e-10
325 -4.612000021387934e-09 3.1955589915797896e-09 3.0686417668345246e-09
326 3.195559052440927e-09 -4.612000028824742e-09 3.0686397221880216e-09
261 -2.7752589069508837e-09 -1.9907429916458417e-09 -2.891655757482065e-15
277 5.575739456106747e-09 3.6803884306934853e-09 8.770757111203364e-17
278 5.4925685607568715e-09 1.5714936707755117e-09 -5.364230970401512e-16
279 3.3833472125678934e-09 1.4411555952498773e-09 1.978323628013986e-09
280 -1.244350670636935e-09 1.7436499726387406e-09 3.46636913241743e-09
327 2.8028732073553223e-10 1.247339725203122e-09 1.276427536899374e-09
328 3.745965403553783e-09 -3.092853076058925e-10 5.061602685553289e-09
329 -1.1975031963819377e-09 1.6125572533883337e-10 9.523577488368688e-09
330 3.6987685942338518e-09 1.000844542254091e-09 1.109737457084892e-08
281 -7.202607188901766e-10 -1.6557840417652736e-09 -1.1704320923141693e-16
282 2.4434312598464008e-09 -4.583407004124414e-09 -1.5591292973959974e-15
283 -3.0491324563393755e-09 8.176037003791633e-10 -7.191807986763727e-09
284 4.423365302139423e-09 -5.3448692576630415e-09 -3.485839539382654e-09
285 1.3261084959878502e-10 2.382542750578398e-10 -1.6479898077294004e-16
288 1.8303331681879706e-09 -1.8303313930018389e-09 -1.0627913526886495e-08
331 7.475561747340443e-10 3.064028368965743e-10 -2.3378596644933406e-10
332 -3.114575844282661e-09 -1.1622739097251016e-09 -1.4259147044995235e-09
333 2.8033291205896035e-09 -2.7385161626937414e-09 1.4613153466054797e-09
334 1.5598073242169263e-09 5.8444712148446384e-09 -6.612281337368943e-09
335 2.7025569448370328e-09 -1.8577356422412019e-09 -3.901042376399541e-09
338 1.2040680254796464e-09 -1.2040693989190786e-09 -5.9573157014295366e-09
341 -1.739512408820463e-09 -3.4762899779639525e-09 4.2739707843410455e-09
340 4.0900296723235005e-09 7.09427525262002e-09 -1.9023495463408148e-09
291 5.333858552570744e-09 -3.1092061134975075e-10 -5.3861819242749116e-09
286 -2.382554386985822e-10 -1.326065698883953e-10 7.902661697466513e-16
287 4.158620948815e-09 -4.1586229459684515e-09 7.288160635991685e-11
289 9.446616911446385e-09 -3.72185375811642e-09 4.668795805576815e-16
292 7.728515271187144e-09 7.965336453140919e-10 -5.872998208915023e-10
336 1.8577349559295138e-09 -2.702553358761071e-09 -3.901044095326682e-09
337 1.381697605905086e-09 -1.3817026447783036e-09 -2.276009384449344e-10
339 5.657361507343475e-09 -3.972549585343599e-09 -1.0139976992537743e-08
342 4.2272643990155594e-09 3.831017391169892e-09 5.504243237119664e-09
290 6.499667382245966e-09 3.2614978200192143e-09 -8.54924310907741e-16
346 1.6125468512105312e-10 -1.197502252852026e-09 9.523577533868861e-09
345 1.000845540807033e-09 3.698769615556759e-09 1.10973783602035e-08
344 -3.0928439513270296e-10 3.745966380021975e-09 5.061600819288467e-09
343 1.247338890113809e-09 2.802880176066092e-10 1.276428745953761e-09
296 1.4411571774901395e-09 3.383350856473228e-09 1.978323378661062e-09
295 1.7436505851043766e-09 -1.2443497316965631e-09 3.4663688730249594e-09
294 1.571493567612007e-09 5.492569481701973e-09 -7.419713465002081e-16
293 3.680389074277001e-09 5.5757393720006495e-09 -1.3344745298049328e-15
13 -1.9907414657097345e-09 -2.7752591128990374e-09 -2.1073764526577368e-16
350 -4.360689226959989e-09 4.609161220919989e-09 8.181693601664129e-09
349 4.609161316111142e-09 -4.360690676379987e-09 8.181693354855622e-09
348 5.469203177302427e-09 5.4692068089346894e-09 2.3351071883781404e-10
347 -2.363419355924189e-09 -2.3634197284568585e-09 4.008586818130656e-09
300 5.689067035715035e-10 5.337950676709512e-09 -1.266193191724966e-09
299 5.3379499552922885e-09 5.689089061391084e-10 -1.266194067640722e-09
298 -6.806278661209226e-09 -6.806278313971062e-09 -1.506295214456496e-15
297 9.354430737403052e-10 9.35440257818389e-10 4.87929491169334e-16
361 -5.578446193920986e-10 2.306693710056175e-09 -1.2601551415023029e-09
362 8.856795735954732e-10 6.625787644765055e-09 -2.526916594771309e-09
363 4.090956608241515e-10 -1.5368790540435345e-10 -2.0338876857362206e-15
364 -1.8639000269078323e-09 8.525887225879568e-09 -2.6114704791173433e-15
365 8.555700533547131e-09 3.792749562224416e-09 -5.322643884526226e-09
368 9.563541995265796e-09 4.798597166868378e-09 4.764936437200527e-17
406 -5.578433094660535e-10 2.306687909981438e-09 1.260161315157411e-09
407 8.856817911302405e-10 6.625793068265988e-09 2.5269233500503443e-09
408 8.555702659772855e-09 3.7927487349285515e-09 5.3226441544683525e-09
366 3.5742192323070404e-09 1.682172585757994e-09 -9.043388227318882e-09
367 5.389749507514843e-09 9.454994801592528e-10 6.082654761080286e-16
369 8.122847619876303e-09 9.4268819686598e-10 9.732572129754706e-10
372 4.807452979544929e-09 -4.807449467350622e-09 3.3607266241460812e-15
409 3.574220258674203e-09 1.6821719343870904e-09 9.043385431901978e-09
410 8.122846433209517e-09 9.426900168729163e-10 -9.732573993166415e-10
370 -9.426918132317363e-10 -8.122845854050494e-09 9.732581801534988e-10
371 -3.4642521005507312e-09 3.46425306812574e-09 3.3915589784960454e-16
411 -9.426937118464575e-10 -8.122845236206034e-09 -9.732570106194364e-10
373 -2.4675843616128904e-09 -2.467585127480247e-09 -1.8436609415097412e-09
374 -6.399957659032186e-09 -6.399956935220217e-09 4.111444728661093e-10
375 -5.310113632268808e-09 -4.058587444663763e-09 8.077707337871156e-17
376 -4.0585828635733e-09 -5.310112364882244e-09 -1.2185713973897787e-15
412 -2.4675894832974876e-09 -2.4675919429272744e-09 1.8436620392014248e-09
413 -6.399955927435137e-09 -6.399956556850354e-09 -4.111475378416063e-10
377 -5.549034801604994e-09 1.8093652444734893e-09 1.3663214744114925e-10
378 -6.197866202179177e-10 4.2498031818673714e-09 -4.4854601293667716e-10
379 -6.08911925329662e-09 2.786562785637339e-09 -4.722439050728474e-15
380 -4.271067532700901e-09 -3.825158445794304e-09 1.2811890933771468e-15
414 -5.5490363492095766e-09 1.8093696831351429e-09 -1.3663340168935047e-10
415 -6.197906694340078e-10 4.249804569772332e-09 4.4854922144726064e-10
381 5.128263074268015e-09 2.535031054387819e-10 4.256356549243149e-09
382 2.6719112571000114e-09 2.032492099627908e-09 2.117081685445533e-09
383 2.8578315655717548e-09 4.894188201773528e-09 -1.5170704020071224e-15
384 3.532280791681569e-09 5.110591942025294e-09 -2.161258236958645e-15
385 -2.898563731684747e-09 7.37206776010457e-10 -1.8756765500124383e-09
388 -4.113362799855575e-09 4.113363119141395e-09 -1.5422140653713244e-15
416 5.128261922395204e-09 2.534989827339248e-10 -4.2563526585293076e-09
417 2.6719123826306167e-09 2.032495015231125e-09 -2.117080099225672e-09
418 -2.89856702606007e-09 7.37202357476805e-10 1.8756774649386998e-09
421 -3.792749060059019e-09 -8.555700311836686e-09 5.322642921209258e-09
391 -9.455036946473825e-10 -5.389749643585057e-09 -4.452149105735594e-16
390 -3.792749639452635e-09 -8.555698544514161e-09 -5.322643718809337e-09
386 -7.37204407045094e-10 2.8985653451167802e-09 -1.875677712071105e-09
387 4.2968716492484485e-09 -4.2968741786054226e-09 -5.496924218718939e-16
389 -1.6821698916071711e-09 -3.5742200830078053e-09 -9.0433870637787e-09
392 -4.798594678603369e-09 -9.563540783992058e-09 3.807646090597502e-16
419 -7.372022124311327e-10 2.898565754318998e-09 1.875678823083563e-09
420 -1.6821692752526799e-09 -3.5742202583200483e-09 9.043385906180951e-09
423 4.249804571846523e-09 -6.197916571170484e-10 4.4854743391906645e-10
422 1.8093664920297521e-09 -5.54903416954173e-09 -1.3663386060593296e-10
396 2.7865661406337618e-09 -6.08912356623411e-09 -7.998451536223683e-16
395 -3.825158940103549e-09 -4.271069120763594e-09 5.781300302529287e-17
394 4.2498049283855405e-09 -6.197909794039392e-10 -4.485461937399978e-10
393 1.8093666753339292e-09 -5.549034105164223e-09 1.366356009910738e-10
425 6.478820679834013e-09 6.478820966754515e-09 -4.368891759645715e-09
424 1.5530333679593248e-09 1.5530372073357995e-09 5.352057288248757e-10
400 -1.031131251938975e-10 2.754988310287961e-09 -1.5386242850370407e-16
399 2.754989372357798e-09 -1.0311026107771867e-10 -7.663187100573589e-16
398 6.478821763157221e-09 6.478820497084961e-09 4.368893660175984e-09
397 1.5530315904591295e-09 1.5530375258370134e-09 -5.352070216883557e-10
431 1.1813946837788625e-09 5.218879948020576e-11 -3.132995860886099e-09
432 3.1987226697088965e-09 2.0872129310739495e-11 -7.532188786998769e-09
434 -3.831019356044928e-09 -4.227263434521097e-09 -5.504245314677554e-09
461 2.8512184793680488e-09 -1.8998343659918863e-09 -5.320543419130361e-09
462 7.240519130759676e-10 -6.704059194144911e-09 -1.4627886386283656e-09
463 1.754449917746716e-09 -2.0481534625695753e-09 -4.7980179095746025e-09
464 -1.3754090432432823e-09 7.74783191132866e-10 -5.390311071113435e-10
465 -7.094277196751504e-09 -4.090028649553871e-09 1.902350982706862e-09
468 -7.965339692876745e-10 -7.728515908150692e-09 5.873004406337517e-10
433 3.4762917100130853e-09 1.7395118228674793e-09 -4.273970071082095e-09
436 7.65067551078432e-11 -7.650839790357789e-11 3.3031852680820724e-09
466 3.972550905915039e-09 -5.657359620832683e-09 1.0139977948562897e-08
467 3.109218899008818e-10 -5.3338615156578496e-09 5.386183903647187e-09
469 -1.973145962678462e-09 -3.804689106169987e-10 9.749068283479892e-10
472 2.811832134282444e-09 -2.8118317763106014e-09 4.518598780341989e-09
435 1.8764671226921294e-09 -1.8764660540624654e-09 1.2543665854936668e-09
470 3.8047446456880984e-10 1.9731405957966667e-09 9.749095625491992e-10
471 -5.314669549442986e-10 5.314696009246106e-10 -4.9931669983127e-10
437 -4.611998762389997e-09 3.1955565482396544e-09 -3.068642807652043e-09
438 3.1955576691152383e-09 -4.611999731876242e-09 -3.068638269025064e-09
473 4.603040157756745e-09 4.603047553599925e-09 1.951018634645282e-09
474 1.521096759512736e-09 1.521095492202906e-09 6.22046857328197e-10
475 6.408814041985684e-09 3.941916420483946e-09 -8.229690100421524e-10
476 3.941913929263215e-09 6.4088133571842205e-09 -8.229709836029739e-10
439 -1.1975015104807757e-09 1.6125403225343334e-10 -9.523578564807001e-09
440 3.698770548346562e-09 1.000843340690301e-09 -1.1097374790385482e-08
477 2.8028320880703197e-10 1.2473399098979048e-09 -1.2764290002388327e-09
478 3.745966026786421e-09 -3.0928389350839785e-10 -5.061602604580941e-09
479 3.383352476219533e-09 1.4411559951724542e-09 -1.978320630091376e-09
480 -1.244351455514926e-09 1.7436513843414893e-09 -3.4663717992664095e-09
441 2.8033294366960715e-09 -2.7385213365424073e-09 -1.4613160651789421e-09
442 1.559805815526966e-09 5.8444729175090225e-09 6.61227973707995e-09
444 1.2040700209859154e-09 -1.2040698666733027e-09 5.95731430543997e-09
481 7.475548648079993e-10 3.063997056913841e-10 2.3378513876525854e-10
482 -3.114575384491435e-09 -1.162273473581992e-09 1.4259196873671983e-09
483 -3.0491307177538023e-09 8.17608622180816e-10 7.1918086486116445e-09
484 4.4233650268184725e-09 -5.344868443449412e-09 3.485840462557225e-09
485 2.7025567398710994e-09 -1.857734823834392e-09 3.901043698188834e-09
488 1.830329552996201e-09 -1.8303320526771788e-09 1.0627913187392667e-08
491 5.333863863999275e-09 -3.1092132257994907e-10 5.386180275922757e-09
490 4.090030488966669e-09 7.0942743987621196e-09 1.902353401671349e-09
445 -1.7395118675076072e-09 -3.4762902949778046e-09 -4.273974310955278e-09
443 1.381700203457623e-09 -1.3816951768939622e-09 2.2760480704362417e-10
446 4.227256402983563e-09 3.831014886182587e-09 -5.5042445760656334e-09
486 1.8577370881174243e-09 -2.702554321149607e-09 3.901037857083592e-09
487 4.158621229392455e-09 -4.1586259617955295e-09 -7.288259758011882e-11
489 5.657358963353672e-09 -3.9725493275529375e-09 1.0139977250749345e-08
492 7.728515717339251e-09 7.965389125578505e-10 5.873007184722258e-10
496 1.441156263519277e-09 3.3833459652045866e-09 -1.9783218867343234e-09
495 1.743650722580101e-09 -1.244350382985615e-09 -3.466368741421349e-09
494 -3.09286011123325e-10 3.745965169786144e-09 -5.0616047933553705e-09
493 1.2473392872505822e-09 2.8028705022278255e-10 -1.2764281597028759e-09
448 1.6125708201365993e-10 -1.197502164256949e-09 -9.523578284628739e-09
447 1.0008409865240509e-09 3.6987702195390542e-09 -1.109737465429272e-08
500 5.68910824929316e-10 5.33794929613846e-09 1.2661973968988873e-09
499 5.337949327868845e-09 5.689093467723667e-10 1.2661928343091301e-09
498 5.469207344459757e-09 5.469206212942287e-09 -2.33508891945983e-10
497 -2.3634203470496765e-09 -2.3634216319805604e-09 -4.008584443440685e-09
450 -4.360688818955144e-09 4.609160864402183e-09 -8.181695860504236e-09
449 4.609162657168884e-09 -4.360690662011511e-09 -8.181694640235521e-09
