LAMMPS data file via write_data, version 29 Aug 2024, timestep = 27, units = metal

500 atoms
3 atom types

0 17.5504411127613 xlo xhi
0 17.5504411127613 ylo yhi
0 17.5504411127613 zlo zhi

Masses

1 55.7628
2 58.71
3 58.71

Atoms # atomic

1 2 0.002511913995644363 0.0025119139956488318 3.610344757502332e-16 0 0 0
2 3 1.7525321972804822 1.7525321972804881 4.030170693352247e-17 0 0 0
3 1 1.7510784799827377 0.003965631293389723 1.746876659939612 0 0 0
4 1 0.00396563129339288 1.7510784799827392 1.74687665993961 0 0 0
5 1 3.5046361984504264 0.0039052331468465602 4.457462406320982e-16 0 0 0
8 1 3.5053968150613986 1.754496665557625 1.7506270779081188 0 0 0
21 1 0.0039052331468498363 3.5046361984504224 5.423818639756657e-19 0 0 0
23 1 1.7544966655576237 3.505396815061396 1.7506270779081172 0 0 0
25 1 3.5060159786305363 3.506015978630536 6.946392201311661e-16 0 0 0
51 1 0.0006298512812383955 0.0006298512812365794 3.5072675614835376 0 0 0
52 1 1.754414259994893 1.754414259994894 3.5072675614835385 0 0 0
53 1 1.7547039093749444 0.0003402019011867483 5.264445988027773 0 0 0
54 1 0.0003402019011853101 1.754703909374945 5.2644459880277745 0 0 0
55 1 3.508931313456081 0.0006145442051933565 3.5085470029564 0 0 0
58 1 3.5093968028748397 1.7548781025094404 5.264421537574121 0 0 0
71 1 0.000614544205193751 3.5089313134560824 3.508547002956401 0 0 0
73 1 1.75487810250944 3.5093968028748384 5.264421537574122 0 0 0
75 1 3.509102625995084 3.509102625995082 3.5087555358020004 0 0 0
6 1 5.263064067795705 1.7547801833365058 9.089900355286039e-16 0 0 0
7 1 5.263929444770858 0.0006076875993532104 1.7541179847001456 0 0 0
9 1 7.019889143524491 0.00034231752828876036 1.7478784359487247e-16 0 0 0
12 1 7.01978290048327 1.7549743456440923 1.7546298907162907 0 0 0
27 1 5.263935805346666 3.509208673393176 1.754332080862569 0 0 0
29 1 7.019723469139847 3.5096275900805414 1.4121190975187246e-16 0 0 0
56 1 5.26431770608431 1.7548922176798207 3.5092562105361633 0 0 0
57 1 5.264504705158792 0.00016077366003121543 5.2644970310509915 0 0 0
59 1 7.019695728678509 0.00015807581831193626 3.509586946547439 0 0 0
62 1 7.019780471781693 1.7549698434910845 5.264713212023207 0 0 0
77 1 5.264574257717941 3.5097535111145097 5.264572794638535 0 0 0
79 1 7.0197259578812 3.5098056725712268 3.509635496334393 0 0 0
11 1 8.775132527687221 8.749363152935873e-05 1.7549314907529152 0 0 0
31 1 8.775138349990293 3.5099202654976627 1.7549060439644446 0 0 0
60 1 8.77507189859842 1.754989037270785 3.5098368055718416 0 0 0
61 1 8.775080334731173 7.179698869275146e-05 5.264846521709314 0 0 0
81 1 8.7750880081205 3.5099201238505167 5.264870738158966 0 0 0
10 1 8.775250725055733 1.755027232612351 2.654254010773049e-16 0 0 0
13 1 10.530234498981697 1.687866378046198e-05 0 0 0 0
14 1 12.285596080512938 1.7547017937478415 5.560993442122094e-19 0 0 0
15 1 12.28570232355416 6.976563204030306e-05 1.7546298907162903 0 0 0
16 1 10.530352696350208 1.7549566176445996 1.7549314907529163 0 0 0
33 1 10.530418598366458 3.509904204310392 3.8431045991649615e-19 0 0 0
35 1 12.285724629263862 3.5096675099761767 1.7548008812183116 0 0 0
63 1 10.53041332543901 5.5074005345235385e-05 3.509836805571841 0 0 0
64 1 12.28578949535892 1.7548860354578182 3.5095869465474374 0 0 0
65 1 12.285704752255738 7.426778504580434e-05 5.264713212023207 0 0 0
66 1 10.530404889306254 1.7549723142874407 5.264846521709315 0 0 0
83 1 10.530400183297994 3.5098958736651045 3.509865676565842 0 0 0
85 1 12.285685309444144 3.509831455751458 5.264737730570164 0 0 0
17 1 14.042421156241724 0.0002639279396257305 6.897584523608631e-19 0 0 0
18 1 15.800849025587006 1.7511388781292812 1.3038775966299345e-18 0 0 0
19 1 15.80008840897603 0.000547445718506131 1.750627077908118 0 0 0
20 1 14.04155577926657 1.7544364236767762 1.754117984700147 0 0 0
37 1 14.04113669293258 3.5092776697126555 1.1450654495444646e-17 0 0 0
39 1 15.79695925387736 3.508525970160068 1.7537779381689091 0 0 0
67 1 14.04116751795312 0.0001518935963122232 3.509256210536164 0 0 0
68 1 15.796553910581345 1.7544295670709367 3.508547002956401 0 0 0
69 1 15.796088421162588 0.0001660087666913515 5.264421537574121 0 0 0
70 1 14.040980518878639 1.7548833376160982 5.264497031050989 0 0 0
87 1 14.041118918313597 3.5095096430928048 3.5093131877005197 0 0 0
89 1 15.795919352033726 3.5095658720037037 5.264406319841831 0 0 0
22 1 1.7547801833365053 5.263064067795706 3.898082843899729e-16 0 0 0
24 1 0.0006076875993540525 5.2639294447708584 1.7541179847001462 0 0 0
28 1 3.5092086733931773 5.263935805346667 1.7543320808625689 0 0 0
41 1 0.00034231752828804934 7.019889143524488 3.8008294607943e-17 0 0 0
42 1 1.754974345644093 7.0197829004832695 1.7546298907162907 0 0 0
43 1 3.5096275900805414 7.019723469139846 2.014023206249913e-19 0 0 0
72 1 1.7548922176798192 5.26431770608431 3.509256210536164 0 0 0
74 1 0.00016077366003212527 5.264504705158792 5.26449703105099 0 0 0
78 1 3.5097535111145093 5.264574257717942 5.264572794638536 0 0 0
91 1 0.00015807581831182 7.019695728678508 3.509586946547439 0 0 0
92 1 1.7549698434910856 7.019780471781691 5.264713212023207 0 0 0
93 1 3.5098056725712268 7.019725957881201 3.5096354963343925 0 0 0
252 1 8.749363152835755e-05 8.775132527687223 1.7549314907529159 0 0 0
254 1 3.5099202654976627 8.775138349990293 1.754906043964444 0 0 0
301 1 1.7549890372707868 8.77507189859842 3.5098368055718416 0 0 0
302 1 7.179698869052152e-05 8.775080334731173 5.264846521709316 0 0 0
304 1 3.5099201238505167 8.775088008120502 5.264870738158965 0 0 0
26 1 5.264470720620727 5.264470720620727 0 0 0 0
32 1 7.019734064358281 5.264661746498036 1.7548379733177877 0 0 0
44 1 5.264661746498036 7.019734064358281 1.754837973317788 0 0 0
45 1 7.019853011030738 7.019853011030738 1.455108785425881e-16 0 0 0
76 1 5.264532084568812 5.264532084568812 3.509535544320293 0 0 0
82 1 7.019864850711068 5.264839925316482 5.264812861010608 0 0 0
94 1 5.264839925316482 7.019864850711068 5.264812861010607 0 0 0
95 1 7.019880066970676 7.019880066970677 3.50984212722966 0 0 0
30 1 8.775078014258954 5.264859118377384 7.704382705203416e-19 0 0 0
46 1 8.775095664060128 7.019940106530219 1.754936641279017 0 0 0
80 1 8.775096787357288 5.264892786116819 3.5098766023387546 0 0 0
96 1 8.77512915922175 7.01999320586382 5.264946600412413 0 0 0
253 1 5.264859118377384 8.775078014258954 2.0076563086077988e-16 0 0 0
256 1 7.019940106530218 8.775095664060126 1.7549366412790162 0 0 0
303 1 5.264892786116818 8.775096787357288 3.509876602338755 0 0 0
306 1 7.01999320586382 8.77512915922175 5.264946600412414 0 0 0
255 1 8.775127729725892 8.775127729725892 1.2388561578513573e-15 0 0 0
305 1 8.775134051068614 8.775134051068614 3.509933565475069 0 0 0
34 1 12.285712232542839 5.264722098881513 6.653351142268798e-17 0 0 0
36 1 10.530404089625703 5.264882241619628 1.754923399880446 0 0 0
47 1 10.530369640015277 7.019954890013633 2.1924078720447944e-16 0 0 0
48 1 12.28561375631878 7.019871467718647 1.754911038799112 0 0 0
84 1 12.285673604400522 5.264767699024113 3.509777327023725 0 0 0
86 1 10.530374588428462 5.264911695040627 5.264913927726633 0 0 0
97 1 10.53036340073289 7.019973291364352 3.5099151876752646 0 0 0
98 1 12.285538658601368 7.019946565436063 5.26490313732915 0 0 0
257 1 12.285530334023797 8.775115584022153 1.1226869767194428e-16 0 0 0
258 1 10.530350855569717 8.77513436846771 1.754954827576795 0 0 0
307 1 12.285511932673078 8.775121823304536 3.5099151876752663 0 0 0
308 1 10.530333618163812 8.775151605873617 5.264976393561036 0 0 0
38 1 15.796207554324774 5.26434853110485 9.460916631163797e-19 0 0 0
40 1 14.041035084739933 5.264450139297495 1.7547279821452089 0 0 0
49 1 14.040763125155916 7.01977299149459 0 0 0 0
50 1 15.795817714061254 7.019760594773569 1.754800881218311 0 0 0
88 1 15.795975580944624 5.26436630572383 3.509313187700519 0 0 0
90 1 14.040770007150384 5.264715216887043 5.264675886998222 0 0 0
99 1 14.040717525013314 7.01981161963691 3.509777327023725 0 0 0
100 1 15.795653768285973 7.0197999145932855 5.264737730570165 0 0 0
259 1 15.795581019727038 8.775066625670972 1.0156820567314895e-15 0 0 0
260 1 14.0406029824178 8.775081134411726 1.7549233998804457 0 0 0
309 1 15.795589350372326 8.775085040739436 3.509865676565841 0 0 0
310 1 14.0405735289968 8.775110635608964 5.264913927726633 0 0 0
101 1 9.137280142128393e-05 9.137280142147173e-05 7.020090744840299 0 0 0
102 1 1.7549527384747081 1.7549527384747101 7.0200907448402985 0 0 0
103 1 1.7550120677531238 3.2043523005419387e-05 8.77522055638065 0 0 0
104 1 3.204352300706196e-05 1.7550120677531234 8.775220556380647 0 0 0
105 1 3.509819366358746 9.46268336372473e-05 7.019912090015349 0 0 0
108 1 3.5099561046279657 1.7549838335806842 8.77522055638065 0 0 0
121 1 9.462683363726802e-05 3.509819366358744 7.019912090015349 0 0 0
123 1 1.754983833580684 3.509956104627965 8.77522055638065 0 0 0
125 1 3.5098504176803553 3.509850417680356 7.019929377084925 0 0 0
151 1 9.137280142110207e-05 9.137280142235222e-05 10.530350367920999 0 0 0
152 1 1.7549527384747101 1.75495273847471 10.530350367920999 0 0 0
153 1 3.509819366358746 9.462683363841343e-05 10.530529022745947 0 0 0
161 1 9.462683363751744e-05 3.5098193663587463 10.530529022745949 0 0 0
163 1 3.5098504176803553 3.509850417680355 10.53051173567637 0 0 0
106 1 5.26478135551638 1.7549675138319438 7.01986571753059 0 0 0
107 1 5.264890181355896 6.297015956392586e-05 8.77522055638065 0 0 0
109 1 7.019885301188562 7.372112101400537e-05 7.019925059831305 0 0 0
112 1 7.019944624634495 1.7549868868514793 8.77522055638065 0 0 0
127 1 5.264910961462659 3.509923724172048 8.77522055638065 0 0 0
129 1 7.019912257268514 3.5099135131441823 7.019950681296791 0 0 0
154 1 5.26478135551638 1.7549675138319454 10.53057539523071 0 0 0
155 1 7.0198853011885625 7.372112101113108e-05 10.530516052929993 0 0 0
165 1 7.019912257268513 3.5099135131441823 10.530490431464507 0 0 0
110 1 8.775114188589695 1.754988347244732 7.019993991522647 0 0 0
111 1 8.775121941904692 5.524543474778615e-05 8.77522055638065 0 0 0
131 1 8.775136027631788 3.5099450511322963 8.77522055638065 0 0 0
156 1 8.775114188589693 1.7549883472447323 10.530447121238653 0 0 0
113 1 10.530371035447736 5.5764031398021495e-05 7.019993991522648 0 0 0
114 1 12.285599922848867 1.7549703901551175 7.019925059831307 0 0 0
115 1 12.285540599402934 5.722442465359094e-05 8.77522055638065 0 0 0
116 1 10.530363282132738 1.7549888658413815 8.77522055638065 0 0 0
133 1 10.53037000462566 3.5099315349660785 7.020003016126391 0 0 0
135 1 12.285529687348824 3.5099286390072213 8.77522055638065 0 0 0
157 1 10.530371035447734 5.576403139772635e-05 10.530447121238653 0 0 0
158 1 12.285599922848867 1.7549703901551168 10.530516052929995 0 0 0
167 1 10.53037000462566 3.509931534966079 10.53043809663491 0 0 0
117 1 14.040703868521048 7.659744418538754e-05 7.019865717530588 0 0 0
118 1 15.795665857678685 1.7549494844424927 7.019912090015349 0 0 0
119 1 15.795529119409466 6.02776954448881e-05 8.77522055638065 0 0 0
120 1 14.040595042681533 1.7549811411165657 8.77522055638065 0 0 0
137 1 14.040680809905462 3.5098642389316232 7.0198846686500405 0 0 0
139 1 15.795563538246629 3.5099216857907987 8.77522055638065 0 0 0
159 1 14.040703868521048 7.65974441869536e-05 10.53057539523071 0 0 0
160 1 15.795665857678683 1.7549494844424927 10.530529022745949 0 0 0
169 1 14.040680809905462 3.509864238931622 10.530556444111257 0 0 0
122 1 1.754967513831946 5.264781355516379 7.01986571753059 0 0 0
124 1 6.297015956434947e-05 5.264890181355896 8.77522055638065 0 0 0
128 1 3.509923724172048 5.264910961462659 8.77522055638065 0 0 0
141 1 7.372112101142299e-05 7.0198853011885625 7.019925059831305 0 0 0
142 1 1.75498688685148 7.019944624634496 8.775220556380651 0 0 0
143 1 3.509913513144182 7.019912257268514 7.019950681296792 0 0 0
162 1 1.7549675138319436 5.264781355516381 10.53057539523071 0 0 0
171 1 7.37211210124284e-05 7.01988530118856 10.530516052929993 0 0 0
172 1 3.5099135131441814 7.019912257268514 10.530490431464507 0 0 0
351 1 1.754988347244732 8.775114188589695 7.019993991522648 0 0 0
352 1 5.524543474997031e-05 8.775121941904692 8.775220556380647 0 0 0
354 1 3.5099450511322945 8.775136027631788 8.77522055638065 0 0 0
401 1 1.754988347244733 8.775114188589693 10.530447121238652 0 0 0
126 1 5.2648681287527905 5.26486812875279 7.019945592027956 0 0 0
132 1 7.019994717123394 5.264939738702709 8.77522055638065 0 0 0
144 1 5.264939738702709 7.019994717123395 8.77522055638065 0 0 0
145 1 7.019994908332913 7.019994908332914 7.020029750374553 0 0 0
164 1 5.2648681287527905 5.26486812875279 10.530495520733343 0 0 0
173 1 7.019994908332913 7.019994908332913 10.530411362386745 0 0 0
130 1 8.77513448723681 5.264940693436213 7.020030962480158 0 0 0
146 1 8.775159147410491 7.020030280199343 8.77522055638065 0 0 0
166 1 8.77513448723681 5.2649406934362135 10.53041015028114 0 0 0
353 1 5.2649406934362135 8.77513448723681 7.020030962480158 0 0 0
356 1 7.020030280199342 8.775159147410491 8.77522055638065 0 0 0
402 1 5.264940693436213 8.775134487236809 10.530410150281142 0 0 0
355 1 8.775160009855554 8.775160009855554 7.020077226332751 0 0 0
403 1 8.775160009855554 8.775160009855554 10.530363886428548 0 0 0
134 1 12.28553963236087 5.26490091881427 7.019985206382681 0 0 0
136 1 10.530343888601175 5.264949294462691 8.77522055638065 0 0 0
147 1 10.530336211549926 7.020017779982897 7.0200606652650945 0 0 0
148 1 12.285478243406333 7.020006980631097 8.77522055638065 0 0 0
168 1 12.28553963236087 5.26490091881427 10.530455906378618 0 0 0
174 1 10.530336211549924 7.020017779982897 10.530380447496203 0 0 0
357 1 12.285467444054532 8.775149012487503 7.020060665265094 0 0 0
358 1 10.530322238310251 8.775162985727176 8.77522055638065 0 0 0
404 1 12.28546744405453 8.775149012487503 10.530380447496205 0 0 0
138 1 15.795620985105808 5.264804414131967 7.0198846686500405 0 0 0
140 1 14.040580735284404 5.264904488753024 8.77522055638065 0 0 0
149 1 14.04058430522316 7.019945591676558 7.019985206382682 0 0 0
150 1 15.795556585030209 7.019955536688603 8.77522055638065 0 0 0
170 1 15.795620985105808 5.264804414131967 10.530556444111259 0 0 0
175 1 14.04058430522316 7.019945591676559 10.530455906378618 0 0 0
359 1 15.795553689071351 8.77511521941177 7.020003016126389 0 0 0
360 1 14.040535929574737 8.775141335436254 8.77522055638065 0 0 0
405 1 15.79555368907135 8.77511521941177 10.53043809663491 0 0 0
176 1 1.7547039093749452 0.0003402019011862799 12.285995124733526 0 0 0
177 1 0.00034020190118635725 1.754703909374945 12.285995124733528 0 0 0
179 1 3.509396802874838 1.754878102509439 12.286019575187177 0 0 0
186 1 1.7548781025094395 3.509396802874839 12.286019575187177 0 0 0
201 1 0.0006298512812383967 0.0006298512812360495 14.04317355127776 0 0 0
202 1 1.754414259994895 1.7544142599948938 14.04317355127776 0 0 0
203 1 1.7510784799827388 0.003965631293392923 15.803564452821687 0 0 0
204 1 0.003965631293392708 1.7510784799827392 15.803564452821687 0 0 0
205 1 3.5089313134560802 0.0006145442051943527 14.041894109804899 0 0 0
208 1 3.5053968150613977 1.754496665557625 15.799814034853178 0 0 0
221 1 0.0006145442051933548 3.508931313456082 14.041894109804899 0 0 0
223 1 1.7544966655576235 3.505396815061396 15.799814034853181 0 0 0
225 1 3.5091026259950833 3.5091026259950824 14.0416855769593 0 0 0
178 1 5.264504705158792 0.00016077366003182532 12.285944081710307 0 0 0
181 1 7.019780471781692 1.7549698434910856 12.285727900738092 0 0 0
188 1 5.264574257717943 3.50975351111451 12.285868318122763 0 0 0
206 1 5.26431770608431 1.7548922176798196 14.041184902225135 0 0 0
207 1 5.263929444770858 0.0006076875993540465 15.796323128061154 0 0 0
209 1 7.019695728678509 0.0001580758183119071 14.04085416621386 0 0 0
212 1 7.01978290048327 1.7549743456440923 15.795811222045007 0 0 0
227 1 5.263935805346667 3.509208673393176 15.79610903189873 0 0 0
229 1 7.019725957881201 3.5098056725712268 14.040805616426907 0 0 0
180 1 8.775080334731173 7.179698869031064e-05 12.285594591051982 0 0 0
190 1 8.7750880081205 3.5099201238505167 12.285570374602333 0 0 0
210 1 8.77507189859842 1.7549890372707857 14.040604307189456 0 0 0
211 1 8.775132527687221 8.749363152982709e-05 15.795509622008382 0 0 0
231 1 8.775138349990291 3.509920265497663 15.795535068796855 0 0 0
182 1 12.285704752255738 7.426778504409973e-05 12.28572790073809 0 0 0
183 1 10.530404889306256 1.754972314287441 12.285594591051982 0 0 0
192 1 12.285685309444144 3.5098314557514567 12.285703382191134 0 0 0
213 1 10.53041332543901 5.507400534601767e-05 14.040604307189458 0 0 0
214 1 12.28578949535892 1.7548860354578175 14.04085416621386 0 0 0
215 1 12.28570232355416 6.976563203978624e-05 15.795811222045007 0 0 0
216 1 10.530352696350208 1.7549566176446003 15.795509622008382 0 0 0
233 1 10.530400183297994 3.5098958736651036 14.040575436195455 0 0 0
235 1 12.285724629263862 3.5096675099761763 15.795640231542988 0 0 0
184 1 15.796088421162588 0.00016600876669157187 12.286019575187177 0 0 0
185 1 14.040980518878637 1.7548833376160988 12.285944081710308 0 0 0
194 1 15.795919352033726 3.5095658720037037 12.286034792919466 0 0 0
217 1 14.041167517953118 0.00015189359631152124 14.041184902225135 0 0 0
218 1 15.796553910581347 1.7544295670709373 14.041894109804897 0 0 0
219 1 15.80008840897603 0.0005474457185068745 15.799814034853181 0 0 0
220 1 14.04155577926657 1.7544364236767767 15.796323128061154 0 0 0
237 1 14.041118918313597 3.5095096430928066 14.041127925060781 0 0 0
239 1 15.79695925387736 3.508525970160068 15.796663174592389 0 0 0
187 1 0.0001607736600312908 5.264504705158791 12.285944081710307 0 0 0
189 1 3.5097535111145097 5.264574257717943 12.285868318122764 0 0 0
196 1 1.754969843491086 7.01978047178169 12.285727900738092 0 0 0
222 1 1.7548922176798203 5.264317706084311 14.041184902225135 0 0 0
224 1 0.0006076875993533547 5.2639294447708584 15.796323128061154 0 0 0
228 1 3.509208673393177 5.263935805346666 15.79610903189873 0 0 0
241 1 0.00015807581831086244 7.019695728678509 14.040854166213862 0 0 0
242 1 1.7549743456440925 7.0197829004832695 15.795811222045007 0 0 0
243 1 3.5098056725712263 7.0197259578812 14.040805616426905 0 0 0
426 1 7.17969886901181e-05 8.775080334731173 12.285594591051984 0 0 0
427 1 3.509920123850517 8.7750880081205 12.285570374602333 0 0 0
451 1 1.7549890372707861 8.775071898598421 14.040604307189458 0 0 0
452 1 8.749363153029897e-05 8.775132527687221 15.795509622008382 0 0 0
454 1 3.5099202654976622 8.775138349990291 15.795535068796855 0 0 0
191 1 7.019864850711068 5.264839925316482 12.285628251750689 0 0 0
197 1 5.264839925316482 7.019864850711068 12.285628251750689 0 0 0
226 1 5.2645320845688115 5.2645320845688115 14.040905568441005 0 0 0
232 1 7.019734064358281 5.264661746498037 15.79560313944351 0 0 0
244 1 5.264661746498037 7.019734064358281 15.79560313944351 0 0 0
245 1 7.019880066970677 7.019880066970678 14.04059898553164 0 0 0
198 1 8.77512915922175 7.019993205863821 12.285494512348885 0 0 0
230 1 8.775096787357288 5.26489278611682 14.040564510422543 0 0 0
246 1 8.775095664060128 7.019940106530217 15.79550447148228 0 0 0
428 1 7.019993205863821 8.775129159221752 12.285494512348885 0 0 0
453 1 5.264892786116819 8.77509678735729 14.040564510422543 0 0 0
456 1 7.019940106530218 8.775095664060126 15.795504471482282 0 0 0
455 1 8.775134051068614 8.775134051068614 14.040507547286229 0 0 0
193 1 10.530374588428462 5.264911695040627 12.285527185034663 0 0 0
199 1 12.28553865860137 7.0199465654360615 12.285537975432147 0 0 0
234 1 12.285673604400522 5.264767699024113 14.040663785737573 0 0 0
236 1 10.530404089625703 5.264882241619629 15.795517712880851 0 0 0
247 1 10.530363400732892 7.0199732913643516 14.040525925086035 0 0 0
248 1 12.28561375631878 7.019871467718648 15.795530073962187 0 0 0
429 1 10.53033361816381 8.775151605873619 12.285464719200261 0 0 0
457 1 12.285511932673078 8.775121823304538 14.040525925086033 0 0 0
458 1 10.530350855569719 8.77513436846771 15.795486285184502 0 0 0
195 1 14.040770007150384 5.264715216887045 12.285765225763077 0 0 0
200 1 15.795653768285973 7.019799914593285 12.285703382191134 0 0 0
238 1 15.795975580944624 5.26436630572383 14.04112792506078 0 0 0
240 1 14.041035084739933 5.264450139297495 15.795713130616088 0 0 0
249 1 14.040717525013312 7.019811619636907 14.040663785737573 0 0 0
250 1 15.795817714061254 7.019760594773568 15.795640231542988 0 0 0
430 1 14.040573528996802 8.775110635608966 12.285527185034663 0 0 0
459 1 15.795589350372326 8.775085040739436 14.040575436195455 0 0 0
460 1 14.0406029824178 8.775081134411726 15.795517712880851 0 0 0
251 1 1.7550272326123528 8.775250725055734 1.1265412349231221e-16 0 0 0
261 1 1.6878663779648922e-05 10.530234498981695 7.827942023275957e-16 0 0 0
262 1 1.75470179374784 12.28559608051294 0 0 0 0
263 1 1.7549566176446005 10.530352696350207 1.7549314907529157 0 0 0
264 1 6.976563204018188e-05 12.28570232355416 1.7546298907162905 0 0 0
265 1 3.509904204310392 10.530418598366458 0 0 0 0
268 1 3.5096675099761767 12.28572462926386 1.7548008812183125 0 0 0
311 1 5.507400534488451e-05 10.53041332543901 3.5098368055718403 0 0 0
312 1 1.7548860354578175 12.28578949535892 3.5095869465474383 0 0 0
313 1 1.7549723142874418 10.530404889306254 5.264846521709315 0 0 0
314 1 7.426778504445277e-05 12.285704752255738 5.264713212023208 0 0 0
315 1 3.509895873665104 10.530400183297994 3.509865676565843 0 0 0
318 1 3.509831455751457 12.285685309444144 5.264737730570164 0 0 0
266 1 5.2647220988815135 12.285712232542839 5.099092745755158e-16 0 0 0
267 1 5.264882241619628 10.530404089625705 1.754923399880444 0 0 0
269 1 7.019954890013632 10.530369640015277 1.8753745911012498e-18 0 0 0
272 1 7.019871467718648 12.28561375631878 1.7549110387991116 0 0 0
316 1 5.264767699024113 12.285673604400522 3.5097773270237247 0 0 0
317 1 5.264911695040627 10.530374588428462 5.264913927726633 0 0 0
319 1 7.019973291364353 10.530363400732892 3.509915187675265 0 0 0
322 1 7.019946565436064 12.285538658601368 5.264903137329149 0 0 0
270 1 8.775115584022153 12.285530334023795 1.1802074685979725e-18 0 0 0
271 1 8.775134368467711 10.530350855569719 1.7549548275767954 0 0 0
320 1 8.775121823304536 12.285511932673076 3.509915187675265 0 0 0
321 1 8.775151605873617 10.530333618163812 5.264976393561036 0 0 0
273 1 10.530357494311536 10.530357494311536 1.0427029406214783e-15 0 0 0
274 1 12.28563221300669 12.28563221300669 2.828971872735471e-16 0 0 0
275 1 12.285545117507214 10.530389559977303 1.7549366412790157 0 0 0
276 1 10.530389559977301 12.285545117507212 1.7549366412790164 0 0 0
323 1 10.530351172968814 10.530351172968816 3.5099335654750705 0 0 0
324 1 12.285605157066753 12.285605157066753 3.50984212722966 0 0 0
325 1 12.285492018173608 10.53035606481568 5.264946600412414 0 0 0
326 1 10.53035606481568 12.285492018173608 5.264946600412413 0 0 0
277 1 14.040626105660044 10.530407209778474 1.164426716248555e-15 0 0 0
278 1 15.795857633956889 12.285761754897582 8.370695262040562e-16 0 0 0
279 1 15.795564958539765 10.530346874047135 1.7549060439644444 0 0 0
280 1 14.040823477539393 12.285751159679148 1.7548379733177888 0 0 0
327 1 14.04059243792061 10.530388436680141 3.5098766023387538 0 0 0
328 1 15.7956795514662 12.285759266156228 3.509635496334393 0 0 0
329 1 15.795565100186913 10.53039721591693 5.264870738158966 0 0 0
330 1 14.040645298720948 12.285620373326362 5.264812861010608 0 0 0
281 1 0.00026392793962489754 14.042421156241721 1.309580560335268e-18 0 0 0
282 1 1.7511388781292827 15.800849025587004 7.489381485067151e-16 0 0 0
283 1 1.7544364236767758 14.041555779266568 1.7541179847001451 0 0 0
284 1 0.0005474457185090293 15.800088408976032 1.7506270779081194 0 0 0
285 1 3.509277669712655 14.04113669293258 1.3730782071090947e-18 0 0 0
288 1 3.5085259701600675 15.796959253877361 1.7537779381689076 0 0 0
331 1 0.0001518935963119855 14.041167517953118 3.509256210536165 0 0 0
332 1 1.7544295670709367 15.796553910581348 3.5085470029564 0 0 0
333 1 1.754883337616098 14.040980518878637 5.264497031050991 0 0 0
334 1 0.00016600876669077777 15.796088421162588 5.264421537574123 0 0 0
335 1 3.5095096430928066 14.041118918313595 3.5093131877005193 0 0 0
338 1 3.5095658720037037 15.795919352033726 5.264406319841832 0 0 0
341 1 8.775110635608966 14.040573528996799 5.264913927726633 0 0 0
340 1 8.775085040739436 15.795589350372325 3.509865676565841 0 0 0
291 1 8.775081134411726 14.040602982417802 1.7549233998804459 0 0 0
286 1 5.264348531104848 15.796207554324775 2.2458977283861845e-16 0 0 0
287 1 5.264450139297496 14.041035084739933 1.754727982145211 0 0 0
289 1 7.019772991494592 14.040763125155916 8.250369474989029e-16 0 0 0
292 1 7.019760594773568 15.795817714061252 1.7548008812183113 0 0 0
336 1 5.264366305723833 15.795975580944624 3.5093131877005193 0 0 0
337 1 5.264715216887044 14.040770007150385 5.26467588699822 0 0 0
339 1 7.019811619636907 14.040717525013314 3.509777327023726 0 0 0
342 1 7.019799914593285 15.795653768285971 5.264737730570164 0 0 0
290 1 8.77506662567097 15.795581019727038 1.0349035577838707e-15 0 0 0
346 1 10.530397215916931 15.795565100186911 5.264870738158965 0 0 0
345 1 12.285620373326362 14.04064529872095 5.264812861010607 0 0 0
344 1 12.285759266156228 15.7956795514662 3.509635496334394 0 0 0
343 1 10.530388436680141 14.04059243792061 3.509876602338754 0 0 0
296 1 10.530346874047135 15.795564958539765 1.7549060439644446 0 0 0
295 1 12.285751159679148 14.040823477539393 1.7548379733177881 0 0 0
294 1 12.285761754897582 15.795857633956889 1.7887104130009772e-18 0 0 0
293 1 10.530407209778474 14.040626105660046 6.773858266876576e-17 0 0 0
350 1 14.040910966319487 15.79573171292292 5.264572794638536 0 0 0
349 1 15.79573171292292 14.040910966319487 5.264572794638537 0 0 0
348 1 15.796382598042346 15.796382598042348 3.508755535802 0 0 0
347 1 14.040953139468616 14.040953139468616 3.509535544320293 0 0 0
300 1 14.041549418690765 15.796276550644253 1.754332080862568 0 0 0
299 1 15.796276550644253 14.041549418690762 1.754332080862569 0 0 0
298 1 15.79946924540689 15.799469245406893 1.5269340635134353e-16 0 0 0
297 1 14.041014503416704 14.041014503416706 9.80440664130435e-16 0 0 0
361 1 5.5764031398585185e-05 10.530371035447732 7.0199939915226475 0 0 0
362 1 1.754970390155117 12.285599922848869 7.019925059831306 0 0 0
363 1 1.7549888658413813 10.530363282132738 8.77522055638065 0 0 0
364 1 5.722442465195237e-05 12.285540599402934 8.77522055638065 0 0 0
365 1 3.509931534966079 10.53037000462566 7.020003016126389 0 0 0
368 1 3.5099286390072213 12.285529687348825 8.77522055638065 0 0 0
406 1 5.57640313982552e-05 10.530371035447734 10.530447121238652 0 0 0
407 1 1.7549703901551164 12.285599922848869 10.530516052929993 0 0 0
408 1 3.509931534966078 10.53037000462566 10.53043809663491 0 0 0
366 1 5.264900918814269 12.28553963236087 7.019985206382683 0 0 0
367 1 5.264949294462691 10.530343888601175 8.77522055638065 0 0 0
369 1 7.020017779982898 10.530336211549924 7.020060665265095 0 0 0
372 1 7.020006980631096 12.285478243406333 8.77522055638065 0 0 0
409 1 5.264900918814269 12.28553963236087 10.530455906378617 0 0 0
410 1 7.020017779982899 10.530336211549926 10.530380447496205 0 0 0
370 1 8.775149012487502 12.28546744405453 7.020060665265094 0 0 0
371 1 8.775162985727174 10.530322238310251 8.77522055638065 0 0 0
411 1 8.775149012487503 12.28546744405453 10.530380447496205 0 0 0
373 1 10.530325214181875 10.530325214181875 7.02007722633275 0 0 0
374 1 12.285490315704514 12.285490315704514 7.020029750374554 0 0 0
375 1 12.285454943838088 10.530326076626936 8.77522055638065 0 0 0
376 1 10.53032607662694 12.28545494383809 8.77522055638065 0 0 0
412 1 10.530325214181875 10.530325214181874 10.530363886428548 0 0 0
413 1 12.285490315704513 12.285490315704516 10.530411362386744 0 0 0
377 1 14.040544530601215 10.53035073680062 7.020030962480159 0 0 0
378 1 15.795571710893247 12.285572966768916 7.019950681296791 0 0 0
379 1 15.795540172905133 10.530349196405641 8.77522055638065 0 0 0
380 1 14.040545485334722 12.285490506914032 8.77522055638065 0 0 0
414 1 14.040544530601217 10.530350736800617 10.53041015028114 0 0 0
415 1 15.795571710893247 12.285572966768916 10.530490431464507 0 0 0
381 1 7.659744418641647e-05 14.040703868521046 7.019865717530588 0 0 0
382 1 1.7549494844424935 15.795665857678685 7.019912090015349 0 0 0
383 1 1.7549811411165663 14.040595042681531 8.77522055638065 0 0 0
384 1 6.027769544535823e-05 15.795529119409466 8.775220556380651 0 0 0
385 1 3.509864238931623 14.040680809905462 7.0198846686500405 0 0 0
388 1 3.509921685790799 15.79556353824663 8.77522055638065 0 0 0
416 1 7.65974441860325e-05 14.040703868521048 10.53057539523071 0 0 0
417 1 1.7549494844424933 15.795665857678683 10.530529022745949 0 0 0
418 1 3.509864238931623 14.040680809905464 10.530556444111259 0 0 0
421 1 8.775115219411768 15.795553689071351 10.53043809663491 0 0 0
391 1 8.775141335436254 14.040535929574737 8.77522055638065 0 0 0
390 1 8.775115219411768 15.79555368907135 7.020003016126391 0 0 0
386 1 5.264804414131967 15.795620985105808 7.01988466865004 0 0 0
387 1 5.264904488753024 14.040580735284404 8.77522055638065 0 0 0
389 1 7.01994559167656 14.04058430522316 7.019985206382682 0 0 0
392 1 7.019955536688605 15.795556585030209 8.77522055638065 0 0 0
419 1 5.264804414131968 15.795620985105806 10.530556444111259 0 0 0
420 1 7.019945591676558 14.04058430522316 10.530455906378617 0 0 0
423 1 12.285572966768916 15.795571710893245 10.530490431464509 0 0 0
422 1 10.53035073680062 14.040544530601215 10.530410150281142 0 0 0
396 1 10.53034919640564 15.795540172905133 8.775220556380647 0 0 0
395 1 12.285490506914032 14.04054548533472 8.775220556380651 0 0 0
394 1 12.285572966768914 15.795571710893247 7.01995068129679 0 0 0
393 1 10.530350736800619 14.040544530601215 7.020030962480159 0 0 0
425 1 15.795634806357073 15.795634806357073 10.53051173567637 0 0 0
424 1 14.04061709528464 14.04061709528464 10.530495520733343 0 0 0
400 1 14.040574262574772 15.79556149986538 8.77522055638065 0 0 0
399 1 15.79556149986538 14.040574262574772 8.77522055638065 0 0 0
398 1 15.795634806357073 15.795634806357073 7.019929377084927 0 0 0
397 1 14.04061709528464 14.04061709528464 7.019945592027955 0 0 0
431 1 1.75497231428744 10.530404889306254 12.285594591051984 0 0 0
432 1 7.426778504456317e-05 12.285704752255738 12.285727900738092 0 0 0
434 1 3.5098314557514576 12.285685309444144 12.285703382191135 0 0 0
461 1 5.5074005345300023e-05 10.53041332543901 14.040604307189456 0 0 0
462 1 1.7548860354578186 12.285789495358918 14.04085416621386 0 0 0
463 1 1.754956617644601 10.530352696350207 15.795509622008382 0 0 0
464 1 6.97656320395797e-05 12.28570232355416 15.795811222045009 0 0 0
465 1 3.5098958736651036 10.530400183297994 14.040575436195455 0 0 0
468 1 3.509667509976176 12.285724629263862 15.795640231542986 0 0 0
433 1 5.264911695040628 10.530374588428462 12.285527185034665 0 0 0
436 1 7.019946565436062 12.285538658601366 12.285537975432149 0 0 0
466 1 5.264767699024113 12.28567360440052 14.040663785737573 0 0 0
467 1 5.26488224161963 10.530404089625703 15.795517712880853 0 0 0
469 1 7.0199732913643516 10.530363400732892 14.040525925086033 0 0 0
472 1 7.019871467718649 12.285613756318778 15.795530073962189 0 0 0
435 1 8.775151605873617 10.53033361816381 12.285464719200261 0 0 0
470 1 8.775121823304538 12.285511932673078 14.040525925086031 0 0 0
471 1 8.77513436846771 10.530350855569719 15.795486285184504 0 0 0
437 1 12.285492018173608 10.53035606481568 12.285494512348885 0 0 0
438 1 10.530356064815678 12.285492018173608 12.285494512348885 0 0 0
473 1 10.530351172968818 10.530351172968816 14.040507547286227 0 0 0
474 1 12.285605157066753 12.285605157066751 14.04059898553164 0 0 0
475 1 12.285545117507214 10.530389559977303 15.795504471482282 0 0 0
476 1 10.530389559977301 12.285545117507214 15.795504471482282 0 0 0
439 1 15.795565100186913 10.53039721591693 12.285570374602333 0 0 0
440 1 14.040645298720948 12.285620373326362 12.28562825175069 0 0 0
477 1 14.040592437920608 10.530388436680141 14.040564510422543 0 0 0
478 1 15.795679551466202 12.285759266156228 14.040805616426903 0 0 0
479 1 15.795564958539765 10.530346874047137 15.795535068796855 0 0 0
480 1 14.04082347753939 12.285751159679148 15.79560313944351 0 0 0
441 1 1.7548833376161 14.040980518878637 12.285944081710307 0 0 0
442 1 0.00016600876669065493 15.796088421162588 12.28601957518718 0 0 0
444 1 3.5095658720037046 15.795919352033726 12.286034792919466 0 0 0
481 1 0.0001518935963085743 14.04116751795312 14.041184902225133 0 0 0
482 1 1.7544295670709367 15.796553910581348 14.041894109804899 0 0 0
483 1 1.754436423676777 14.04155577926657 15.796323128061154 0 0 0
484 1 0.0005474457185059636 15.80008840897603 15.799814034853178 0 0 0
485 1 3.509509643092806 14.041118918313597 14.04112792506078 0 0 0
488 1 3.5085259701600684 15.79695925387736 15.796663174592389 0 0 0
491 1 8.775081134411726 14.0406029824178 15.795517712880851 0 0 0
490 1 8.775085040739436 15.795589350372325 14.040575436195455 0 0 0
445 1 8.775110635608966 14.0405735289968 12.285527185034665 0 0 0
443 1 5.264715216887042 14.040770007150385 12.285765225763077 0 0 0
446 1 7.019799914593285 15.795653768285973 12.285703382191134 0 0 0
486 1 5.264366305723831 15.795975580944623 14.041127925060781 0 0 0
487 1 5.264450139297496 14.041035084739933 15.795713130616088 0 0 0
489 1 7.019811619636909 14.040717525013314 14.040663785737573 0 0 0
492 1 7.019760594773568 15.795817714061254 15.795640231542986 0 0 0
496 1 10.530346874047137 15.795564958539765 15.795535068796855 0 0 0
495 1 12.28575115967915 14.040823477539394 15.79560313944351 0 0 0
494 1 12.28575926615623 15.795679551466202 14.040805616426907 0 0 0
493 1 10.53038843668014 14.040592437920608 14.040564510422545 0 0 0
448 1 10.53039721591693 15.795565100186913 12.285570374602333 0 0 0
447 1 12.285620373326362 14.040645298720948 12.285628251750689 0 0 0
500 1 14.041549418690764 15.796276550644253 15.796109031898732 0 0 0
499 1 15.796276550644256 14.041549418690764 15.79610903189873 0 0 0
498 1 15.79638259804235 15.796382598042346 14.0416855769593 0 0 0
497 1 14.040953139468616 14.040953139468616 14.040905568441005 0 0 0
450 1 14.040910966319483 15.79573171292292 12.285868318122763 0 0 0
449 1 15.79573171292292 14.040910966319483 12.285868318122764 0 0 0

Velocities

1 -6.7097571233104035e-09 -6.7097696193037845e-09 -5.932688954635828e-16
2 6.709770984306894e-09 6.709747506139371e-09 1.6001103686980164e-15
3 -4.770958266519386e-09 4.77097119183639e-09 -1.0272897872831384e-08
4 4.7709578871222214e-09 -4.770964291250306e-09 -1.0272885799357064e-08
5 7.140970771301628e-09 4.4514701069205417e-10 -7.419871600769269e-16
8 1.2560781422878983e-09 6.59456271199242e-12 5.953650530482963e-09
21 4.4513101283828084e-10 7.1409870169535125e-09 5.423818639756656e-16
23 6.601332968163655e-12 1.2560890803096486e-09 5.953656646564482e-09
25 1.7017225871705677e-09 1.7017243019236014e-09 -9.12709275958402e-16
51 -1.6220909195244546e-09 -1.6220845796297502e-09 6.153640580234838e-09
52 1.622087896353379e-09 1.6220863127304047e-09 6.153637360311515e-09
53 -1.346248936087049e-09 1.346247584409612e-09 3.3899847696386162e-09
54 1.34625050650316e-09 -1.3462508923536781e-09 3.38997846351146e-09
55 2.7388455258314904e-09 -5.563583707592539e-09 -6.284137659684321e-09
58 4.5061202419921714e-09 -2.706457394841733e-09 3.2669232552453015e-09
71 -5.563587182807322e-09 2.738840181657365e-09 -6.28414085997205e-09
73 -2.706455336762754e-09 4.5061225449952414e-09 3.266920657965083e-09
75 8.224947672052971e-09 8.224955125971923e-09 2.9793629257152776e-09
6 1.516037147626949e-08 -1.8684255670456432e-09 -1.2863935105333198e-15
7 4.822221276182765e-09 -1.1305799408337168e-09 5.210407789786971e-09
9 4.649448488345805e-09 1.2957301769943915e-09 -3.697921728932042e-16
12 5.669030573957618e-09 -5.235221428316455e-09 1.4365729281875019e-09
27 -1.5221261866820727e-09 3.3060278868416684e-09 5.726015303767197e-09
29 5.17395910708504e-09 5.416545961236162e-09 3.651057530884719e-16
56 -2.579366910099844e-09 -1.5864773375258853e-10 1.7688735321584632e-09
57 3.140774525732967e-09 3.3678413165710343e-09 2.153169374966268e-09
59 9.114777713724406e-10 4.2800032007244046e-09 2.07510131030288e-09
62 6.7552815990762266e-09 -4.2876649175508345e-09 7.314863682648493e-09
77 -6.495024858399148e-09 3.924549344656047e-09 -1.1403117551128144e-09
79 4.2425229406184855e-10 -4.216300220552683e-10 4.4970734749862785e-11
11 -2.295710142546931e-10 3.6612523302486656e-09 2.7565955290725456e-09
31 -4.229477297307279e-09 -3.1425911499959344e-10 2.2977008740099094e-09
60 -2.3466746782337104e-09 -2.5214098782907816e-09 5.748497245116873e-10
61 -1.0631016020939588e-09 8.526610052497693e-10 4.370281194595585e-09
81 1.3481889985489103e-09 4.93853476382515e-09 3.5106357061366913e-09
10 -3.9299765703939364e-09 -3.458506798236135e-10 -1.9044897215969e-16
13 3.929976197345188e-09 3.4584851870052513e-10 -6.339294392454929e-16
14 -4.649446953024494e-09 -1.2957265333680649e-09 5.560993442122094e-16
15 -5.66902977488259e-09 5.235213577458215e-09 1.436574130915994e-09
16 2.2956805332304184e-10 -3.661248915674186e-09 2.7565928818468407e-09
33 -1.9344441444914683e-09 6.3204773694461324e-09 3.8431045991649616e-16
35 -2.4238128918148723e-09 -4.3749264081238176e-10 -1.6465225096089103e-09
63 2.3466743929313433e-09 2.521410572251418e-09 5.748532642512124e-10
64 -9.11476894571083e-10 -4.280000566555484e-09 2.075107133103862e-09
65 -6.755286220315723e-09 4.287669915317987e-09 7.314862817191507e-09
66 1.0631085113239264e-09 -8.526687612804086e-10 4.37027771316136e-09
83 -2.0776559314855245e-09 -8.31652301580347e-11 -4.583375388061289e-09
85 -1.802400832466037e-09 8.585775150707455e-09 -2.355209833773165e-09
17 -1.5160375972456062e-08 1.8684236820660605e-09 6.897584523608631e-16
18 -7.1409824689900356e-09 -4.451337727725583e-10 1.3038775966299344e-15
19 -1.2560783612141696e-09 -6.598451470712539e-12 5.9536534508037154e-09
20 -4.82221907663971e-09 1.130583012930218e-09 5.210402192102977e-09
37 -2.8153205243414144e-09 3.373109889039006e-09 5.319514435145951e-16
39 -3.9427077509914955e-09 3.942710207181986e-09 6.078853647603905e-09
67 2.579363391337236e-09 1.5863906509767843e-10 1.7688695170468976e-09
68 -2.7388361406573457e-09 5.56358826081754e-09 -6.28414181454312e-09
69 -4.506116099445631e-09 2.7064535502343343e-09 3.26692307557146e-09
70 -3.1407810212585495e-09 -3.367835866038512e-09 2.153177843567215e-09
87 1.3274931726358538e-09 4.115437412552612e-09 -1.8927536264449373e-09
89 -1.6052467635855275e-10 1.6052323587246368e-10 -5.74637218456945e-09
22 -1.8684239726170536e-09 1.5160367909474892e-08 1.2357457056033667e-16
24 -1.130581564077281e-09 4.8222155496568145e-09 5.210404494149299e-09
28 3.30602330012055e-09 -1.5221308266012228e-09 5.726017042032058e-09
41 1.295732972046919e-09 4.649457027961781e-09 8.521428399706224e-16
42 -5.235223113992464e-09 5.669034113067519e-09 1.4365725625975127e-09
43 5.416546450119912e-09 5.1739608261164416e-09 2.014023206249913e-16
72 -1.586407941462271e-10 -2.5793702591559e-09 1.7688698099991386e-09
74 3.367840629814142e-09 3.140773667924683e-09 2.153175978022732e-09
78 3.9245509728662545e-09 -6.495027525371257e-09 -1.1403150392613115e-09
91 4.280004963240345e-09 9.114811354081563e-10 2.0751018625898913e-09
92 -4.287667832665756e-09 6.755287741787648e-09 7.3148647731151846e-09
93 -4.216301553010757e-10 4.2424995754627287e-10 4.497119256805431e-11
252 3.6612590561439662e-09 -2.2957650908367285e-10 2.7565938833172827e-09
254 -3.1425640720334856e-10 -4.229477277634165e-09 2.2977015849944314e-09
301 -2.5214156845081455e-09 -2.3466756264270514e-09 5.748512742170353e-10
302 8.526689029540332e-10 -1.0631035980562166e-09 4.370274199385327e-09
304 4.9385349656050115e-09 1.3481837231779394e-09 3.5106399373435644e-09
26 9.44067811715085e-10 9.440665500246936e-10 -1.9426892605606675e-16
32 -1.362876119470091e-09 -3.5739668716053534e-09 -2.7138753992066944e-09
44 -3.5739672826492983e-09 -1.362876310669453e-09 -2.713876300875272e-09
45 5.3674308158332976e-09 5.367429164881584e-09 -1.7078875517551395e-16
76 -4.288484171449524e-09 -4.288484055889479e-09 5.288608850077774e-09
82 -1.1354160810783622e-09 -6.182182140220957e-10 2.182294254340111e-09
94 -6.182195669939555e-10 -1.1354157704834732e-09 2.1822968434487e-09
95 -2.7920081897180424e-09 -2.792010381685845e-09 2.82151402788362e-09
30 -2.053185814330548e-09 -2.8472047048083282e-09 7.704382705203416e-16
46 -1.996290741681081e-09 5.519809288994714e-09 1.9030116652834056e-09
80 -8.863308842912556e-10 -7.783048367935561e-09 -1.6367857442936718e-09
96 -4.084552223808176e-09 2.46707647303506e-09 -3.3256527444190852e-09
253 -2.8472063250940076e-09 -2.0531866961578745e-09 1.945010779503217e-16
256 5.5198134949122735e-09 -1.9962846187194772e-09 1.9030136815812313e-09
303 -7.783046186500848e-09 -8.863273473058962e-10 -1.636787484886501e-09
306 2.4670766540563054e-09 -4.084551271837676e-09 -3.3256554999260617e-09
255 -1.786357770787959e-09 -1.7863573043669571e-09 -3.2656971112646607e-15
305 -4.529617321662402e-09 -4.5296150892440485e-09 -7.715337398110754e-09
34 -9.696021274514178e-09 -6.361749730908766e-10 -6.184121955863161e-16
36 -1.2116501380396358e-11 -5.626886794121486e-09 3.5843672931788073e-09
47 -1.0525824213040845e-09 6.026391814938468e-09 -5.551384933165432e-16
48 -6.333751785838042e-09 6.333753575413666e-09 -2.951840810919333e-09
84 -9.113301934251167e-10 -5.967489739742891e-09 -1.1279102945991099e-09
86 3.980295260198976e-09 1.6552226733060214e-09 -1.4590348818218757e-09
97 3.825173789036011e-09 -1.3609813424748915e-09 -6.019992076503318e-10
98 -9.521031626805727e-10 9.520939546073062e-10 -1.325266529400585e-09
257 -6.026396500060332e-09 1.052580985385998e-09 -3.5478554615295675e-16
258 1.310763065862588e-11 -1.3096701493927389e-11 -6.8018025512153585e-09
307 1.3609754697491871e-09 -3.825163772554055e-09 -6.020054603204106e-10
308 2.2894326206874852e-09 -2.2894348011238083e-09 -2.892598487281241e-09
38 -3.373110888652233e-09 2.8153162814114565e-09 9.460916631163797e-16
40 1.5214615226808622e-09 -1.5214567784153713e-09 -6.368285874893392e-09
49 6.36176239458355e-10 9.696023685650788e-09 -3.3512415668446633e-16
50 4.374862019975207e-10 2.4238095218481445e-09 -1.6465194335381635e-09
88 -4.11544131831829e-09 -1.3274894247798866e-09 -1.8927528827187906e-09
90 4.63125931639714e-09 -4.631250769943236e-09 -5.094165541311331e-09
99 5.9674967354555585e-09 9.113229799932511e-10 -1.1279120024383685e-09
100 -8.585783348363563e-09 1.8023968329836875e-09 -2.3552133559981195e-09
259 -6.320481198850252e-09 1.934441673770448e-09 -2.670187638034046e-15
260 5.626889275818641e-09 1.2112634541332328e-11 3.584368537625519e-09
309 8.316150123347552e-11 2.077654931445109e-09 -4.583371946968732e-09
310 -1.6552172705885818e-09 -3.980285193040121e-09 -1.4590337350519011e-09
101 7.290571864922851e-09 7.290569984745765e-09 -6.268786551073999e-09
102 -7.290567213705715e-09 -7.2905743841320294e-09 -6.268783462318841e-09
103 2.1339525700136135e-09 -2.133946952594364e-09 -3.9342945667188914e-16
104 -2.133952747705956e-09 2.133953430860977e-09 4.814501991239444e-15
105 1.0310250868909104e-10 2.859277764607227e-09 -1.389668388822359e-09
108 2.5400503787115307e-09 -3.7634613500202454e-09 -2.43024693047842e-15
121 2.859274996092709e-09 1.0310948534126688e-10 -1.3896680816660569e-09
123 -3.763461350037706e-09 2.5400533785595484e-09 3.129126138321148e-17
125 -4.95529676276107e-10 -4.955336259061823e-10 5.783809022129079e-09
151 7.29057244362359e-09 7.290572071430168e-09 6.268789089343083e-09
152 -7.290574379029377e-09 -7.290572946084707e-09 6.2687848846079736e-09
153 1.0310396836171344e-10 2.859271080370294e-09 1.3896717905871451e-09
161 2.8592728766913026e-09 1.0309981551607051e-10 1.3896674645453528e-09
163 -4.95531702127335e-10 -4.955286404419082e-10 -5.783802177585401e-09
106 -5.002975758967714e-09 -4.2101041741311856e-09 1.3390163951939513e-09
107 -6.6029757553529275e-09 1.7781613194931234e-10 1.1449450028418242e-15
109 4.950873477964339e-09 -4.2704941702895505e-10 5.883984874070242e-10
112 2.9131664378711564e-09 -6.01008474461117e-09 6.951612600817053e-16
127 -6.6125291691370566e-09 2.151149901818428e-09 -9.219631084099532e-16
129 2.498191194813274e-09 5.553882260221608e-10 1.7796244469085527e-09
154 -5.002974444132372e-09 -4.210108429142422e-09 -1.3390180895744838e-09
155 4.950869627779107e-09 -4.2704120716246725e-10 -5.883994804730988e-10
165 2.4981938590954473e-09 5.553892450282783e-10 -1.7796252444089338e-09
110 2.7523316639852454e-11 -4.1672236980869376e-09 9.490035607858231e-09
111 -3.3682234597874947e-09 5.460802467441898e-09 1.7454070498165442e-16
131 9.725531084831912e-10 -4.518517442922538e-09 7.154575066527694e-16
156 2.7525390289162272e-11 -4.167224072681606e-09 -9.49003639426691e-09
113 -2.7528654088607674e-11 4.167224115904068e-09 9.490028224621325e-09
114 -4.95087021504367e-09 4.2704824281874373e-10 5.883931648910292e-10
115 -2.9131641422907912e-09 6.010077031236683e-09 2.627203776825292e-15
116 3.36822148659796e-09 -5.460798212430662e-09 2.9049096179061933e-15
133 6.9143653419244265e-09 2.354225753672196e-09 -2.0419804069016196e-09
135 5.2040286507287406e-11 4.39823328611582e-09 1.646814602543531e-15
157 -2.752388087916902e-11 4.167223453159654e-09 -9.490036904682163e-09
158 -4.950871566594479e-09 4.27048411343771e-10 -5.884021141736113e-10
167 6.9143648039975575e-09 2.3542249173578943e-09 2.0419758017033207e-09
117 5.002976955750593e-09 4.210108580421038e-09 1.3390218733408243e-09
118 -1.0310970085326375e-10 -2.859274132243786e-09 -1.3896674247746847e-09
119 -2.540057839627868e-09 3.763467081816387e-09 -3.673909250172743e-16
120 6.6029786633954235e-09 -1.778176498381259e-10 -9.158509476788875e-16
137 4.700257364208919e-09 2.8587427377681333e-09 2.5492356149166775e-09
139 -1.4374692981113192e-09 1.4374734762826234e-09 6.003119689824744e-16
159 5.002977027562912e-09 4.2101022876508234e-09 -1.339020328888206e-09
160 -1.0310189739797894e-10 -2.85927262426012e-09 1.3896676686514222e-09
169 4.7002564984089816e-09 2.8587472997354695e-09 -2.5492339676606344e-09
122 -4.210111445109754e-09 -5.0029728041430935e-09 1.339018279948417e-09
124 1.7781742862316536e-10 -6.602978344310852e-09 -1.8732500495235227e-15
128 2.1511500889422347e-09 -6.612529156160891e-09 1.0466204682346557e-15
141 -4.2704099825390203e-10 4.950869552374295e-09 5.883994118874564e-10
142 -6.0100868913267715e-09 2.9131623430667113e-09 -4.571975955770524e-15
143 5.553904344901656e-10 2.4981925033737934e-09 1.779622506221309e-09
162 -4.210103093569642e-09 -5.002979279430425e-09 -1.3390185425098644e-09
171 -4.2704426154976544e-10 4.9508780799558926e-09 -5.883985657477361e-10
172 5.553916474814682e-10 2.4981897000734205e-09 -1.7796243069285817e-09
351 -4.167221157566685e-09 2.7521225978381476e-11 9.49002978798377e-09
352 5.46079464177507e-09 -3.3682253220302614e-09 5.030614300073135e-15
354 -4.518511996826697e-09 9.725547852125586e-10 3.074740453396827e-16
401 -4.167227112661417e-09 2.7525551151079e-11 -9.490030149221497e-09
126 -3.4301656212033984e-09 -3.4301629763601813e-09 2.2056400148086022e-10
132 2.2513950783610154e-10 -1.880497380890015e-09 -5.065988151839153e-16
144 -1.880498696504729e-09 2.2513803860777623e-10 5.759993342386842e-16
145 4.898624185889864e-09 4.89862178405341e-09 -4.3364729550189317e-10
164 -3.4301676206142673e-09 -3.4301631374923557e-09 -2.205667635912685e-10
173 4.898624848317778e-09 4.898624917381732e-09 4.33647822275646e-10
130 -1.773561822835447e-09 -2.012167766518522e-10 -2.891048421746132e-09
146 -4.7949523894300775e-09 -1.0082744951722942e-09 -5.761494122309298e-16
166 -1.7735622240965125e-09 -2.0121946212474687e-10 2.891049982561941e-09
353 -2.0122073366418186e-10 -1.7735620614594546e-09 -2.891049036615666e-09
356 -1.0082736631315512e-09 -4.794951941106568e-09 2.1611230883369078e-15
402 -2.0121733267626731e-10 -1.7735563959402084e-09 2.891046727515677e-09
355 -3.6751704413861944e-09 -3.675171324895335e-09 -1.647379569381923e-09
403 -3.6751724382184543e-09 -3.6751721445462896e-09 1.64737397762601e-09
134 -2.196807645305161e-09 4.855541541043864e-10 -4.693016967590208e-09
136 4.506820728575621e-09 -1.3139788486886923e-08 1.9842596919283894e-16
147 -4.728126360106179e-10 3.5275307086506415e-09 -1.6369497759467043e-10
148 -1.8409491335980839e-09 1.840950058937947e-09 1.3296540780402765e-15
168 -2.196806754829119e-09 4.855539474505085e-10 4.693014500441064e-09
174 -4.728092040030737e-10 3.5275314464340514e-09 1.6369745388154247e-10
357 -3.5275315335543257e-09 4.728127542079957e-10 -1.636921118554085e-10
358 2.941040083038035e-09 -2.9410367667942275e-09 -5.883057296028249e-16
404 -3.5275288509524238e-09 4.728114101329988e-10 1.636934290084588e-10
138 -2.858748710693714e-09 -4.700257069455742e-09 2.549236333189948e-09
140 -2.0066893044817884e-10 2.0067072613135608e-10 1.4428498174493772e-15
149 -4.855520113459198e-10 2.1968062176777075e-09 -4.693017760945663e-09
150 -4.398236340697751e-09 -5.203745232426831e-11 7.635968245457074e-16
170 -2.8587514721287712e-09 -4.700256978208323e-09 -2.5492382631929286e-09
175 -4.855518990875817e-10 2.1968044128397728e-09 4.6930129524467906e-09
359 -2.354228458968704e-09 -6.914365366745281e-09 -2.0419759871979606e-09
360 1.3139789198263642e-08 -4.506822433712079e-09 -9.758071055810121e-16
405 -2.354220641706244e-09 -6.914367033211307e-09 2.0419745470495468e-09
176 -1.3462512556924973e-09 1.3462496609637516e-09 -3.3899858069026594e-09
177 1.3462510707964107e-09 -1.3462505040268731e-09 -3.3899874134125275e-09
179 4.506124896253076e-09 -2.706451924217256e-09 -3.266923157167575e-09
186 -2.706453142022195e-09 4.50612305931252e-09 -3.2669225920201693e-09
201 -1.6220886551477076e-09 -1.622083888670674e-09 -6.153636571951821e-09
202 1.622082877745318e-09 1.6220875520744647e-09 -6.153637149151779e-09
203 -4.770962233380877e-09 4.77096045930893e-09 1.0272895182833451e-08
204 4.770958146456992e-09 -4.7709640205096086e-09 1.0272886903931087e-08
205 2.7388481083642007e-09 -5.563590299482263e-09 6.284138497509735e-09
208 1.2560820973870267e-09 6.596323729425118e-12 -5.953646071851653e-09
221 -5.56358349328996e-09 2.738844436668601e-09 6.284139909678203e-09
223 6.601116855854822e-12 1.256088609590026e-09 -5.953657573446162e-09
225 8.22495103058739e-09 8.22495368682481e-09 -2.9793659137759624e-09
178 3.1407737558328666e-09 3.367839686123727e-09 -2.153169314935071e-09
181 6.7552846660718344e-09 -4.2876687451399495e-09 -7.3148646656593425e-09
188 -6.4950312045121e-09 3.924546966266924e-09 1.1403151383051651e-09
206 -2.5793682907533258e-09 -1.5864404063335535e-10 -1.7688746157966063e-09
207 4.822219907396436e-09 -1.130580593973139e-09 -5.210408889783614e-09
209 9.114772990207198e-10 4.280003664165244e-09 -2.0751037808867884e-09
212 5.669030630546822e-09 -5.235221495551396e-09 -1.4365716224339303e-09
227 -1.5221279476748834e-09 3.3060277408767513e-09 -5.726015289767734e-09
229 4.24250618375919e-10 -4.2162911850133607e-10 -4.497222182227112e-11
180 -1.0631027001771085e-09 8.526709608234629e-10 -4.3702732568955354e-09
190 1.3481882441279434e-09 4.938535691869935e-09 -3.510635657275166e-09
210 -2.3466743885470213e-09 -2.521411727251646e-09 -5.748529346799415e-10
211 -2.2956992855297768e-10 3.6612517755604063e-09 -2.7565927680877222e-09
231 -4.229473198187161e-09 -3.1425878194838904e-10 -2.2977023890003416e-09
182 -6.755286891128001e-09 4.287670276134206e-09 -7.314860596960517e-09
183 1.0631028025075091e-09 -8.526709992434289e-10 -4.370274572329138e-09
192 -1.802399159997574e-09 8.5857808542221e-09 2.3552130025075822e-09
213 2.3466738724421066e-09 2.521410329725382e-09 -5.748576190643134e-10
214 -9.114761649739586e-10 -4.2799990400234654e-09 -2.0751037619048532e-09
215 -5.669030014615768e-09 5.235217042810646e-09 -1.4365698143740303e-09
216 2.2956833794148403e-10 -3.66124977051843e-09 -2.756592060244872e-09
233 -2.0776561446294948e-09 -8.316275085084304e-11 4.583376972529038e-09
235 -2.4238132399289825e-09 -4.3749181870389995e-10 1.6465194626984347e-09
184 -4.506119816577342e-09 2.70645157640858e-09 -3.266922462052628e-09
185 -3.140775976086684e-09 -3.367837555916705e-09 -2.153172610647781e-09
194 -1.6052568645847955e-10 1.6052292307240833e-10 5.746372519993762e-09
217 2.5793710600224837e-09 1.586401296008774e-10 -1.7688724318616632e-09
218 -2.7388435650156222e-09 5.563585381271103e-09 6.284143791895706e-09
219 -1.256079047971062e-09 -6.598912510304718e-12 -5.953658029383102e-09
220 -4.822219301756699e-09 1.13058212326788e-09 -5.2104074796507994e-09
237 1.3274925286929221e-09 4.115432219598551e-09 1.892749509715915e-09
239 -3.942707963051699e-09 3.9427101898315634e-09 -6.0788511720674225e-09
187 3.3678410236187934e-09 3.14077611693488e-09 -2.1531681935523134e-09
189 3.9245490028721785e-09 -6.495032293399478e-09 1.1403092169545313e-09
196 -4.28767127605521e-09 6.755290119623358e-09 -7.3148633780652075e-09
222 -1.5864609610153713e-10 -2.5793725007701832e-09 -1.768871753208982e-09
224 -1.1305803250333769e-09 4.822215226914092e-09 -5.210407427423658e-09
228 3.3060254502269757e-09 -1.5221281500766735e-09 -5.726015780930793e-09
241 4.2800058829182815e-09 9.114772016388625e-10 -2.0751069296731434e-09
242 -5.235221082536761e-09 5.669032791180563e-09 -1.436571551221923e-09
243 -4.2162766604183715e-10 4.2425315799390837e-10 -4.496738837655615e-11
426 8.526718320262079e-10 -1.0631047050314874e-09 -4.370278923840523e-09
427 4.938532940506518e-09 1.3481887826611482e-09 -3.5106352632260513e-09
451 -2.521413115172918e-09 -2.3466803872011218e-09 -5.748568595195947e-10
452 3.661251838893319e-09 -2.2957110147345626e-10 -2.7565913777652022e-09
454 -3.142550885571395e-10 -4.229475202954241e-09 -2.2977023923548196e-09
191 -1.135414574436914e-09 -6.182171935105082e-10 -2.1822913706295953e-09
197 -6.18216528552444e-10 -1.135414824616927e-09 -2.182291029652397e-09
226 -4.288481019860825e-09 -4.288481579614332e-09 -5.288606360314953e-09
232 -1.3628781514692405e-09 -3.573968412981739e-09 2.713875715425714e-09
244 -3.573969934749534e-09 -1.3628774305514314e-09 2.7138746833346715e-09
245 -2.792012425182669e-09 -2.79201207562611e-09 -2.821518149386412e-09
198 -4.084551303053899e-09 2.4670745124161692e-09 3.3256546186680915e-09
230 -8.863295751112094e-10 -7.783051234492072e-09 1.6367822689540202e-09
246 -1.9962893128749717e-09 5.519816579483421e-09 -1.9030065956488275e-09
428 2.467073644379522e-09 -4.084556125357014e-09 3.3256539699278302e-09
453 -7.783048996036609e-09 -8.863330726857429e-10 1.6367844746432372e-09
456 5.519815860857819e-09 -1.996286248266317e-09 -1.9030112055194764e-09
455 -4.529614806582263e-09 -4.529613846710245e-09 7.715339335274095e-09
193 3.980294486319635e-09 1.6552234314402416e-09 1.4590373785703578e-09
199 -9.52109497653188e-10 9.52101948354983e-10 1.3252686186755934e-09
234 -9.113319163591597e-10 -5.967492596795803e-09 1.1279099089162558e-09
236 -1.211586783574494e-11 -5.626890755610856e-09 -3.5843660897315272e-09
247 3.825171506949611e-09 -1.3609778132619307e-09 6.019931417511418e-10
248 -6.333750502053098e-09 6.333751301732083e-09 2.9518419575151938e-09
429 2.289438537758715e-09 -2.2894418805108188e-09 2.8926014855276457e-09
457 1.3609771037424276e-09 -3.825169961971308e-09 6.019992862214369e-10
458 1.3101516741985053e-11 -1.3096199107848346e-11 6.8018059132625404e-09
195 4.6312595421519604e-09 -4.631258174491217e-09 5.094162725698119e-09
200 -8.585783222598206e-09 1.8023977431316714e-09 2.355213925694178e-09
238 -4.115438367184651e-09 -1.327489359946194e-09 1.892753790690644e-09
240 1.5214611611429788e-09 -1.5214563484419233e-09 6.36829048408869e-09
249 5.967500252533306e-09 9.113304049518394e-10 1.1279120460872483e-09
250 4.3748522679072705e-10 2.423812511551828e-09 1.6465183481741236e-09
430 -1.655222358607714e-09 -3.9802900312684244e-09 1.4590381592760735e-09
459 8.315998522298182e-11 2.0776545868847987e-09 4.58337726077903e-09
460 5.6268909918104046e-09 1.2113018020266354e-11 -3.5843668231345356e-09
251 -3.4585604901386403e-10 -3.9299835457006866e-09 3.315222848705715e-16
261 3.458503676613896e-10 3.9299800453566346e-09 -1.3894220522099369e-15
262 -1.2957228579908656e-09 -4.649454192313157e-09 -7.653977604526548e-18
263 -3.661250807857512e-09 2.295734582982465e-10 2.7565944147434535e-09
264 5.235215175466986e-09 -5.669033227607365e-09 1.4365741313627657e-09
265 6.320477999337536e-09 -1.9344414873800303e-09 -1.3854106326313892e-15
268 -4.374942122086895e-10 -2.4238097872575565e-09 -1.6465245851487412e-09
311 2.5214124164097867e-09 2.346674669229617e-09 5.748562321935871e-10
312 -4.280000273603243e-09 -9.114780162622045e-10 2.075105258104466e-09
313 -8.5267388074088e-10 1.063108215355726e-09 4.370278314223719e-09
314 4.2876698953376816e-09 -6.755289335916082e-09 7.3148614299778296e-09
315 -8.316361773884576e-11 -2.0776551925743667e-09 -4.583378755005938e-09
318 8.585779325945075e-09 -1.8023996404897573e-09 -2.3552098680782975e-09
266 -6.361778657034789e-10 -9.696018296350086e-09 -8.704857708275488e-16
267 -5.626886446698409e-09 -1.2120995015640178e-11 3.5843724229196214e-09
269 6.0263948101106185e-09 -1.0525846003634989e-09 1.8753745911012497e-15
272 6.3337528674106246e-09 -6.333750818781104e-09 -2.9518400941468423e-09
316 -5.967489207238914e-09 -9.113326492181355e-10 -1.1279089682127442e-09
317 1.6552241350644933e-09 3.980296890719149e-09 -1.4590343409917947e-09
319 -1.360983782696146e-09 3.825167712682904e-09 -6.020017415202535e-10
322 9.520907743045192e-10 -9.521030575063849e-10 -1.3252629493293583e-09
270 1.0525822539577707e-09 -6.02639181103644e-09 1.1802074685979725e-15
271 -1.3102942039345914e-11 1.3100617704096042e-11 -6.801805198666181e-09
320 -3.825164593683073e-09 1.360982296691871e-09 -6.020030461482401e-10
321 -2.289434404066685e-09 2.289431621871621e-09 -2.8925981316714386e-09
273 1.7863601766979258e-09 1.7863578158327547e-09 -2.5237115176023222e-15
274 -5.367429082825269e-09 -5.3674259803169225e-09 -5.774450073983626e-16
275 -5.519820761405503e-09 1.9962835988943796e-09 1.9030164641461314e-09
276 1.9962876716014524e-09 -5.519813820749768e-09 1.90301378708606e-09
323 4.529619966567163e-09 4.529613652209167e-09 -7.715342709027361e-09
324 2.7920090259574746e-09 2.792009575026603e-09 2.8215156970369798e-09
325 -2.4670706378667134e-09 4.084550829994583e-09 -3.3256560681840684e-09
326 4.084551541829963e-09 -2.4670707914574685e-09 -3.325653659069409e-09
277 2.8472098080287193e-09 2.053189371898398e-09 -1.5500055039127488e-15
278 -5.4165491811782455e-09 -5.173962213744318e-09 -4.058108910321527e-16
279 3.142591303872776e-10 4.229482508627206e-09 2.297699685228063e-09
280 3.5739680817363803e-09 1.3628790144745614e-09 -2.71387962810436e-09
327 7.783044747944203e-09 8.863271710187758e-10 -1.6367805350959408e-09
328 4.2163470347090994e-10 -4.242504325330148e-10 4.496969924278712e-11
329 -4.9385353814758175e-09 -1.348191785743464e-09 3.5106358077406645e-09
330 6.182138465461641e-10 1.1354157905188853e-09 2.1822947509112538e-09
281 1.8684248850912465e-09 -1.516036289143314e-08 1.3095805603352678e-15
282 -4.4514243797567453e-10 -7.140976869880301e-09 -2.637620713716747e-15
283 1.1305850122692307e-09 -4.822215537800653e-09 5.2104088636700435e-09
284 -6.608803250305673e-12 -1.2560862709246728e-09 5.953647851393824e-09
285 3.373114243092337e-09 -2.8153226470796378e-09 1.3730782071090947e-15
288 3.9427121497586884e-09 -3.942715804242804e-09 6.078858873581059e-09
331 1.586395454973316e-10 2.5793693938941334e-09 1.7688690569077735e-09
332 5.563589001752587e-09 -2.738849356525343e-09 -6.284136257080027e-09
333 -3.3678350012891207e-09 -3.14077492614105e-09 2.153171451145213e-09
334 2.7064555912950288e-09 -4.50611735529827e-09 3.2669197762568787e-09
335 4.1154310739382596e-09 1.327499337093214e-09 -1.8927537179702354e-09
338 1.605213181664989e-10 -1.6052471317162902e-10 -5.746376037364045e-09
341 -3.980288904179252e-09 -1.6552152152329585e-09 -1.45903527684298e-09
340 2.0776544502650294e-09 8.316527355519662e-11 -4.583371830280748e-09
291 1.2113592011193143e-11 5.626883873315766e-09 3.584368790531366e-09
286 2.8153235229747385e-09 -3.373117487281396e-09 -1.5608111193544332e-16
287 -1.5214599597844014e-09 1.5214613349848832e-09 -6.368292419415335e-09
289 9.696019004837631e-09 6.361771792842619e-10 -1.840552979447323e-15
292 2.4238111872645036e-09 4.374910865108953e-10 -1.6465204470148451e-09
336 -1.327497333526045e-09 -4.115437778502553e-09 -1.892753951454658e-09
337 -4.631254078801835e-09 4.63125349046797e-09 -5.094159387692141e-09
339 9.113311926493218e-10 5.967494077700944e-09 -1.1279139116956313e-09
342 1.8024014364009826e-09 -8.585778848425043e-09 -2.355209494791535e-09
290 1.9344455054585676e-09 -6.3204791049621045e-09 -2.1419131053294685e-15
346 -1.3481987226484216e-09 -4.9385303532627655e-09 3.5106384707245587e-09
345 1.135415956104155e-09 6.182092774146552e-10 2.182297038537192e-09
344 -4.2424800867250605e-10 4.216353383723387e-10 4.4964526839958906e-11
343 8.863276251272269e-10 7.783042862631634e-09 -1.6367837266105558e-09
296 4.229481652582925e-09 3.142617172816299e-10 2.2976994061580365e-09
295 1.3628779732322788e-09 3.5739684183431434e-09 -2.7138778104596677e-09
294 -5.1739599065578235e-09 -5.416544207185977e-09 1.7887104130009773e-15
293 2.0531888882651105e-09 2.8472054223652113e-09 -6.472119278013873e-16
350 6.495027933365323e-09 -3.924551578501302e-09 -1.1403149531564084e-09
349 -3.924552459158961e-09 6.495028331972471e-09 -1.1403176613137785e-09
348 -8.224948783493063e-09 -8.224955246826914e-09 2.979363748162021e-09
347 4.2884862058563796e-09 4.288486087444844e-09 5.288609194319168e-09
300 1.5221205495126728e-09 -3.306023576245296e-09 5.726020202890312e-09
299 -3.3060216870635295e-09 1.5221307115936837e-09 5.726018285869078e-09
298 -1.7017104208354898e-09 -1.701722185749458e-09 1.87297334322532e-15
297 -9.44069996625582e-10 -9.440766840258775e-10 -8.727035249082721e-16
361 4.167224519313711e-09 -2.751866324658589e-11 9.490032064216677e-09
362 4.270486030059251e-10 -4.9508774887986814e-09 5.883958023616649e-10
363 -5.460796339457319e-09 3.368225442993123e-09 5.412562790338234e-16
364 6.010079387427159e-09 -2.913165833280499e-09 -2.1761308875614696e-16
365 2.3542244851754857e-09 6.914366007091727e-09 -2.0419752962072273e-09
368 4.3982320684978945e-09 5.203662017697584e-11 1.2710152062654015e-15
406 4.1672255614552894e-09 -2.752502895470498e-11 -9.49003170012747e-09
407 4.2704981803735033e-10 -4.9508762598100025e-09 -5.883966237385165e-10
408 2.354226216418925e-09 6.914366248767711e-09 2.041977323518198e-09
366 4.855575734801892e-10 -2.196806409777538e-09 -4.693022919801607e-09
367 -1.3139789306694991e-08 4.506818214719561e-09 1.9696235702314983e-15
369 3.5275275108169223e-09 -4.728092366049745e-10 -1.6369756283816484e-10
372 1.8409513073309479e-09 -1.8409492402003577e-09 6.80370370455311e-16
409 4.855557070556105e-10 -2.1968068420021555e-09 4.693020987022183e-09
410 3.527525085062952e-09 -4.72813405171287e-10 1.6369289218592918e-10
370 4.728170468888079e-10 -3.5275292420885012e-09 -1.6369038243166486e-10
371 -2.941031300789602e-09 2.9410415404750046e-09 1.0887407947458401e-15
411 4.728141354058032e-10 -3.527527931007161e-09 1.6369169628944797e-10
373 3.675169416231569e-09 3.6751707505468587e-09 -1.6473740930359862e-09
374 -4.898621689654353e-09 -4.898621142920227e-09 -4.3365029983818097e-10
375 1.0082705180937748e-09 4.794952708576108e-09 1.271273739056731e-15
376 4.794942903086416e-09 1.0082645185876816e-09 9.856606637593884e-17
412 3.6751699514741763e-09 3.6751752985103357e-09 1.6473718041965263e-09
413 -4.898616814405363e-09 -4.898628937370832e-09 4.3365265478699627e-10
377 2.0121855372535837e-10 1.7735558898772184e-09 -2.891053142599456e-09
378 -5.553902282876942e-10 -2.4981908812365463e-09 1.7796267300098742e-09
379 4.5185200286959954e-09 -9.72555215645034e-10 -7.900105511809363e-16
380 1.880496764532598e-09 -2.2513325352107148e-10 1.4559816417708688e-15
414 2.0121234004624542e-10 1.773565325580747e-09 2.8910522184191795e-09
415 -5.553904032786332e-10 -2.4981902754467306e-09 -1.7796263090411059e-09
381 4.210106892343781e-09 5.002982331169081e-09 1.3390244096588932e-09
382 -2.859276432939407e-09 -1.0310893125331952e-10 -1.3896680405446868e-09
383 -1.778181009725706e-10 6.602984535947261e-09 -2.0466358574554746e-16
384 3.763467129841344e-09 -2.54005946527268e-09 -5.2158105425042284e-15
385 2.858745807861738e-09 4.700258626666181e-09 2.5492356284940457e-09
388 1.4374739832413911e-09 -1.4374752283159684e-09 2.2091597706986497e-16
416 4.2101060374995374e-09 5.00297763620421e-09 -1.3390184629685285e-09
417 -2.8592746031885257e-09 -1.0310382830142717e-10 1.3896689593221554e-09
418 2.858745647142278e-09 4.700253682823359e-09 -2.5492390592130482e-09
421 -6.914360608158077e-09 -2.354230049345188e-09 2.0419765705511164e-09
391 -4.506820709495961e-09 1.3139786414785879e-08 2.754227796238649e-15
390 -6.914362042367674e-09 -2.354221551103838e-09 -2.0419843160762963e-09
386 -4.700253803177079e-09 -2.8587497557618128e-09 2.549239030241547e-09
387 2.00670146910146e-10 -2.006665101263281e-10 -3.512927153803029e-16
389 2.1968015445037635e-09 -4.855538433714209e-10 -4.693018592346669e-09
392 -5.204333943367013e-11 -4.39823582202821e-09 -5.714969944713155e-16
419 -4.700257431643164e-09 -2.8587444817960483e-09 -2.5492402770144675e-09
420 2.196806637786286e-09 -4.855545165274954e-10 4.693019534941397e-09
423 -2.4981908584835353e-09 -5.553848448400344e-10 -1.7796326436080416e-09
422 1.773552385411574e-09 2.0121964623686267e-10 2.8910493123757693e-09
396 -9.725505046232749e-10 4.518517552412054e-09 6.37335037185154e-15
395 -2.2513149941887798e-10 1.880503318991932e-09 -4.6845719694528e-15
394 -2.4981859755621747e-09 -5.553915924966438e-10 1.779629693224792e-09
393 1.773559469756832e-09 2.0121658127844591e-10 -2.8910531416221903e-09
425 4.955300650719057e-10 4.955319082547675e-10 -5.783798338321861e-09
424 3.4301638382205714e-09 3.4301609718059587e-09 -2.2056560101210156e-10
400 6.612521434064338e-09 -2.151146174603351e-09 2.8439779530544724e-17
399 -2.151147161666306e-09 6.6125234195961756e-09 -1.2462476476076167e-15
398 4.955325910345932e-10 4.955316171785015e-10 5.7838050209947e-09
397 3.4301602375493814e-09 3.4301622163277094e-09 2.205675025002633e-10
431 -8.526692223200007e-10 1.0631062196185851e-09 -4.370281178987473e-09
432 4.2876716171824865e-09 -6.755287078743078e-09 -7.314865750723226e-09
434 8.585778571528803e-09 -1.8024012335400915e-09 2.355207754215707e-09
461 2.5214110741122237e-09 2.346674220796576e-09 -5.748513960803649e-10
462 -4.2800039667224765e-09 -9.114707500861319e-10 -2.075102759455973e-09
463 -3.6612524935335213e-09 2.295745553683698e-10 -2.7565910433163966e-09
464 5.2352185379644026e-09 -5.669032756962781e-09 -1.4365773786002838e-09
465 -8.316128752944948e-11 -2.0776566319079038e-09 4.58337781117248e-09
468 -4.3749042691108447e-10 -2.4238134801059456e-09 1.6465236772507547e-09
433 1.6552196986793136e-09 3.980294434242572e-09 1.459031435481865e-09
436 9.520966145080996e-10 -9.520978564034855e-10 1.3252634947127822e-09
466 -5.967490043807645e-09 -9.113267469508564e-10 1.127911990258235e-09
467 -5.626892448101582e-09 -1.2116850461806322e-11 -3.584369230985843e-09
469 -1.3609767039205865e-09 3.825169261487784e-09 6.020024030640433e-10
472 6.333750753951515e-09 -6.333747068031922e-09 2.9518362329402577e-09
435 -2.2894348134466186e-09 2.2894373296378217e-09 2.8926008909303653e-09
470 -3.82517016634332e-09 1.3609742813264612e-09 6.020059755205707e-10
471 -1.3096399315407455e-11 1.310035836932544e-11 6.801800275432684e-09
437 -2.467069714713533e-09 4.08455188654189e-09 3.325650990200888e-09
438 4.08455563835686e-09 -2.467072174576245e-09 3.325653446634011e-09
473 4.529609540986717e-09 4.529614437417222e-09 7.715345593976607e-09
474 2.792008711120228e-09 2.792016046124148e-09 -2.821517782826192e-09
475 -5.519820385824774e-09 1.996284256609422e-09 -1.9030102494928065e-09
476 1.9962888310146916e-09 -5.519818728900426e-09 -1.9030108112645905e-09
439 -4.938534577057779e-09 -1.3481906691632017e-09 -3.5106359584189687e-09
440 6.182121541166455e-10 1.135413201373363e-09 -2.1822985247884152e-09
477 7.783051084086956e-09 8.863279712346305e-10 1.6367822833544724e-09
478 4.21628780042634e-10 -4.2425227586595456e-10 -4.496000953225678e-11
479 3.142595506056559e-10 4.229478488938262e-09 -2.2977027303855646e-09
480 3.5739746281384023e-09 1.362880883545877e-09 2.713877224755392e-09
441 -3.367840629814142e-09 -3.1407752467076418e-09 -2.1531677446690385e-09
442 2.7064551815821097e-09 -4.506118868084431e-09 -3.266928180624444e-09
444 1.605209694907685e-10 -1.6052083390175117e-10 5.746375206377512e-09
481 1.586529636704623e-10 2.5793628383185944e-09 -1.7688697388621703e-09
482 5.563588800047766e-09 -2.738847577650901e-09 6.284138655926655e-09
483 1.1305795614365523e-09 -4.822219235422226e-09 -5.210410441815171e-09
484 -6.5972193303962024e-12 -1.2560787310063423e-09 -5.953645283859533e-09
485 4.1154319250680736e-09 1.3274930758421806e-09 1.892753960438471e-09
488 3.942709475518945e-09 -3.942708970016402e-09 -6.078854270895394e-09
491 1.2112348359953153e-11 5.626889984121105e-09 -3.5843652046154972e-09
490 2.077655395875526e-09 8.316564976672114e-11 4.583375988117657e-09
445 -3.980291109689076e-09 -1.6552181135954241e-09 1.4590313139397958e-09
443 -4.63124847139141e-09 4.631252708106707e-09 5.094163663740091e-09
446 1.8023977757188944e-09 -8.585784560055166e-09 2.3552136400148573e-09
486 -1.3274928030542517e-09 -4.115432798690826e-09 1.892749706168007e-09
487 -1.521457578011687e-09 1.5214593526562728e-09 6.368291444309375e-09
489 9.113255752746401e-10 5.967492981071675e-09 1.1279114740118183e-09
492 2.4238122998319384e-09 4.3748699583506066e-10 1.6465232582757958e-09
496 4.229476767105182e-09 3.142605482491093e-10 -2.2977011241758526e-09
495 1.3628742022073252e-09 3.573964227113295e-09 2.713877226818636e-09
494 -4.2425506140259946e-10 4.216296458037672e-10 -4.496993655888854e-11
493 8.863351700373761e-10 7.783049638554495e-09 1.6367787686363488e-09
448 -1.3481905204184973e-09 -4.938535905342982e-09 -3.510633401107568e-09
447 1.1354133454365107e-09 6.182122643530345e-10 -2.1822892138877827e-09
500 1.522127650602954e-09 -3.3060234261673036e-09 -5.726021048729876e-09
499 -3.306033563635524e-09 1.5221235726837485e-09 -5.726017037745456e-09
498 -8.224962280757295e-09 -8.22494806687065e-09 -2.9793662922091066e-09
497 4.288486566681393e-09 4.288485350862058e-09 -5.288606259544029e-09
450 6.495037913551808e-09 -3.9245507125512865e-09 1.140316008798841e-09
449 -3.924553268379494e-09 6.495036866007422e-09 1.140308901861683e-09
