LAMMPS data file via write_data, version 29 Aug 2024, timestep = 28, units = metal

500 atoms
3 atom types

0 17.54446929172512 xlo xhi
0 17.54446929172512 ylo yhi
0 17.54446929172512 zlo zhi

Masses

1 56.651
2 55.845
3 55.845

Atoms # atomic

2 3 1.7546762008042383 1.7546762008042367 1.1077435927267884e-18 0 0 0
3 1 1.7533607547644616 0.0010861744080478061 1.7521961850871222 0 0 0
4 1 0.0010861744080486776 1.7533607547644614 1.7521961850871228 0 0 0
5 1 3.5052193138154837 0.0010803047858251762 1.347252014648728e-19 0 0 0
8 1 3.5088724097791193 1.7551575324478572 1.7543108061298505 0 0 0
11 1 0.0010803047858234755 3.505219313815485 0 0 0 0
13 1 1.7551575324478574 3.5088724097791206 1.754310806129852 0 0 0
15 1 3.5059644481855528 3.505964448185553 9.454400102798091e-20 0 0 0
52 1 1.7550458958431974 1.7550458958431971 3.506714761895207 0 0 0
53 1 1.7540355308706073 0.00041139830190208465 5.262374263570204 0 0 0
54 1 0.0004113983019027482 1.7540355308706077 5.262374263570204 0 0 0
58 1 3.508469442086609 1.7541785992565608 5.262644243800739 0 0 0
63 1 1.7541785992565613 3.5084694420866094 5.262644243800738 0 0 0
65 1 3.509900622998184 3.5099006229981855 3.509983514630761 0 0 0
6 1 5.260114054159015 1.7541164066703592 0 0 0 0
9 1 7.017283583678352 0.000418874044536804 6.163087067011506e-19 0 0 0
10 1 7.017141897635469 1.7543936230196664 1.7539869721508405 0 0 0
17 1 5.263906455499456 3.5095479013643134 1.7548286096741312 0 0 0
19 1 7.017226754783275 3.5083128425493224 0 0 0 0
56 1 5.260915251938281 1.7541890449370983 3.50664889177291 0 0 0
57 1 5.26260145583315 0.0002719963173430678 5.2624230073149665 0 0 0
59 1 7.0174861400401385 0.0002709924935125425 3.508662060137685 0 0 0
60 1 7.017024184605126 1.7543214638342353 5.262568229023932 0 0 0
67 1 5.2633894080250405 3.508571020533812 5.263211496158866 0 0 0
69 1 7.017453077433373 3.508523736157074 3.5087870894920514 0 0 0
251 1 8.772206154260898 1.7543986479380618 1.6970648184522575e-18 0 0 0
252 1 8.772049387183621 7.69343071573642e-05 1.754318161761952 0 0 0
262 1 8.772060036526101 3.508718408604012 1.7543446081583494 0 0 0
301 1 8.7721285301541 1.754414879879046 3.508571683770345 0 0 0
302 1 8.772145755094018 0.00012339570343411206 5.263088747601941 0 0 0
312 1 8.772161670030625 3.508665845474985 5.263156611690719 0 0 0
12 1 1.7541164066703596 5.260114054159016 0 0 0 0
18 1 3.509547901364313 5.2639064554994555 1.7548286096741312 0 0 0
21 1 0.00041887404453558373 7.017283583678354 3.255859035401093e-19 0 0 0
23 1 1.7543936230196662 7.01714189763547 1.7539869721508399 0 0 0
25 1 3.5083128425493215 7.017226754783277 0 0 0 0
62 1 1.7541890449370978 5.260915251938281 3.506648891772911 0 0 0
64 1 0.00027199631734226167 5.262601455833148 5.2624230073149665 0 0 0
68 1 3.508571020533812 5.26338940802504 5.263211496158865 0 0 0
71 1 0.0002709924935144197 7.01748614004014 3.5086620601376852 0 0 0
73 1 1.7543214638342357 7.017024184605126 5.262568229023931 0 0 0
75 1 3.5085237361570747 7.017453077433373 3.5087870894920523 0 0 0
22 1 1.7543986479380629 8.772206154260898 0 0 0 0
24 1 7.693430715569547e-05 8.772049387183621 1.7543181617619512 0 0 0
28 1 3.508718408604012 8.772060036526101 1.7543446081583474 0 0 0
72 1 1.7544148798790455 8.772128530154099 3.508571683770345 0 0 0
74 1 0.00012339570343432857 8.772145755094018 5.263088747601941 0 0 0
78 1 3.508665845474984 8.772161670030624 5.263156611690718 0 0 0
16 1 5.260454466772855 5.260454466772854 3.6969797394161666e-19 0 0 0
20 1 7.017542530643223 5.263261231716953 1.7540716627080484 0 0 0
27 1 5.263261231716953 7.017542530643223 1.7540716627080493 0 0 0
29 1 7.016905020269854 7.016905020269854 4.396296047801113e-19 0 0 0
66 1 5.263775618026593 5.263775618026594 3.5092174794619444 0 0 0
70 1 7.017849944860005 5.263237296139343 5.263355448215676 0 0 0
77 1 5.263237296139343 7.017849944860006 5.263355448215675 0 0 0
79 1 7.017848517849239 7.01784851784924 3.5087435301409133 0 0 0
26 1 5.262977845174315 8.772139597703843 1.5976813444465824e-16 0 0 0
30 1 7.017640861851885 8.772166964780487 1.7542136672099753 0 0 0
76 1 5.263132952011333 8.772084846696695 3.5086806439099045 0 0 0
261 1 8.772139597703843 5.2629778451743165 0 0 0 0
272 1 8.772166964780487 7.017640861851885 1.7542136672099737 0 0 0
311 1 8.772084846696695 5.263132952011333 3.508680643909904 0 0 0
271 1 8.772017791763284 8.772017791763284 1.049438411410588e-18 0 0 0
31 1 4.828123444849022e-05 10.526710066636735 0 0 0 0
32 1 1.7540280551279748 12.281632637219282 5.359463058273669e-19 0 0 0
33 1 1.754369994865354 10.526866833714012 1.7543181617619512 0 0 0
34 1 5.330615284358705e-05 12.281774323262164 1.753986972150841 0 0 0
35 1 3.5086161012233354 10.526798804739354 0 0 0 0
38 1 3.508790682220675 12.28151991463491 1.7540945061367192 0 0 0
81 1 3.204929346520682e-05 10.526787690743534 3.5085716837703456 0 0 0
82 1 1.754175936678997 12.281430080857495 3.5086620601376857 0 0 0
83 1 1.7543235334690772 10.526770465803615 5.26308874760194 0 0 0
84 1 0.00012546533827587246 12.281892036292506 5.26256822902393 0 0 0
85 1 3.508739586119036 10.526858182830198 3.50866304826427 0 0 0
88 1 3.5086929475222255 12.281196433824519 5.263270349684852 0 0 0
36 1 5.262403146380362 12.281962713764417 3.3532629055627586e-17 0 0 0
37 1 5.2631268948921734 10.526782660990145 1.7542862068610727 0 0 0
39 1 7.017394449871005 10.526927252246656 0 0 0 0
40 1 7.017576171248024 12.281340049649609 1.7541931925241088 0 0 0
80 1 7.017718080730431 8.77224919851312 5.263236353145069 0 0 0
86 1 5.263244834263163 12.281280788178021 3.5086937797048665 0 0 0
87 1 5.263178808191821 10.526701846935321 5.2631927503568985 0 0 0
89 1 7.017678957519179 10.526702524144108 3.508687352577805 0 0 0
90 1 7.0177209176239845 12.281195303273648 5.263236256248635 0 0 0
281 1 8.771988968650977 12.281521771026629 0 0 0 0
282 1 8.77216639563688 10.526749825260753 1.7542190029015636 0 0 0
331 1 8.772213696753525 12.281237263378454 3.508687352577805 0 0 0
332 1 8.772203610726612 10.526712610171021 5.263216869575463 0 0 0
55 1 3.507139382532923 17.543879495345745 3.5072230237740567 0 -1 0
41 1 0.000330522502151734 14.038802166738616 1.0707108116418838e-18 0 0 0
42 1 1.7533666243866866 15.793696907082149 9.465223253429859e-16 0 0 0
43 1 1.7550206897007687 14.035347073296602 1.754657626410735 0 0 0
45 1 3.5061459177204783 14.038384205805192 0 0 0 0
48 1 3.5100609248594545 15.788855296038179 1.7555650332146502 0 0 0
91 1 0.00025788423541217933 14.038000968959352 3.506648891772911 0 0 0
92 1 1.7550367255518877 15.79177683836471 3.507223023774057 0 0 0
93 1 1.7541749328551677 14.036314765064485 5.2624230073149665 0 0 0
94 1 0.0002683299159505006 15.790446778811026 5.262644243800739 0 0 0
95 1 3.5089500472942796 14.035461752080305 3.5091928831233594 0 0 0
98 1 3.5085854368507894 15.790330784046844 5.262923107091956 0 0 0
100 1 7.017719787073113 15.790223273375409 5.263270349684853 0 0 0
99 1 7.017635432719612 14.035671386634471 3.5086937797048656 0 0 0
97 1 5.263293689561907 14.035622531335726 5.263407417744473 0 0 0
7 1 5.263569147601032 17.543895531196863 1.7546576264107367 0 -1 0
96 1 5.263454468817329 15.789966173603352 3.5091928831233585 0 0 0
50 1 7.0173963062627225 15.790125538676957 1.7540945061367192 0 0 0
46 1 5.260532015092441 15.792770303177154 0 0 0 0
47 1 5.263073682215075 14.035842538682559 1.7538855783991647 0 0 0
49 1 7.016953507133216 14.036513074517272 2.278165118203132e-16 0 0 0
342 1 8.772214373962312 14.035737412705812 5.2631927503568985 0 0 0
341 1 8.772058038067437 15.790176634778597 3.508663048264268 0 0 0
291 1 8.772117416158277 15.790300119674297 0 0 0 0
292 1 8.772133559907488 14.035789326005458 1.7542862068610736 0 0 0
101 1 7.24038420278275e-05 7.240384202718899e-05 7.017565397748511 0 0 0
102 1 1.7543745253304843 1.7543745253304837 7.017565397748511 0 0 0
103 1 1.7543863774663007 6.055170621277163e-05 8.77223464586256 0 0 0
104 1 6.055170621238536e-05 1.7543863774662993 8.77223464586256 0 0 0
105 1 3.5085911044706104 8.130176859373498e-05 7.017480861806658 0 0 0
108 1 3.5087225096299677 1.7544139783352464 8.77223464586256 0 0 0
111 1 8.130176859263166e-05 3.5085911044706117 7.017480861806658 0 0 0
113 1 1.7544139783352473 3.5087225096299695 8.772234645862559 0 0 0
115 1 3.5086994546265844 3.5086994546265857 7.017425136568155 0 0 0
151 1 7.240384202551148e-05 7.24038420284669e-05 10.526903893976609 0 0 0
152 1 1.7543745253304852 1.7543745253304823 10.526903893976607 0 0 0
153 1 3.50859110447061 8.130176859426241e-05 10.526988429918465 0 0 0
156 1 8.13017685910018e-05 3.508591104470612 10.526988429918465 0 0 0
158 1 3.5086994546265857 3.508699454626585 10.527044155156965 0 0 0
106 1 5.263015421987154 1.7543207472641569 7.017578893874771 0 0 0
107 1 5.263057001664627 3.983658781585777e-05 8.77223464586256 0 0 0
109 1 7.017443430860414 0.00012530233997035364 7.017464606054079 0 0 0
110 1 7.0175606088043 1.7543289069697183 8.77223464586256 0 0 0
117 1 5.263127606538276 3.508749741954798 8.77223464586256 0 0 0
119 1 7.017693894166367 3.508668801421552 7.017708261712454 0 0 0
154 1 5.263015421987154 1.7543207472641569 10.52689039785035 0 0 0
155 1 7.017443430860416 0.00012530233996882595 10.527004685671043 0 0 0
160 1 7.017693894166366 3.508668801421553 10.526761030012665 0 0 0
351 1 8.772011700755213 1.7543299346938863 7.01750915026332 0 0 0
352 1 8.772160438069019 0.00011649936397730168 8.77223464586256 0 0 0
362 1 8.772187362893058 3.5086695704572715 8.77223464586256 0 0 0
401 1 8.772011700755215 1.7543299346938857 10.526960141461801 0 0 0
112 1 1.754320747264157 5.263015421987153 7.017578893874771 0 0 0
114 1 3.9836587815312914e-05 5.2630570016646265 8.77223464586256 0 0 0
118 1 3.5087497419547975 5.263127606538277 8.77223464586256 0 0 0
121 1 0.0001253023399685527 7.017443430860417 7.017464606054079 0 0 0
123 1 1.75432890696972 7.017560608804301 8.77223464586256 0 0 0
125 1 3.508668801421552 7.017693894166368 7.017708261712455 0 0 0
157 1 1.7543207472641573 5.263015421987156 10.52689039785035 0 0 0
161 1 0.00012530233996963167 7.017443430860417 10.527004685671042 0 0 0
163 1 3.508668801421552 7.017693894166368 10.526761030012667 0 0 0
122 1 1.7543299346938879 8.772011700755215 7.0175091502633204 0 0 0
124 1 0.00011649936397727487 8.772160438069017 8.772234645862559 0 0 0
128 1 3.5086695704572697 8.772187362893058 8.77223464586256 0 0 0
162 1 1.7543299346938872 8.772011700755213 10.526960141461803 0 0 0
116 1 5.263179299711698 5.263179299711699 7.01763134280806 0 0 0
120 1 7.017674130670751 5.263173187111698 8.77223464586256 0 0 0
127 1 5.263173187111697 7.017674130670752 8.77223464586256 0 0 0
129 1 7.017722071589331 7.017722071589332 7.0177710313207795 0 0 0
159 1 5.263179299711698 5.263179299711698 10.52683794891706 0 0 0
165 1 7.01772207158933 7.017722071589332 10.526698260404343 0 0 0
130 1 7.017694349896289 8.77222138666085 8.77223464586256 0 0 0
372 1 8.77222138666085 7.01769434989629 8.77223464586256 0 0 0
371 1 8.772213309519023 8.772213309519023 7.017735696546419 0 0 0
411 1 8.772213309519023 8.772213309519023 10.526733595178703 0 0 0
131 1 0.00011699447862379636 10.526904520142418 7.01750915026332 0 0 0
132 1 1.7543216268325434 12.281472790037215 7.01746460605408 0 0 0
133 1 1.754330429808536 10.526755782828616 8.772234645862559 0 0 0
134 1 0.0001180222027919025 12.281355612093334 8.772234645862559 0 0 0
135 1 3.5086726491082247 10.526703750070983 7.017723554912048 0 0 0
138 1 3.5086639934433768 12.281307076765106 8.772234645862559 0 0 0
166 1 0.00011699447862345756 10.52690452014242 10.526960141461803 0 0 0
167 1 1.754321626832544 12.281472790037217 10.527004685671042 0 0 0
168 1 3.5086726491082265 10.526703750070984 10.526745736813075 0 0 0
126 1 5.263175481142357 8.772247318729788 7.017765869299009 0 0 0
136 1 5.263176348117129 12.281202061063581 7.017778055712922 0 0 0
137 1 5.263163488843854 10.526725119973763 8.77223464586256 0 0 0
139 1 7.017691220965017 10.526721684452918 7.0177386173721 0 0 0
140 1 7.017684237834806 12.281231983062826 8.77223464586256 0 0 0
164 1 5.2631754811423574 8.772247318729788 10.526703422426113 0 0 0
169 1 5.263176348117129 12.28120206106358 10.5266912360122 0 0 0
170 1 7.017691220965016 10.526721684452916 10.526730674353022 0 0 0
381 1 8.772194536444717 12.281224999932615 7.017738617372099 0 0 0
382 1 8.772198260552207 10.526717960345426 8.77223464586256 0 0 0
416 1 8.772194536444717 12.281224999932615 10.526730674353022 0 0 0
141 1 0.00012618190835278197 14.035900798910479 7.017578893874772 0 0 0
142 1 1.7543656274039177 15.790325116427024 7.017480861806656 0 0 0
143 1 1.7544070925846973 14.035859219233005 8.77223464586256 0 0 0
144 1 3.295083726290327e-05 15.790193711267662 8.77223464586256 0 0 0
145 1 3.5086379323751435 14.035812915019955 7.017520537084221 0 0 0
148 1 3.508735306150031 15.790180914747602 8.77223464586256 0 0 0
171 1 0.0001261819083547296 14.03590079891048 10.526890397850348 0 0 0
172 1 1.7543656274039183 15.790325116427022 10.526988429918465 0 0 0
173 1 3.5086379323751418 14.035812915019955 10.526948754640902 0 0 0
146 1 5.263103305877679 15.790278288522488 7.01752053708422 0 0 0
147 1 5.263119512658415 14.03579670823922 8.77223464586256 0 0 0
149 1 7.017714159834051 14.035739872780505 7.017778055712924 0 0 0
150 1 7.017609144132526 15.790252227454252 8.772234645862559 0 0 0
174 1 5.26310330587768 15.790278288522488 10.526948754640902 0 0 0
175 1 7.01771415983405 14.035739872780505 10.526691236012198 0 0 0
421 1 8.77221247082665 15.790243571789405 10.526745736813075 0 0 0
391 1 8.77221247082665 15.790243571789404 7.017723554912046 0 0 0
392 1 8.77219110092387 14.03575273205378 8.77223464586256 0 0 0
176 1 1.7540355308706088 0.0004113983019023273 12.282095028154917 0 0 0
177 1 0.0004113983019001659 1.754035530870607 12.282095028154918 0 0 0
179 1 3.5084694420866094 1.7541785992565606 12.281825047924384 0 0 0
181 1 1.7541785992565622 3.508469442086611 12.281825047924386 0 0 0
202 1 1.7550458958431971 1.7550458958431974 14.037754529829915 0 0 0
203 1 1.7533607547644618 0.0010861744080500114 15.792273106638 0 0 0
204 1 0.0010861744080491596 1.7533607547644607 15.792273106638 0 0 0
208 1 3.508872409779119 1.7551575324478572 15.79015848559527 0 0 0
213 1 1.7551575324478577 3.5088724097791197 15.790158485595269 0 0 0
215 1 3.5099006229981837 3.5099006229981864 14.03448577709436 0 0 0
178 1 5.26260145583315 0.00027199631734537273 12.282046284410155 0 0 0
180 1 7.017024184605125 1.7543214638342348 12.281901062701191 0 0 0
183 1 5.2633894080250405 3.508571020533812 12.281257795566257 0 0 0
206 1 5.260915251938282 1.754189044937098 14.03782039995221 0 0 0
209 1 7.017486140040138 0.0002709924935135262 14.035807231587436 0 0 0
210 1 7.017141897635469 1.754393623019666 15.790482319574282 0 0 0
217 1 5.263906455499456 3.5095479013643143 15.78964068205099 0 0 0
219 1 7.017453077433373 3.5085237361570742 14.035682202233067 0 0 0
426 1 8.772145755094016 0.00012339570343485227 12.28138054412318 0 0 0
431 1 8.772161670030625 3.508665845474985 12.281312680034404 0 0 0
451 1 8.7721285301541 1.7544148798790458 14.035897607954777 0 0 0
452 1 8.772049387183621 7.693430715870779e-05 15.79015112996317 0 0 0
462 1 8.772060036526103 3.508718408604012 15.790124683566773 0 0 0
182 1 0.00027199631734311694 5.262601455833149 12.282046284410153 0 0 0
184 1 3.5085710205338105 5.26338940802504 12.281257795566258 0 0 0
186 1 1.7543214638342357 7.017024184605127 12.28190106270119 0 0 0
212 1 1.754189044937099 5.260915251938279 14.03782039995221 0 0 0
218 1 3.509547901364314 5.2639064554994555 15.78964068205099 0 0 0
221 1 0.00027099249351231804 7.01748614004014 14.035807231587437 0 0 0
223 1 1.7543936230196664 7.01714189763547 15.79048231957428 0 0 0
225 1 3.508523736157074 7.017453077433373 14.035682202233069 0 0 0
187 1 0.0001233957034333912 8.772145755094018 12.281380544123179 0 0 0
189 1 3.5086658454749835 8.772161670030624 12.281312680034404 0 0 0
222 1 1.7544148798790462 8.7721285301541 14.035897607954775 0 0 0
224 1 7.693430715661022e-05 8.77204938718362 15.79015112996317 0 0 0
228 1 3.508718408604011 8.772060036526103 15.790124683566773 0 0 0
185 1 7.017849944860005 5.2632372961393425 12.281113843509447 0 0 0
188 1 5.263237296139343 7.017849944860007 12.281113843509447 0 0 0
216 1 5.263775618026593 5.263775618026593 14.035251812263176 0 0 0
220 1 7.017542530643223 5.263261231716954 15.790397629017074 0 0 0
227 1 5.263261231716954 7.017542530643224 15.790397629017072 0 0 0
229 1 7.017848517849239 7.017848517849239 14.035725761584208 0 0 0
226 1 5.263132952011333 8.772084846696693 14.035788647815217 0 0 0
230 1 7.017640861851885 8.772166964780487 15.790255624515147 0 0 0
461 1 8.772084846696695 5.263132952011333 14.035788647815217 0 0 0
472 1 8.772166964780487 7.017640861851886 15.790255624515147 0 0 0
191 1 1.7543235334690765 10.526770465803615 12.28138054412318 0 0 0
192 1 0.00012546533827327523 12.281892036292504 12.28190106270119 0 0 0
194 1 3.508692947522225 12.281196433824519 12.281198942040268 0 0 0
231 1 3.204929346578482e-05 10.526787690743534 14.035897607954775 0 0 0
232 1 1.7541759366789977 12.281430080857493 14.035807231587437 0 0 0
233 1 1.7543699948653548 10.526866833714012 15.79015112996317 0 0 0
234 1 5.330615284521023e-05 12.281774323262164 15.79048231957428 0 0 0
235 1 3.508739586119036 10.526858182830196 14.035806243460854 0 0 0
238 1 3.5087906822206736 12.28151991463491 15.790374785588403 0 0 0
190 1 7.017718080730431 8.772249198513121 12.281232938580052 0 0 0
193 1 5.263178808191821 10.526701846935323 12.281276541368223 0 0 0
195 1 7.017720917623983 12.281195303273648 12.281233035476486 0 0 0
236 1 5.263244834263164 12.281280788178021 14.035775512020255 0 0 0
237 1 5.263126894892174 10.526782660990145 15.790183084864049 0 0 0
239 1 7.017678957519179 10.526702524144108 14.035781939147316 0 0 0
240 1 7.017576171248023 12.281340049649609 15.79027609920101 0 0 0
441 1 8.772203610726612 10.526712610171023 12.281252422149658 0 0 0
481 1 8.772213696753525 12.281237263378452 14.035781939147316 0 0 0
482 1 8.77216639563688 10.526749825260751 15.790250288823557 0 0 0
205 1 3.5071393825329227 17.543879495345745 14.037246267951062 0 -1 0
196 1 1.7541749328551686 14.036314765064485 12.282046284410155 0 0 0
197 1 0.00026832991595065195 15.790446778811024 12.281825047924384 0 0 0
199 1 3.5085854368507885 15.790330784046843 12.281546184633164 0 0 0
241 1 0.00025788423541066817 14.038000968959354 14.037820399952212 0 0 0
242 1 1.7550367255518875 15.79177683836471 14.037246267951062 0 0 0
243 1 1.7550206897007699 14.0353470732966 15.789811665314385 0 0 0
245 1 3.5089500472942805 14.035461752080305 14.035276408601764 0 0 0
248 1 3.510060924859455 15.788855296038179 15.78890425851047 0 0 0
250 1 7.0173963062627225 15.790125538676957 15.790374785588403 0 0 0
249 1 7.017635432719612 14.035671386634471 14.035775512020255 0 0 0
207 1 5.263569147601032 17.543895531196863 15.789811665314385 0 -1 0
247 1 5.263073682215074 14.035842538682559 15.790583713325956 0 0 0
246 1 5.263454468817328 15.789966173603352 14.035276408601764 0 0 0
198 1 5.263293689561908 14.035622531335726 12.281061873980649 0 0 0
200 1 7.017719787073114 15.790223273375409 12.281198942040268 0 0 0
446 1 8.772214373962314 14.035737412705812 12.281276541368223 0 0 0
492 1 8.772133559907488 14.03578932600546 15.790183084864049 0 0 0
491 1 8.772058038067437 15.790176634778595 14.03580624346085 0 0 0
253 1 10.526710066636733 4.828123445002873e-05 1.4922690885223228e-16 0 0 0
254 1 12.28163263721928 1.7540280551279739 3.4860108113163697e-17 0 0 0
255 1 12.281774323262162 5.3306152846167405e-05 1.7539869721508408 0 0 0
256 1 10.526866833714012 1.7543699948653537 1.754318161761951 0 0 0
263 1 10.526798804739355 3.508616101223335 0 0 0 0
265 1 12.28151991463491 3.508790682220675 1.7540945061367188 0 0 0
303 1 10.526787690743532 3.204929346632168e-05 3.5085716837703447 0 0 0
304 1 12.281430080857495 1.7541759366789968 3.5086620601376852 0 0 0
305 1 12.281892036292508 0.0001254653382768166 5.262568229023931 0 0 0
306 1 10.526770465803615 1.7543235334690765 5.263088747601942 0 0 0
313 1 10.526858182830196 3.5087395861190362 3.508663048264269 0 0 0
315 1 12.281196433824519 3.5086929475222255 5.263270349684853 0 0 0
257 1 14.038802166738618 0.0003305225021515333 7.349295747877954e-19 0 0 0
258 1 15.793696907082149 1.753366624386687 0 0 0 0
260 1 14.0353470732966 1.7550206897007687 1.7546576264107363 0 0 0
267 1 14.038384205805192 3.5061459177204797 8.169792721643001e-19 0 0 0
269 1 15.788855296038179 3.510060924859456 1.75556503321465 0 0 0
307 1 14.038000968959352 0.00025788423541416565 3.506648891772911 0 0 0
308 1 15.791776838364708 1.7550367255518864 3.5072230237740567 0 0 0
309 1 15.790446778811026 0.0002683299159505396 5.262644243800738 0 0 0
310 1 14.036314765064484 1.7541749328551668 5.2624230073149665 0 0 0
317 1 14.035461752080304 3.508950047294281 3.509192883123359 0 0 0
319 1 15.790330784046844 3.5085854368507916 5.262923107091957 0 0 0
61 1 17.543879495345745 3.507139382532925 3.5072230237740576 -1 0 0
264 1 12.281962713764417 5.262403146380361 8.89009059666233e-19 0 0 0
266 1 10.526782660990145 5.2631268948921734 1.7542862068610743 0 0 0
273 1 10.526927252246656 7.017394449871006 0 0 0 0
275 1 12.281340049649609 7.017576171248025 1.75419319252411 0 0 0
314 1 12.281280788178021 5.263244834263162 3.508693779704867 0 0 0
316 1 10.526701846935323 5.263178808191821 5.263192750356899 0 0 0
322 1 8.77224919851312 7.017718080730432 5.263236353145069 0 0 0
323 1 10.52670252414411 7.017678957519179 3.5086873525778044 0 0 0
325 1 12.281195303273648 7.0177209176239845 5.263236256248635 0 0 0
274 1 12.281521771026629 8.771988968650977 0 0 0 0
276 1 10.526749825260753 8.77216639563688 1.7542190029015632 0 0 0
324 1 12.281237263378454 8.772213696753525 3.508687352577804 0 0 0
326 1 10.526712610171023 8.772203610726612 5.263216869575463 0 0 0
268 1 15.792770303177154 5.260532015092439 1.2977641391106444e-19 0 0 0
270 1 14.035842538682559 5.263073682215074 1.753885578399165 0 0 0
277 1 14.03651307451727 7.016953507133217 0 0 0 0
279 1 15.790125538676957 7.017396306262725 1.754094506136718 0 0 0
318 1 15.789966173603352 5.263454468817328 3.509192883123359 0 0 0
320 1 14.035622531335726 5.263293689561907 5.263407417744472 0 0 0
327 1 14.035671386634471 7.017635432719614 3.508693779704866 0 0 0
329 1 15.790223273375409 7.017719787073114 5.263270349684853 0 0 0
278 1 15.7903001196743 8.772117416158277 3.309040035979332e-20 0 0 0
280 1 14.035789326005458 8.772133559907486 1.7542862068610754 0 0 0
328 1 15.790176634778597 8.772058038067437 3.508663048264269 0 0 0
330 1 14.035737412705812 8.77221437396231 5.2631927503568985 0 0 0
14 1 17.543895531196863 5.263569147601031 1.7546576264107356 -1 0 0
283 1 10.526898429134349 10.526898429134349 0 0 0 0
284 1 12.282011200627778 12.282011200627778 1.778635820828678e-16 0 0 0
285 1 12.281275359045745 10.526749256117146 1.7542136672099746 0 0 0
286 1 10.526749256117146 12.281275359045747 1.7542136672099748 0 0 0
321 1 8.77223816163075 8.77223816163075 3.508692915658484 0 0 0
333 1 10.526678059266882 10.526678059266883 3.5086929156584845 0 0 0
334 1 12.281067703048393 12.281067703048393 3.508743530140914 0 0 0
335 1 12.281198140167202 10.526667022384514 5.263236353145068 0 0 0
336 1 10.526667022384512 12.281198140167202 5.263236353145068 0 0 0
287 1 14.035938375723317 10.526776623193792 1.4949816326612483e-18 0 0 0
288 1 15.790603378348314 12.281689466114356 0 0 0 0
289 1 15.790197812293622 10.526856184371532 1.7543446081583474 0 0 0
290 1 14.03565498918068 12.28137369025441 1.7540716627080484 0 0 0
337 1 14.0357832688863 10.526831374200938 3.5086806439099054 0 0 0
338 1 15.790392484740558 12.281463143464261 3.508787089492052 0 0 0
339 1 15.790250375422648 10.526754550867008 5.263156611690719 0 0 0
340 1 14.035678924758288 12.281066276037627 5.263355448215677 0 0 0
346 1 10.526754550867008 15.79025037542265 5.263156611690719 0 0 0
345 1 12.281066276037627 14.035678924758288 5.263355448215676 0 0 0
344 1 12.28146314346426 15.790392484740558 3.5087870894920523 0 0 0
343 1 10.526831374200938 14.0357832688863 3.5086806439099054 0 0 0
296 1 10.52685618437153 15.790197812293622 1.7543446081583483 0 0 0
295 1 12.281373690254409 14.03565498918068 1.7540716627080477 0 0 0
294 1 12.281689466114356 15.79060337834831 0 0 0 0
293 1 10.526776623193788 14.035938375723317 3.508468788147729e-19 0 0 0
350 1 14.035526812872593 15.790345200363818 5.263211496158865 0 0 0
349 1 15.79034520036382 14.035526812872593 5.263211496158865 0 0 0
348 1 15.789015597899446 15.789015597899448 3.5099835146307603 0 0 0
347 1 14.03514060287104 14.035140602871039 3.5092174794619444 0 0 0
300 1 14.035009765398177 15.789368319533317 1.7548286096741308 0 0 0
299 1 15.789368319533317 14.035009765398177 1.754828609674132 0 0 0
259 1 15.790043811118514 17.543758688449778 1.754310806129851 0 -1 0
298 1 15.792951772712081 15.792951772712081 1.078983411731832e-18 0 0 0
297 1 14.038461754124777 14.038461754124778 5.407438929695677e-16 0 0 0
1 2 17.544240020093394 17.544240020093394 0 -1 -1 0
51 1 17.543870325054435 17.543870325054435 3.506714761895207 -1 -1 0
44 1 17.543758688449774 15.790043811118514 1.7543108061298502 -1 0 0
353 1 10.52690452014242 0.00011699447862495565 7.01750915026332 0 0 0
354 1 12.281472790037217 1.7543216268325408 7.017464606054079 0 0 0
355 1 12.281355612093334 0.00011802220279318466 8.772234645862563 0 0 0
356 1 10.526755782828614 1.7543304298085332 8.772234645862563 0 0 0
363 1 10.526703750070983 3.5086726491082283 7.017723554912047 0 0 0
365 1 12.281307076765106 3.5086639934433803 8.77223464586256 0 0 0
402 1 10.526904520142418 0.00011699447862629352 10.526960141461801 0 0 0
403 1 12.281472790037215 1.754321626832541 10.52700468567104 0 0 0
407 1 10.526703750070983 3.508672649108228 10.526745736813075 0 0 0
357 1 14.035900798910479 0.0001261819083553821 7.017578893874771 0 0 0
358 1 15.790325116427022 1.7543656274039179 7.017480861806656 0 0 0
359 1 15.790193711267664 3.2950837264054706e-05 8.77223464586256 0 0 0
360 1 14.035859219233005 1.754407092584696 8.77223464586256 0 0 0
367 1 14.035812915019953 3.508637932375144 7.01752053708422 0 0 0
369 1 15.790180914747602 3.508735306150033 8.772234645862563 0 0 0
404 1 14.035900798910477 0.0001261819083532454 10.52689039785035 0 0 0
405 1 15.790325116427024 1.7543656274039174 10.526988429918465 0 0 0
409 1 14.035812915019953 3.5086379323751467 10.5269487546409 0 0 0
361 1 8.772247318729788 5.263175481142356 7.017765869299008 0 0 0
364 1 12.281202061063581 5.263176348117129 7.017778055712922 0 0 0
366 1 10.526725119973761 5.263163488843853 8.77223464586256 0 0 0
373 1 10.526721684452918 7.017691220965017 7.017738617372099 0 0 0
375 1 12.281231983062828 7.017684237834806 8.77223464586256 0 0 0
406 1 8.77224731872979 5.263175481142357 10.526703422426113 0 0 0
408 1 12.281202061063581 5.2631763481171285 10.526691236012198 0 0 0
412 1 10.526721684452916 7.017691220965017 10.526730674353022 0 0 0
374 1 12.281224999932615 8.772194536444715 7.017738617372099 0 0 0
376 1 10.526717960345426 8.772198260552207 8.77223464586256 0 0 0
413 1 12.281224999932617 8.772194536444715 10.526730674353022 0 0 0
368 1 15.790278288522488 5.263103305877678 7.017520537084219 0 0 0
370 1 14.035796708239218 5.263119512658413 8.772234645862563 0 0 0
377 1 14.035739872780503 7.0177141598340524 7.017778055712923 0 0 0
379 1 15.790252227454253 7.0176091441325275 8.77223464586256 0 0 0
410 1 15.79027828852249 5.263103305877677 10.526948754640902 0 0 0
414 1 14.035739872780503 7.017714159834052 10.5266912360122 0 0 0
378 1 15.790243571789404 8.77221247082665 7.017723554912048 0 0 0
380 1 14.03575273205378 8.77219110092387 8.772234645862563 0 0 0
415 1 15.790243571789405 8.772212470826648 10.526745736813075 0 0 0
383 1 10.52670291137861 10.52670291137861 7.017735696546418 0 0 0
384 1 12.281194149308304 12.281194149308302 7.0177710313207795 0 0 0
385 1 12.281221871001343 10.526694834236785 8.77223464586256 0 0 0
386 1 10.526694834236784 12.28122187100134 8.772234645862563 0 0 0
417 1 10.52670291137861 10.52670291137861 10.526733595178701 0 0 0
418 1 12.281194149308302 12.281194149308302 10.526698260404341 0 0 0
387 1 14.035740739755276 10.526668902167845 7.017765869299007 0 0 0
388 1 15.79024741947608 12.281222326731264 7.017708261712454 0 0 0
389 1 15.790246650440361 10.526728858004574 8.77223464586256 0 0 0
390 1 14.035743033785932 12.28124209022688 8.772234645862559 0 0 0
419 1 14.035740739755276 10.526668902167845 10.526703422426113 0 0 0
420 1 15.790247419476081 12.281222326731264 10.526761030012667 0 0 0
423 1 12.281222326731266 15.790247419476078 10.526761030012667 0 0 0
422 1 10.526668902167843 14.035740739755278 10.526703422426115 0 0 0
396 1 10.526728858004573 15.790246650440363 8.77223464586256 0 0 0
395 1 12.281242090226883 14.035743033785934 8.77223464586256 0 0 0
394 1 12.281222326731266 15.79024741947608 7.017708261712455 0 0 0
393 1 10.526668902167843 14.035740739755278 7.017765869299007 0 0 0
425 1 15.790216766271048 15.790216766271048 10.527044155156963 0 0 0
424 1 14.035736921185933 14.035736921185935 10.526837948917061 0 0 0
400 1 14.035788614359355 15.790166478942833 8.772234645862563 0 0 0
399 1 15.790166478942835 14.035788614359356 8.772234645862559 0 0 0
398 1 15.790216766271048 15.790216766271048 7.017425136568155 0 0 0
397 1 14.035736921185933 14.035736921185935 7.01763134280806 0 0 0
427 1 12.281892036292508 0.00012546533827795017 12.281901062701191 0 0 0
428 1 10.526770465803615 1.754323533469077 12.281380544123179 0 0 0
432 1 12.281196433824519 3.508692947522227 12.28119894204027 0 0 0
453 1 10.52678769074353 3.2049293465589616e-05 14.035897607954777 0 0 0
454 1 12.281430080857495 1.7541759366789964 14.035807231587436 0 0 0
455 1 12.281774323262164 5.330615284528262e-05 15.79048231957428 0 0 0
456 1 10.52686683371401 1.754369994865353 15.79015112996317 0 0 0
463 1 10.526858182830194 3.508739586119038 14.035806243460852 0 0 0
465 1 12.28151991463491 3.5087906822206767 15.790374785588403 0 0 0
429 1 15.790446778811026 0.0002683299159534891 12.281825047924384 0 0 0
430 1 14.036314765064484 1.754174932855166 12.282046284410155 0 0 0
434 1 15.790330784046843 3.508585436850791 12.281546184633164 0 0 0
457 1 14.038000968959352 0.00025788423541507784 14.03782039995221 0 0 0
458 1 15.79177683836471 1.7550367255518855 14.037246267951062 0 0 0
460 1 14.0353470732966 1.7550206897007685 15.789811665314385 0 0 0
467 1 14.035461752080304 3.5089500472942814 14.035276408601762 0 0 0
469 1 15.788855296038179 3.510060924859456 15.788904258510472 0 0 0
211 1 17.543879495345745 3.5071393825329253 14.037246267951064 -1 0 0
433 1 10.526701846935321 5.26317880819182 12.281276541368223 0 0 0
436 1 8.772249198513121 7.017718080730432 12.281232938580054 0 0 0
437 1 12.281195303273648 7.017720917623985 12.281233035476484 0 0 0
464 1 12.28128078817802 5.263244834263161 14.035775512020255 0 0 0
466 1 10.526782660990145 5.2631268948921734 15.790183084864047 0 0 0
473 1 10.526702524144108 7.01767895751918 14.035781939147316 0 0 0
475 1 12.281340049649609 7.017576171248023 15.79027609920101 0 0 0
438 1 10.526712610171023 8.77220361072661 12.28125242214966 0 0 0
474 1 12.281237263378454 8.772213696753525 14.035781939147316 0 0 0
476 1 10.526749825260751 8.77216639563688 15.79025028882356 0 0 0
435 1 14.035622531335724 5.263293689561907 12.281061873980649 0 0 0
439 1 15.790223273375407 7.017719787073114 12.28119894204027 0 0 0
468 1 15.789966173603352 5.2634544688173275 14.035276408601762 0 0 0
470 1 14.035842538682559 5.263073682215073 15.790583713325958 0 0 0
477 1 14.035671386634471 7.017635432719615 14.035775512020255 0 0 0
479 1 15.790125538676959 7.017396306262725 15.790374785588403 0 0 0
440 1 14.03573741270581 8.77221437396231 12.281276541368223 0 0 0
478 1 15.790176634778595 8.772058038067437 14.035806243460852 0 0 0
480 1 14.03578932600546 8.772133559907484 15.790183084864047 0 0 0
214 1 17.543895531196863 5.263569147601031 15.789811665314385 -1 0 0
442 1 12.281198140167202 10.526667022384512 12.281232938580056 0 0 0
443 1 10.526667022384514 12.281198140167202 12.281232938580054 0 0 0
471 1 8.772238161630751 8.77223816163075 14.035776376066638 0 0 0
483 1 10.526678059266882 10.526678059266883 14.035776376066636 0 0 0
484 1 12.281067703048395 12.281067703048391 14.035725761584208 0 0 0
485 1 12.281275359045747 10.526749256117146 15.790255624515147 0 0 0
486 1 10.526749256117148 12.281275359045747 15.790255624515147 0 0 0
444 1 15.79025037542265 10.52675455086701 12.281312680034404 0 0 0
445 1 14.035678924758288 12.281066276037626 12.281113843509447 0 0 0
487 1 14.035783268886298 10.52683137420094 14.035788647815217 0 0 0
488 1 15.790392484740558 12.28146314346426 14.035682202233067 0 0 0
489 1 15.790197812293622 10.526856184371532 15.790124683566775 0 0 0
490 1 14.035654989180678 12.281373690254409 15.790397629017074 0 0 0
496 1 10.52685618437153 15.790197812293622 15.790124683566773 0 0 0
495 1 12.281373690254409 14.03565498918068 15.790397629017074 0 0 0
494 1 12.281463143464261 15.790392484740558 14.035682202233069 0 0 0
493 1 10.526831374200937 14.0357832688863 14.035788647815217 0 0 0
448 1 10.526754550867008 15.790250375422648 12.281312680034404 0 0 0
447 1 12.28106627603763 14.03567892475829 12.281113843509445 0 0 0
500 1 14.035009765398177 15.789368319533317 15.78964068205099 0 0 0
499 1 15.78936831953332 14.03500976539818 15.789640682050988 0 0 0
498 1 15.789015597899448 15.789015597899446 14.034485777094362 0 0 0
497 1 14.035140602871039 14.03514060287104 14.035251812263176 0 0 0
450 1 14.03552681287259 15.790345200363818 12.281257795566257 0 0 0
459 1 15.790043811118514 17.543758688449774 15.79015848559527 0 -1 0
449 1 15.79034520036382 14.035526812872593 12.281257795566258 0 0 0
201 1 17.543870325054435 17.543870325054435 14.037754529829915 -1 -1 0
244 1 17.543758688449774 15.790043811118512 15.79015848559527 -1 0 0

Velocities

2 -1.9511752051859964e-09 -1.9511677578881628e-09 1.1077435927267883e-15
3 1.6934884599805715e-09 -1.6934861956517468e-09 2.6455734640549317e-09
4 -1.6934861578341464e-09 1.6934911970294012e-09 2.6455722403010185e-09
5 7.145284603090981e-10 -4.361323008112249e-09 1.347252014648728e-16
8 4.92414814270507e-09 5.859334115084787e-10 4.943022163127189e-09
11 -4.3613168816609825e-09 7.145223622210317e-10 -3.5926720390632746e-16
13 5.859315395372583e-10 4.924145007980537e-09 4.943017806421441e-09
15 1.9032802498278465e-09 1.9032807141275263e-09 9.454400102798091e-17
52 3.685600640017291e-09 3.685600904740494e-09 2.13735215284772e-09
53 5.384545907923195e-09 -5.384538902064994e-09 -5.2088310626322395e-09
54 -5.384540627640737e-09 5.3845462790083986e-09 -5.208830701001436e-09
58 2.007555623518637e-09 -2.2972363164624223e-09 -4.339100315990721e-09
63 -2.297237809223564e-09 2.0075533970074128e-09 -4.339098101888397e-09
65 -2.4709120097055305e-09 -2.4709168669035833e-09 1.6718079046087613e-09
6 -4.626565841179829e-10 7.017890082120215e-09 -2.9464213210990635e-17
9 -3.7277856272843703e-10 -1.8405205633757578e-09 6.163087067011505e-16
10 -2.3016900020483723e-09 -8.886697117015432e-11 4.566532614224102e-10
17 2.590235252368173e-09 -2.347418409064433e-09 -4.922476529556404e-09
19 -4.721060035431885e-09 1.1092507230505548e-09 -1.1374825123678953e-16
56 -1.5805097985925217e-09 -1.1329749874379726e-09 -1.367228130421546e-09
57 1.0321646486588699e-09 1.6884102532663932e-09 -1.0892706239516264e-09
59 -3.61626664086582e-10 1.0230399240785562e-09 9.166700859630175e-10
60 3.1972112170514126e-09 -6.198876119518642e-10 1.2470168086626665e-09
67 3.0997564738817843e-09 -2.993052704124983e-10 4.441402807427156e-09
69 -3.95419878254967e-09 3.8295084385136566e-09 2.444111847753381e-09
251 -4.671911275043888e-09 -1.6793062379041175e-09 1.6970648184522574e-15
252 6.91253003600023e-11 -4.2290988819231704e-10 -6.957115997127516e-10
262 1.4281444241696246e-09 2.1923589145992884e-09 9.985381114649282e-10
301 2.668283045372854e-09 -1.7954564944170742e-11 1.9860638789890815e-09
302 4.199847038913114e-09 1.195400855205244e-09 -2.3612028696442584e-09
312 2.5327562650041657e-09 3.365191045785206e-09 -5.3389723490246715e-09
12 7.0178879039351416e-09 -4.6265751249954465e-10 -1.0269842111664427e-15
18 -2.3474176806683716e-09 2.5902390651966285e-09 -4.922477605160606e-09
21 -1.8405142212459888e-09 -3.7278424482289884e-10 3.255859035401093e-16
23 -8.886687248985325e-11 -2.3016929281852044e-09 4.5665503530422944e-10
25 1.1092541962130677e-09 -4.721065899228098e-09 -1.5218629665472802e-15
62 -1.1329755194764907e-09 -1.5805065635073146e-09 -1.367230320229953e-09
64 1.688412004934975e-09 1.0321723203136532e-09 -1.0892692837788708e-09
68 -2.9930464515580206e-10 3.0997594780451156e-09 4.441405968236695e-09
71 1.0230324302846748e-09 -3.61632276454843e-10 9.166674108109635e-10
73 -6.198899578248896e-10 3.197209454101243e-09 1.2470224134969522e-09
75 3.829505915666079e-09 -3.954198591098068e-09 2.4441073830606577e-09
22 -1.6793119510208297e-09 -4.671908894603213e-09 -7.894424085836406e-16
24 -4.229075269558914e-10 6.912924757204523e-11 -6.957082312872649e-10
28 2.1923587844951096e-09 1.4281451684081826e-09 9.985463063709723e-10
72 -1.795334798560751e-11 2.668288732194516e-09 1.9860611157929264e-09
74 1.1954016257388523e-09 4.199848896702734e-09 -2.3612016110272446e-09
78 3.3651933631934707e-09 2.532761034393554e-09 -5.338969516778619e-09
16 -9.222006818434238e-10 -9.221957667293261e-10 3.6969797394161667e-16
20 5.01460209343158e-09 -1.9061709941128777e-10 1.4104804721212136e-09
27 -1.9061789496120188e-10 5.014602003409349e-09 1.4104773337855509e-09
29 5.85694318593379e-10 5.856967182383051e-10 4.396296047801112e-16
66 3.0245353456203034e-09 3.024531640955402e-09 -8.169322414287204e-10
70 4.640260884113603e-09 -4.853786722076428e-09 2.8475349294672674e-09
77 -4.853787495269086e-09 4.640258954972807e-09 2.8475385822633822e-09
79 -3.2473885062631922e-09 -3.2473918395301286e-09 -1.8577533257706446e-09
26 2.977932685962188e-09 2.826036610195651e-09 -6.742169073307888e-16
30 -2.7183235022337463e-09 4.199534606838284e-09 1.5387256053014284e-09
76 -5.693228587649447e-09 -6.8258647490258196e-09 3.2613986489880313e-09
261 2.8260392074420435e-09 2.9779271315021274e-09 -6.23990406784674e-16
272 4.1995342028590124e-09 -2.718322638411799e-09 1.5387306390308581e-09
311 -6.8258658591007276e-09 -5.693225961373486e-09 3.2614018943216604e-09
271 -4.1122230454061745e-09 -4.112221214082412e-09 1.049438411410588e-15
31 1.6793141988044541e-09 4.671908452314557e-09 -9.915302107809497e-16
32 1.84051709774722e-09 3.727756070466049e-10 5.359463058273668e-16
33 4.229107650879266e-10 -6.912775732222902e-11 -6.957086271902693e-10
34 8.886999953268726e-11 2.301693918533615e-09 4.5665305697100796e-10
35 1.0768571412463538e-09 -7.356345121743917e-10 -2.6911340526983143e-16
38 -2.1746789244398476e-09 7.126280819956445e-10 1.0133029693795831e-09
81 1.7952337546596524e-11 -2.668287908479907e-09 1.986061028339725e-09
82 -1.0230344558898969e-09 3.616297763569158e-10 9.166660676952489e-10
83 -1.1954026680864636e-09 -4.199849245924638e-09 -2.361201259441741e-09
84 6.198872184124599e-10 -3.197209444351393e-09 1.2470252012154576e-09
85 7.70303750842267e-10 2.2952198942631627e-09 1.9696513249589836e-09
88 1.5970572637106084e-09 -6.581493864152111e-09 -2.3466980543858323e-09
36 2.619820776842678e-09 4.835807753457291e-10 -1.1841820785006616e-15
37 -3.2558021236286807e-09 -5.890224937645786e-09 2.7556776923480353e-09
39 -3.943041057929202e-09 1.7159069604099288e-09 -5.653435811470046e-16
40 1.6762794179156569e-09 -1.6762822583719876e-09 -2.206841628427082e-09
80 2.9311972120178307e-09 -4.919253591499252e-10 -2.0197347959126617e-10
86 2.3793828576185425e-09 5.117159348121213e-09 -1.9963724807434924e-09
87 6.336361790135029e-10 -7.490609438619713e-10 -3.936666590271042e-09
89 -2.157135629833327e-09 6.494944972307811e-09 1.0295108688671152e-09
90 4.07311395444124e-09 -4.0731117949971665e-09 8.857633314637171e-10
281 -1.715907530037535e-09 3.943040145875042e-09 -3.07031643338368e-15
282 -6.090110679858031e-11 6.090113516178061e-11 -1.2360253698777685e-09
331 -6.494945564980517e-09 2.1571335773421543e-09 1.0295110146716918e-09
332 -8.84600723439901e-10 8.845981872970734e-10 1.116416539508444e-09
55 -2.0149528407030673e-09 2.972923642118849e-09 3.4611833609083427e-10
41 -7.017891967259036e-09 4.626571033012902e-10 1.0707108116418839e-15
42 4.3613216502240345e-09 -7.145252895396636e-10 -2.6590500289119633e-15
43 -1.3363484015533726e-09 -5.917678754459171e-10 2.9052868571358066e-09
45 -1.0374745375702044e-09 4.717828097210544e-09 -2.774275530164815e-16
48 -5.614943639611519e-11 5.615182791616619e-11 -4.966682552781949e-09
91 1.1329773441757104e-09 1.5805139733933952e-09 -1.3672324616515762e-09
92 -2.9729244819354833e-09 2.0149504723758416e-09 3.4611588282173257e-10
93 -1.6884090031629423e-09 -1.0321725625826558e-09 -1.0892679784807567e-09
94 2.297233962464522e-09 -2.0075600090307597e-09 -4.339101259658031e-09
95 7.6130671216397e-10 -2.1205860512003218e-09 -2.3236416502573787e-09
98 -1.3864481156396088e-09 1.3864507526786126e-09 -8.888818424402498e-10
100 6.5814980795058065e-09 -1.597062226162725e-09 -2.3467013343632827e-09
99 -5.117158758227583e-09 -2.3793814722577153e-09 -1.996368779936752e-09
97 -2.0225195035608525e-09 2.022522489992567e-09 1.4615413430661206e-09
7 5.917628391589982e-10 1.336346678138107e-09 2.905279168935823e-09
96 2.1205817913467783e-09 -7.61307586917567e-10 -2.323638912059064e-09
50 -7.126246419419978e-10 2.1746790255760766e-09 1.0133020060163754e-09
46 -4.717829261911388e-09 1.0374788012278603e-09 -1.6769095885456087e-16
47 4.917541165127195e-10 -4.917581979375428e-10 -2.0154207217427223e-09
49 -4.835805640789919e-10 -2.6198240271989573e-09 -1.3921604151370189e-15
342 7.490571443749299e-10 -6.336392129895859e-10 -3.9366694933627736e-09
341 -2.2952253107545816e-09 -7.703053549326626e-10 1.969657789375047e-09
291 7.356390295738342e-10 -1.0768547257763869e-09 -3.6635800398342603e-16
292 5.890224779081462e-09 3.255804256606897e-09 2.7556754614741506e-09
101 2.523575133700139e-09 2.5235771947593613e-09 -3.3544321826668826e-09
102 -2.5235790690941817e-09 -2.5235754575133426e-09 -3.3544369524117345e-09
103 -2.824950419817405e-09 2.824939289329434e-09 -5.277660338634223e-16
104 2.824942508848119e-09 -2.824943447197329e-09 -2.0875019976974974e-15
105 4.6396089107506633e-10 -6.69820754220776e-10 -2.468339440256159e-09
108 -2.6486408032386333e-09 -4.4363706523853427e-10 -2.1568773515768183e-15
111 -6.698189369678195e-10 4.6395446917379654e-10 -2.4683383967267476e-09
113 -4.4364101190427744e-10 -2.6486457394695617e-09 4.895606553230137e-15
115 1.2562549789534134e-09 1.2562511975257535e-09 -4.795502785859704e-10
151 2.5235806054341985e-09 2.5235740818981274e-09 3.354435897359773e-09
152 -2.5235830021246244e-09 -2.5235700484146838e-09 3.354443253769403e-09
153 4.639632573895389e-10 -6.698231202374904e-10 2.468339287657927e-09
156 -6.698088192824596e-10 4.639527579273779e-10 2.468339497905841e-09
158 1.2562503132254283e-09 1.2562538218580988e-09 4.795534902960042e-10
106 -7.172509976687754e-10 -2.030278791991307e-09 4.341344967106502e-09
107 -1.4052171602565885e-09 -2.0847373644874865e-09 9.161766107428769e-16
109 -3.991653729309019e-09 -1.6003375181266373e-09 5.862325445914312e-10
110 2.9834650463623414e-10 -4.615360253549007e-09 1.743155018953398e-16
117 -6.873237688920853e-09 3.3707664935889863e-09 -3.537866063467367e-15
119 -5.670562856113769e-09 -7.521351174543848e-10 1.8617361863890361e-09
154 -7.172489196633025e-10 -2.0302794916169145e-09 -4.341343579230112e-09
155 -3.991658276284569e-09 -1.6003348626220084e-09 -5.862361620812705e-10
160 -5.6705591446708286e-09 -7.521379974417781e-10 -1.8617292087463103e-09
351 -3.794788855041799e-09 -9.813456547444627e-10 5.993131628652823e-10
352 -5.792944183034927e-10 -2.818406897144657e-09 -3.628126039448768e-15
362 2.0001153297237382e-09 5.281258891310151e-09 -9.17076809971415e-16
401 -3.794797014779988e-09 -9.813421705025749e-10 -5.993075473947962e-10
112 -2.0302810279569313e-09 -7.172448664903087e-10 4.341343260882733e-09
114 -2.0847311210241693e-09 -1.4052115315462493e-09 -1.6097593425029812e-15
118 3.3707689303682847e-09 -6.873237493362062e-09 -1.7824221709428516e-15
121 -1.6003332098746904e-09 -3.991661481917104e-09 5.86231062023315e-10
123 -4.615364964203858e-09 2.9834422671670937e-10 -1.9216068208937122e-15
125 -7.521349618776514e-10 -5.670565180129522e-09 1.8617327035274536e-09
157 -2.0302800588809206e-09 -7.172527720168516e-10 -4.341343497095011e-09
161 -1.600335283933713e-09 -3.991661313953777e-09 -5.862312569464547e-10
163 -7.521328468988035e-10 -5.670564835800756e-09 -1.8617326873654152e-09
122 -9.813493156654524e-10 -3.794793748284752e-09 5.993081530673029e-10
124 -2.8184020281286042e-09 -5.792846182268861e-10 3.2617680354653413e-15
128 5.281265196028563e-09 2.000117549868938e-09 1.327659986310703e-15
162 -9.813485782222445e-10 -3.794786525418524e-09 -5.99313693936663e-10
116 -1.5586699874979407e-09 -1.5586697596182765e-09 1.0255790158369647e-09
120 1.6699975114935535e-09 8.593014111637205e-10 -1.7396096189148488e-15
127 8.593006562889623e-10 1.669995458116031e-09 -9.608034104468561e-16
129 -6.706246193767298e-10 -6.706260517183454e-10 -1.3441907398717927e-09
159 -1.558670673348192e-09 -1.5586675885916398e-09 -1.025569281010458e-09
165 -6.706216613312976e-10 -6.706279065534655e-10 1.3441920111931565e-09
130 -3.6400131287878162e-09 1.3960505308759163e-09 -1.1105965620755632e-15
372 1.3960492438957023e-09 -3.6400156448400435e-09 -1.3921604151370189e-15
371 -1.5759952009103624e-09 -1.5759953664731579e-09 -2.576034420828531e-09
411 -1.5759949627776597e-09 -1.5759953894074643e-09 2.5760339546084257e-09
131 9.81346609343423e-10 3.794792425850538e-09 5.993106194839296e-10
132 1.6003296845652522e-09 3.991663991469431e-09 5.862253799288533e-10
133 2.818394325599295e-09 5.792866012019041e-10 6.326470918787985e-15
134 4.615364151125449e-09 -2.9834929368426446e-10 3.363402836570421e-15
135 1.612813566513315e-10 4.610837748411914e-09 -3.52891090024755e-09
138 3.5429740365745702e-09 1.3465145403339426e-09 3.5148948257175997e-15
166 9.8135001056386e-10 3.794787752422387e-09 -5.993166428231452e-10
167 1.6003273446012266e-09 3.991658975910176e-09 -5.862300876292045e-10
168 1.6127492446470844e-10 4.610833169189773e-09 3.528908146300365e-09
126 -4.674296123833819e-10 -4.8348423490995446e-09 -2.3111550537146863e-09
136 -1.031604476883865e-09 1.0008874161052911e-09 -1.9621695820099528e-09
137 5.113250878077136e-09 -2.2346071230866997e-09 -1.7545252276707768e-15
139 8.206792655306802e-10 2.384001773770752e-09 1.1264981816668998e-10
140 6.400646230827396e-09 -6.400642513475456e-09 -1.0485520614009508e-15
164 -4.674332517365215e-10 -4.834842160011542e-09 2.3111546790840823e-09
169 -1.0316054215987207e-09 1.0008932862213652e-09 1.962168687627396e-09
170 8.206811327747006e-10 2.3840067693132687e-09 -1.1264958435494368e-10
381 -2.384005635302294e-09 -8.206755298608396e-10 1.1265316993618267e-10
382 7.686236541052774e-10 -7.686264478805077e-10 -1.292889214057639e-15
416 -2.3840083298063232e-09 -8.206750066188839e-10 -1.1264826310252931e-10
141 2.030286133332987e-09 7.172479180456669e-10 4.3413392745235655e-09
142 6.698187345845674e-10 -4.639610517998681e-10 -2.46833216982248e-09
143 2.0847290930553475e-09 1.4052173163095871e-09 -2.7476850298756952e-15
144 4.4364583039837985e-10 2.6486527934861136e-09 -3.1175884338976707e-15
145 2.430418895369394e-09 2.2254555155133035e-09 8.051136000998532e-10
148 4.2241951748325465e-09 -4.224190889833437e-09 2.0960792806032584e-17
171 2.030278510722904e-09 7.172424483428261e-10 -4.34133744731302e-09
172 6.698163284397412e-10 -4.639547052383491e-10 2.4683354640900154e-09
173 2.430426072994841e-09 2.225454235463147e-09 -8.051176093887117e-10
146 -2.2254593455282385e-09 -2.4304157000222125e-09 8.051165864046166e-10
147 -3.742924693630435e-09 3.742914834803133e-09 5.9929263307863405e-16
149 -1.0008868039328845e-09 1.031598585361515e-09 -1.962175041926012e-09
150 -1.346509733569776e-09 -3.542957402783245e-09 3.2999780304120504e-15
174 -2.2254612505379965e-09 -2.4304139666170437e-09 -8.051162039445875e-10
175 -1.0008836024366496e-09 1.0315993656449734e-09 1.9621762822251257e-09
421 -4.610841898241378e-09 -1.612715800630002e-10 3.528907672511662e-09
391 -4.610840826348767e-09 -1.612659529961015e-10 -3.5289048788841564e-09
392 2.234607896821786e-09 -5.113259578673487e-09 -3.2617680354653413e-16
176 5.3845396065655265e-09 -5.3845393489331234e-09 5.2088276206397024e-09
177 -5.384532639854451e-09 5.384549381233433e-09 5.208823461294557e-09
179 2.0075532469557425e-09 -2.2972331054695003e-09 4.339099550075827e-09
181 -2.2972411324451997e-09 2.0075462004362346e-09 4.339091427672824e-09
202 3.685600595108891e-09 3.6856020298141064e-09 -2.1373532536944323e-09
203 1.693487866126065e-09 -1.6934909677601987e-09 -2.645573025016227e-09
204 -1.6934889137917763e-09 1.6934918682918085e-09 -2.6455728855638257e-09
208 4.924151266202505e-09 5.859336106417809e-10 -4.943024887176218e-09
213 5.859309770004522e-10 4.924147399057413e-09 -4.943017408154837e-09
215 -2.470909003206298e-09 -2.470920682935825e-09 -1.671805354912165e-09
178 1.0321639900361828e-09 1.6884005957060834e-09 1.0892674736430418e-09
180 3.1972152056264556e-09 -6.198840919605258e-10 -1.2470263057501012e-09
183 3.0997553331208707e-09 -2.993044354970935e-10 -4.441406882116643e-09
206 -1.5805133270226506e-09 -1.1329732140097515e-09 1.3672360120160384e-09
209 -3.6162472179826085e-10 1.0230325017835756e-09 -9.166651730726391e-10
210 -2.30169067803798e-09 -8.886386303612053e-11 -4.566575856286572e-10
217 2.5902362181942338e-09 -2.3474215431953375e-09 4.922474813287336e-09
219 -3.9541972550731535e-09 3.829507095693392e-09 -2.4441018424867475e-09
426 4.199852307377571e-09 1.1954004699384398e-09 2.361202460741454e-09
431 2.532754711472652e-09 3.3651893471277277e-09 5.338967432293443e-09
451 2.668281825164341e-09 -1.7952748517550992e-11 -1.9860640466569584e-09
452 6.912336457158125e-11 -4.2291800952200536e-10 6.957087102117202e-10
462 1.4281381836746568e-09 2.1923593724406158e-09 -9.985410437692789e-10
182 1.688410182599355e-09 1.0321718827521985e-09 1.0892735855309177e-09
184 -2.99299305192444e-10 3.0997609627615265e-09 -4.441411654511312e-09
186 -6.198913948937053e-10 3.1972086253639842e-09 -1.2470187284967872e-09
212 -1.1329815754629315e-09 -1.5805015739476604e-09 1.367236031869415e-09
218 -2.34741938246039e-09 2.590239814457837e-09 4.922476852353999e-09
221 1.0230405941591635e-09 -3.6163260263164655e-10 -9.166727241838212e-10
223 -8.886604995704431e-11 -2.3016931078188063e-09 -4.5665428028174626e-10
225 3.829507657343848e-09 -3.9541991039992735e-09 -2.4441065360054985e-09
187 1.19540141537845e-09 4.199848026897925e-09 2.3612062945006957e-09
189 3.3651955311963613e-09 2.53276339069735e-09 5.338969647529095e-09
222 -1.795715810884894e-11 2.668284349932343e-09 -1.986060249533517e-09
224 -4.22908040447997e-10 6.913493675730708e-11 6.957086661896697e-10
228 2.192361205412436e-09 1.428139775854724e-09 -9.985431237488425e-10
185 4.640260753820151e-09 -4.853783701395595e-09 -2.8475417308740664e-09
188 -4.8537877059249385e-09 4.640255052816889e-09 -2.847540303702826e-09
216 3.024534596580683e-09 3.024535058435976e-09 8.169335281019433e-10
220 5.014603258686393e-09 -1.9062009822882036e-10 -1.4104819381441295e-09
227 -1.9062136517383101e-10 5.0146002425457954e-09 -1.4104766524819573e-09
229 -3.2473869569233753e-09 -3.247388371537991e-09 1.857751542603411e-09
226 -5.693228048136858e-09 -6.825860398150593e-09 -3.2613993029296824e-09
230 -2.718322592838636e-09 4.1995342687443635e-09 -1.538727864312153e-09
461 -6.825867497075545e-09 -5.693225403711605e-09 -3.2613987182341257e-09
472 4.199533871955009e-09 -2.718325139322214e-09 -1.5387278483578528e-09
191 -1.19540048884724e-09 -4.19984852739023e-09 2.361201706162146e-09
192 6.198966680853626e-10 -3.1972004603076955e-09 -1.247021823040121e-09
194 1.5970582373476285e-09 -6.581494302999235e-09 2.346704629547175e-09
231 1.7951542195187875e-11 -2.668290115786881e-09 -1.9860579206488664e-09
232 -1.0230368053083224e-09 3.6163406333646243e-10 -9.166733245382277e-10
233 4.229074655022907e-10 -6.912907443834334e-11 6.957116924840526e-10
234 8.886457950237833e-11 2.301691978017994e-09 -4.5665440067762256e-10
235 7.703064240184992e-10 2.295224624111643e-09 -1.9696599097643232e-09
238 -2.174673812406934e-09 7.126269996884203e-10 -1.0133018530656018e-09
190 2.9311991147158517e-09 -4.919286989167615e-10 2.0197924382082884e-10
193 6.336351582337418e-10 -7.490659505577256e-10 3.9366691973956785e-09
195 4.073119784260703e-09 -4.0731121699232204e-09 -8.857659324147805e-10
236 2.3793778461859763e-09 5.117158925839686e-09 1.9963737544215316e-09
237 -3.255803957080607e-09 -5.890224624828862e-09 -2.7556766668835164e-09
239 -2.157135093296121e-09 6.494942069806979e-09 -1.0295135550985444e-09
240 1.6762824196876894e-09 -1.6762811055260753e-09 2.206845497640324e-09
441 -8.845998559986916e-10 8.845956015186453e-10 -1.1164152921185306e-09
481 -6.4949455939346175e-09 2.1571383586095565e-09 -1.0295123484807312e-09
482 -6.090076880377663e-11 6.09060727222343e-11 1.2360282049421367e-09
205 -2.0149507560078444e-09 2.9729234856780724e-09 -3.461130479789518e-10
196 -1.6884138201797948e-09 -1.032176726064101e-09 1.0892711265005408e-09
197 2.2972322896266036e-09 -2.0075536617306156e-09 4.339097636259191e-09
199 -1.3864433016788175e-09 1.386454104332695e-09 8.888806426362523e-10
241 1.1329863802186088e-09 1.5805052398913002e-09 1.3672287200727356e-09
242 -2.9729241028731293e-09 2.0149506638274437e-09 -3.461109263524787e-10
243 -1.3363514836878061e-09 -5.9176170881345e-10 -2.9052854726570914e-09
245 7.613047988297492e-10 -2.1205883551194468e-09 2.323637255586306e-09
248 -5.615271234575081e-11 5.615331196153233e-11 4.966684226063042e-09
250 -7.126234837779852e-10 2.174681433493603e-09 -1.0133042922085004e-09
249 -5.117157758129322e-09 -2.3793814332583145e-09 1.996371286830029e-09
207 5.917620482301068e-10 1.3363482606837342e-09 -2.90528296894221e-09
247 4.917574554486027e-10 -4.91759071091555e-10 2.0154241654927013e-09
246 2.1205852768535618e-09 -7.613043225251045e-10 2.3236357244974513e-09
198 -2.022522284977963e-09 2.0225222076554656e-09 -1.461542080706748e-09
200 6.5814946487403686e-09 -1.5970610815894126e-09 2.346702733109529e-09
446 7.490524809920793e-10 -6.336430963844281e-10 3.936665801419533e-09
492 5.890223906913053e-09 3.2557991512308414e-09 -2.7556770340067925e-09
491 -2.2952280637577117e-09 -7.702977030730294e-10 -1.9696501586400894e-09
253 4.671912043213897e-09 1.6793040495059439e-09 -9.704055355512603e-16
254 3.727806001516592e-10 1.840519476710646e-09 -1.6014580296764684e-15
255 2.3016967217632454e-09 8.886030699988186e-11 4.56651956715196e-10
256 -6.912817449763355e-11 4.229143608621907e-10 -6.957085168027618e-10
263 -7.356409771802554e-10 1.0768587338511305e-09 -6.972620075813593e-17
265 7.126267171828203e-10 -2.174679416160981e-09 1.013304353071201e-09
303 -2.66828356477396e-09 1.7952173202532237e-11 1.9860654683623737e-09
304 3.6162604364157523e-10 -1.0230316686145665e-09 9.166688608795792e-10
305 -3.1972130748410325e-09 6.198830771290043e-10 1.247020446834006e-09
306 -4.199847951262724e-09 -1.195400039763235e-09 -2.3612051209732828e-09
313 2.2952255175695838e-09 7.703025830207325e-10 1.969655297106545e-09
315 -6.581495268594476e-09 1.5970551235446476e-09 -2.346700810825877e-09
257 4.6265173709827874e-10 -7.017892482301099e-09 7.349295747877953e-16
258 -7.145251229058618e-10 4.361320607876423e-09 -1.03998401130779e-16
260 -5.91764993072617e-10 -1.3363451967050676e-09 2.905280896081145e-09
267 4.717826582992346e-09 -1.0374814322688042e-09 8.169792721643001e-16
269 5.6151074370933e-11 -5.615521879585306e-11 -4.966680492313627e-09
307 1.5805106932520626e-09 1.132971762924336e-09 -1.3672320332860029e-09
308 2.014954108774481e-09 -2.972916635669748e-09 3.461186701940074e-10
309 -2.0075601876302866e-09 2.2972341409163236e-09 -4.339098273249398e-09
310 -1.0321669218327288e-09 -1.6884029305507847e-09 -1.089270496815797e-09
317 -2.1205822761986993e-09 7.613022238167806e-10 -2.323639437327622e-09
319 1.386447854166356e-09 -1.3864559898253695e-09 -8.88884755651144e-10
61 2.9729218296808044e-09 -2.014957999851023e-09 3.4611614628004016e-10
264 4.835782938411672e-10 2.6198254955554666e-09 8.89009059666233e-16
266 -5.8902241267278554e-09 -3.2558016016931684e-09 2.755672828128272e-09
273 1.7159089883787508e-09 -3.943044928176519e-09 -8.296236090205325e-16
275 -1.676282004875885e-09 1.6762752396617115e-09 -2.206844657971415e-09
314 5.117159603805492e-09 2.37938469207185e-09 -1.996373373888852e-09
316 -7.490643947180088e-10 6.336391728083854e-10 -3.936671405515194e-09
322 -4.9192487815732e-10 2.9311952573206097e-09 -2.0197477011688018e-10
323 6.494940431832161e-09 -2.157135403518624e-09 1.0295129346535375e-09
325 -4.073111724975515e-09 4.073112955229329e-09 8.857620085863277e-10
274 3.94304275647127e-09 -1.7159061036049194e-09 -1.5567260669263481e-15
276 6.090021572137061e-11 -6.090059626097475e-11 -1.2360242284805435e-09
324 2.1571327716499955e-09 -6.494942184441581e-09 1.029514364631553e-09
326 8.845959631494493e-10 -8.845994069146867e-10 1.1164153742536316e-09
268 1.0374771830295331e-09 -4.717821123408668e-09 1.2977641391106443e-16
270 -4.917580187794307e-10 4.917605889028541e-10 -2.0154207453324873e-09
277 -2.619819120125251e-09 -4.835836143321268e-10 -3.0253387868008863e-16
279 2.174679063984577e-09 -7.126328725881872e-10 1.0133064438231487e-09
318 -7.613065929498937e-10 2.1205884782482356e-09 -2.323641407840651e-09
320 2.0225214068867044e-09 -2.0225168977241387e-09 1.4615426740245292e-09
327 -2.379380908179029e-09 -5.117165021626851e-09 -1.996369580500083e-09
329 -1.5970607075497083e-09 6.581495138596474e-09 -2.3467007842353764e-09
278 -1.0768646783051951e-09 7.356426866539739e-10 3.309040035979332e-17
280 3.2558048890730258e-09 5.8902329387527135e-09 2.755669412878576e-09
328 -7.703023189622921e-10 -2.2952232252975704e-09 1.969654923477701e-09
330 -6.336405032382156e-10 7.490631830875254e-10 -3.9366686857686556e-09
14 1.33634725048016e-09 5.917684498007233e-10 2.9052824815212588e-09
283 4.112220486809147e-09 4.1122223380988666e-09 -7.492612081467487e-16
284 -5.85696701693105e-10 -5.856943753197797e-10 6.674215572569028e-16
285 2.7183274772180894e-09 -4.199534329311614e-09 1.5387288020704632e-09
286 -4.199534592262117e-09 2.7183233480088443e-09 1.538728145285106e-09
321 -1.6969398194648983e-09 -1.6969420463639005e-09 3.981265532289668e-09
333 1.696943480681338e-09 1.6969405758169065e-09 3.981264487578456e-09
334 3.2473920859354312e-09 3.2473926585175374e-09 -1.857754687964145e-09
335 -2.931197327834232e-09 4.919261042748333e-10 -2.019730322799613e-10
336 4.919308155205846e-10 -2.9311966211178244e-09 -2.0197168251662163e-10
287 -2.977928202471458e-09 -2.8260456079261613e-09 1.4949816326612483e-15
288 -1.1092564103153916e-09 4.721071437733859e-09 -1.9003344206624162e-15
289 -2.1923622879412477e-09 -1.4281460789850926e-09 9.985458206049309e-10
290 1.9061452286567224e-10 -5.014604226702938e-09 1.410480863218539e-09
337 5.693228286915858e-09 6.8258674288242865e-09 3.261396316004012e-09
338 -3.829507086238992e-09 3.95419325615736e-09 2.4441105777615424e-09
339 -3.365188205485833e-09 -2.532756403274767e-09 -5.338972432932472e-09
340 4.853787252390718e-09 -4.640259362169849e-09 2.847533850190714e-09
346 -2.5327548007539497e-09 -3.365189630736649e-09 -5.338972970651478e-09
345 -4.6402617465321615e-09 4.8537859674971195e-09 2.847535938133578e-09
344 3.9541975966133575e-09 -3.829506189252782e-09 2.444107813974487e-09
343 6.825866759632337e-09 5.693228615991765e-09 3.261397330800911e-09
296 -1.4281411390610389e-09 -2.19235974234402e-09 9.985419918683391e-10
295 -5.014601953979178e-09 1.906147387657621e-10 1.4104831093079423e-09
294 4.721064816994737e-09 -1.109244010869657e-09 -3.941303042853954e-16
293 -2.8260357093140055e-09 -2.9779285936841934e-09 3.508468788147729e-16
350 -3.099758931056366e-09 2.993110755166364e-10 4.441405585319641e-09
349 2.9930597083996646e-10 -3.0997594798178158e-09 4.441406741724803e-09
348 2.4709177473445927e-09 2.4709145880977084e-09 1.6718078499228122e-09
347 -3.0245416411982313e-09 -3.024536296305417e-09 -8.169321229278788e-10
300 -2.59024053360161e-09 2.3474262665077863e-09 -4.922477456769562e-09
299 2.3474245918348468e-09 -2.5902382222777695e-09 -4.9224805708877385e-09
259 -4.924150447215095e-09 -5.85938309478632e-10 4.94302041169957e-09
298 -1.9032828137429745e-09 -1.9032836501619334e-09 1.0789834117318321e-15
297 9.222041933221089e-10 9.221958575612135e-10 -2.8422232603958008e-15
1 1.9511718507849437e-09 1.951173850477923e-09 -1.1556978608101992e-15
51 -3.6855987280310613e-09 -3.6855984096282856e-09 2.1373521742493796e-09
44 -5.859336910041817e-10 -4.924149850406089e-09 4.943023354972501e-09
353 3.794790057523312e-09 9.813447326450027e-10 5.993130067199556e-10
354 3.9916570643486556e-09 1.6003393623255574e-09 5.86234092749448e-10
355 -2.983490342791616e-10 4.615358772589708e-09 -4.5664170671990455e-15
356 5.792908870850543e-10 2.818407533100789e-09 -8.27022725711003e-15
363 4.610839430938402e-09 1.6126829030107693e-10 -3.5289046914211295e-09
365 1.3465102365982625e-09 3.542960502554659e-09 -3.1823081420232458e-15
402 3.79479444909216e-09 9.813399156281504e-10 -5.993056751281259e-10
403 3.9916639991511314e-09 1.600340882711274e-09 -5.862252381128518e-10
407 4.6108392492366495e-09 1.6127154970551236e-10 3.528908045369566e-09
357 7.172495507762471e-10 2.030274746895293e-09 4.341344854364627e-09
358 -4.6395703722522446e-10 6.698215898133984e-10 -2.468332372501182e-09
359 2.6486450739684297e-09 4.4363862141830144e-10 -2.1508760233865656e-15
360 1.4052179179196561e-09 2.0847353773116693e-09 7.137333452604527e-16
367 2.2254583308698318e-09 2.430417617716629e-09 8.051172112005863e-10
369 -4.224194577321846e-09 4.22418683129214e-09 -6.722078473089443e-15
404 7.172531503174988e-10 2.030278960605547e-09 -4.341340804805513e-09
405 -4.639642063195524e-10 6.698219303195271e-10 2.4683366346629282e-09
409 2.225458192036029e-09 2.4304080525550897e-09 -8.051098918237677e-10
361 -4.834844546656668e-09 -4.6742484382033e-10 -2.311153669235971e-09
364 1.000888682994905e-09 -1.0316015890539726e-09 -1.9621684504364403e-09
366 -2.2346027187650295e-09 5.113257476842164e-09 -2.1600349734861515e-15
373 2.384001507865749e-09 8.206777918260643e-10 1.1265305855153146e-10
375 -6.40064842602092e-09 6.400644009634272e-09 -1.1777606573370913e-15
406 -4.834849947482727e-09 -4.67426859971152e-10 2.311156038154097e-09
408 1.0008836606403002e-09 -1.031598780949417e-09 1.9621754614650167e-09
412 2.3840075143643143e-09 8.206778792792652e-10 -1.1264983903284645e-10
374 -8.206754589528389e-10 -2.3840002917681456e-09 1.1265366674753523e-10
376 -7.686234921986757e-10 7.686250769924929e-10 -1.284912063970903e-15
413 -8.206817839465076e-10 -2.3840000758195834e-09 -1.126503117528516e-10
368 -2.430419816231657e-09 -2.225453137385046e-09 8.051196090058745e-10
370 3.742923243330998e-09 -3.742914809359809e-09 -5.7281626765818506e-15
377 1.0316052174015996e-09 -1.0008933193787033e-09 -1.9621711017215593e-09
379 -3.542967123589231e-09 -1.346518095568348e-09 -4.939924053712003e-16
410 -2.430423011818892e-09 -2.225448807269799e-09 -8.05115242402552e-10
414 1.0316069737226094e-09 -1.0008923233105652e-09 1.9621715507479737e-09
378 -1.6126984377719383e-10 -4.610838268042572e-09 -3.5289084183013325e-09
380 -5.113259196398114e-09 2.2346093292511134e-09 -4.616124699410068e-15
415 -1.6127261568912395e-10 -4.610833821229191e-09 3.5289101395191886e-09
383 1.575996185940673e-09 1.5759955430414661e-09 -2.5760327379453128e-09
384 6.706189408276681e-10 6.706275277865614e-10 -1.3441926239564632e-09
385 3.6400167060964553e-09 -1.3960577185835945e-09 -2.2579258690817733e-15
386 -1.3960507069641181e-09 3.6400236113539302e-09 -6.631079872100011e-15
417 1.575997474102687e-09 1.5759920378226278e-09 2.5760400412478043e-09
418 6.706262774421478e-10 6.706278034414144e-10 1.3441968347099088e-09
387 4.674256473889419e-10 4.834840209574196e-09 -2.3111508000032716e-09
388 7.521353853682998e-10 5.670565811500151e-09 1.8617334387040063e-09
389 -5.281258586405747e-09 -2.000117044367832e-09 1.3945240151627185e-16
390 -8.59293801715012e-10 -1.6699930220593873e-09 3.596344390275079e-15
419 4.674279287061418e-10 4.834843589940552e-09 2.3111561184911078e-09
420 7.521299922239412e-10 5.670570615517203e-09 -1.8617362460699368e-09
423 5.670558401318621e-09 7.52141746406869e-10 -1.8617338464250107e-09
422 4.834848898044316e-09 4.674231472356178e-10 2.3111494734766134e-09
396 -2.000111516055097e-09 -5.281262228713387e-09 -9.200313100035393e-16
395 -1.670003720670821e-09 -8.593007984004138e-10 -1.0778016117189823e-15
394 5.670562348530664e-09 7.521373046115207e-10 1.8617335616112075e-09
393 4.834849182858119e-09 4.674218136850971e-10 -2.3111492806216237e-09
425 -1.2562535915201983e-09 -1.2562496816087183e-09 4.795598417116744e-10
424 1.5586747350655769e-09 1.5586612609294087e-09 -1.0255755996011713e-09
400 6.873238366166123e-09 -3.3707636829407908e-09 -5.955383944778448e-15
399 -3.3707744937841733e-09 6.873230375646924e-09 3.093952433640675e-15
398 -1.2562535560661979e-09 -1.256248784548646e-09 -4.795497062993142e-10
397 1.5586718463585672e-09 1.5586671831350592e-09 1.0255791277427748e-09
427 -3.1972169180546745e-09 6.198818722469599e-10 -1.2470254015305598e-09
428 -4.199847932353924e-09 -1.1953997277680316e-09 2.3612066679494997e-09
432 -6.581496403122488e-09 1.597050919882002e-09 2.3466963572125284e-09
453 -2.6682805866379275e-09 1.7950915841181066e-11 -1.986064956938418e-09
454 3.616233396831458e-10 -1.0230284163009311e-09 -9.166654259778418e-10
455 2.301692145833596e-09 8.886182324929836e-11 -4.566524335715012e-10
456 -6.912156941736174e-11 4.229157333751806e-10 6.957086425536694e-10
463 2.2952289418351213e-09 7.702958609422594e-10 -1.96965483443184e-09
465 7.126254550204066e-10 -2.1746851792087435e-09 -1.0133038283519954e-09
429 -2.0075605587154907e-09 2.2972213609309847e-09 4.339097322491289e-09
430 -1.0321684893242553e-09 -1.6883983697920076e-09 1.0892641136715662e-09
434 1.3864457077220828e-09 -1.3864551396679853e-09 8.888810447252411e-10
457 1.5805141235743249e-09 1.1329668730640546e-09 1.3672352348786773e-09
458 2.0149498649306348e-09 -2.9729152972812334e-09 -3.4610861238805354e-10
460 -5.917633574613991e-10 -1.3363447594223106e-09 -2.90528486922585e-09
467 -2.1205818556256197e-09 7.612998396991371e-10 2.3236423044460072e-09
469 5.615153231843798e-11 -5.6157061259004344e-11 4.966677958792917e-09
211 2.9729233867023214e-09 -2.014957209226815e-09 -3.4611627281573684e-10
433 -7.490591250717514e-10 6.336426685728235e-10 3.9366666174524426e-09
436 -4.919311925147886e-10 2.9311953376830107e-09 2.019737127013187e-10
437 -4.073114986743551e-09 4.0731087385668835e-09 -8.857600007081058e-10
464 5.117162676485526e-09 2.3793893324096004e-09 1.9963726875584945e-09
466 -5.89022553070627e-09 -3.2557997769939484e-09 -2.755670904010126e-09
473 6.4949463479230254e-09 -2.157138350927856e-09 -1.0295124808423327e-09
475 -1.6762827328646928e-09 1.6762798788176617e-09 2.206844458542663e-09
438 8.845967360466576e-10 -8.84594750622636e-10 -1.1164194585544759e-09
474 2.1571315886681828e-09 -6.494943724326997e-09 -1.0295102253770082e-09
476 6.090654780583946e-11 -6.090035753737216e-11 1.2360232393139329e-09
435 2.0225246399868567e-09 -2.022516475740747e-09 -1.4615419914050975e-09
439 -1.5970581507253806e-09 6.5814940737946624e-09 2.346697765327244e-09
468 -7.6130763367253e-10 2.120589583157385e-09 2.323641384204651e-09
470 -4.917569184866874e-10 4.917634187699199e-10 2.0154175428021776e-09
477 -2.3793826563659313e-09 -5.117169503714193e-09 1.996372196225139e-09
479 2.1746731963475134e-09 -7.126348887390092e-10 -1.013302431021205e-09
440 -6.336351950541984e-10 7.490667973038819e-10 3.93666691636475e-09
478 -7.703002548747072e-10 -2.2952192155286873e-09 -1.969656760174961e-09
480 3.2558007862650085e-09 5.890235587912092e-09 -2.755670778434216e-09
214 1.3363495762625852e-09 5.917672987275108e-10 -2.905283970589275e-09
442 -2.931198656177447e-09 4.919282242624821e-10 2.0196700982709583e-10
443 4.919291952727668e-10 -2.931196138943419e-09 2.019724797884553e-10
471 -1.6969469173557755e-09 -1.696940618361707e-09 -3.981268361518899e-09
483 1.6969450631115552e-09 1.6969394909244946e-09 -3.981260948678318e-09
484 3.2473862289345676e-09 3.24739888231958e-09 1.8577532438045294e-09
485 2.718321577672425e-09 -4.1995382706146565e-09 -1.5387282218066568e-09
486 -4.1995384985543345e-09 2.7183220976644308e-09 -1.5387283919858588e-09
444 -3.3651961519091196e-09 -2.5327645506040557e-09 5.3389701101045475e-09
445 4.853786362679965e-09 -4.640255403474495e-09 -2.8475421046437106e-09
487 5.693233682516145e-09 6.825859714682407e-09 -3.2613968240833815e-09
488 -3.829508347219606e-09 3.954197882608961e-09 -2.4441007657192107e-09
489 -2.1923599976128226e-09 -1.4281453131786841e-09 -9.985486129029112e-10
490 1.9062217712583673e-10 -5.0145958559372766e-09 -1.4104813853087013e-09
496 -1.4281415674635435e-09 -2.192357251109593e-09 -9.985427449703973e-10
495 -5.014601632529575e-09 1.906151447140665e-10 -1.4104828676298397e-09
494 3.954191758521294e-09 -3.829503768926356e-09 -2.4441065281760736e-09
493 6.825874096246817e-09 5.693226265391539e-09 -3.261398454397273e-09
448 -2.5327538494049395e-09 -3.365184886991397e-09 5.338971073862458e-09
447 -4.6402657835610055e-09 4.853778988377144e-09 -2.847534175183409e-09
500 -2.5902397698448862e-09 2.3474255475971415e-09 4.922477113783396e-09
499 2.3474122562063123e-09 -2.5902468092366627e-09 4.922483379140019e-09
498 2.4709097288315056e-09 2.4709236052318064e-09 -1.671814453378109e-09
497 -3.0245354977401237e-09 -3.0245422311057103e-09 8.169356174791938e-10
450 -3.0997462429190467e-09 2.993140218133145e-10 -4.441405684521596e-09
459 -4.924150056039291e-09 -5.859313167679559e-10 -4.9430231859751e-09
449 2.9930328579033726e-10 -3.099758432743004e-09 -4.441413295396774e-09
201 -3.6855986699566696e-09 -3.685601191917897e-09 -2.1373506342347036e-09
244 -5.859272306944115e-10 -4.924145629016443e-09 -4.943021693361683e-09
