LAMMPS data file via write_data, version 29 Aug 2024, timestep = 29, units = metal

500 atoms
3 atom types

0 17.57655312999847 xlo xhi
0 17.57655312999847 ylo yhi
0 17.57655312999847 zlo zhi

Masses

1 56.2383
2 55.845
3 55.845

Atoms # atomic

1 2 0.0002498581600797694 0.0002498581600814328 0 0 0 0
2 3 1.7574054548397657 1.757405454839767 2.7204757310759427e-16 0 0 0
3 1 1.7558971499544156 0.0017581630454319077 1.7540244051111815 0 0 0
4 1 0.001758163045430626 1.7558971499544151 1.7540244051111813 0 0 0
5 1 3.510681565139339 0.001749185030520946 0 0 0 0
8 1 3.5148118020889134 1.758484631561403 1.75703130875863 0 0 0
21 1 0.0017491850305206538 3.5106815651393384 8.555051732409739e-17 0 0 0
23 1 1.7584846315614027 3.514811802088913 1.7570313087586293 0 0 0
25 1 3.5114353829274423 3.511435382927444 0 0 0 0
52 1 1.7583434660211186 1.7583434660211184 3.512864731769407 0 0 0
53 1 1.757185231718091 0.00047008128175606023 5.271916346164505 0 0 0
54 1 0.0004700812817561084 1.7571852317180914 5.271916346164504 0 0 0
58 1 3.5148267396834854 1.7573436826246993 5.272191909244585 0 0 0
73 1 1.7573436826246986 3.5148267396834867 5.272191909244586 0 0 0
75 1 3.5165023176733756 3.516502317673375 3.516595863953467 0 0 0
6 1 5.26935064329197 1.7572785296600546 6.29129828579645e-17 0 0 0
9 1 7.030097253050506 0.00047885307491315067 0 0 0 0
12 1 7.029912917087573 1.7575990953110432 1.7571349045721332 0 0 0
27 1 5.273608443444858 3.516066939185178 1.7580942491943299 0 0 0
29 1 7.030010677681715 3.5146477109220524 0 0 0 0
56 1 5.270180341347268 1.7573566893222436 3.5127381788116256 0 0 0
57 1 5.272089365412047 0.00031224496953701826 5.271881197323674 0 0 0
59 1 7.030287392972819 0.000311219968705011 3.515052184394687 0 0 0
62 1 7.029722038908891 1.757507655274707 5.2720580481859685 0 0 0
77 1 5.273039142851308 3.514942029891818 5.272833901799451 0 0 0
79 1 7.030224569886725 3.5148825038851315 3.5151906508940702 0 0 0
10 1 8.788268625258892 1.757606488960014 0 0 0 0
11 1 8.788070392425608 8.429424465445792e-05 1.7575182024212417 0 0 0
31 1 8.788080409570911 3.5151156398293355 1.757548000929828 0 0 0
60 1 8.78816188227931 1.7576245412471805 3.5149453750451727 0 0 0
61 1 8.788176961223106 0.00014320202012678141 5.272677578143638 0 0 0
81 1 8.788192380445222 3.515044189677357 5.272754646290854 0 0 0
13 1 10.545939817739425 4.882403983237881e-05 4.46762662291772e-16 0 0 0
14 1 12.304111189947811 1.7571764599249333 6.49207320000005e-18 0 0 0
15 1 12.304295525910742 5.621768880362841e-05 1.757134904572134 0 0 0
16 1 10.546138050572708 1.7575710187551914 1.757518202421242 0 0 0
33 1 10.546056998569815 3.515000167568773 1.7747638442611223e-16 0 0 0
35 1 12.304027084905378 3.5152011123620635 1.757253389222698 0 0 0
63 1 10.546046560719008 3.0771752665956423e-05 3.5149453750451713 0 0 0
64 1 12.303921050025497 1.7573440930311408 3.515052184394686 0 0 0
65 1 12.304486404089426 0.00014765772513896484 5.272058048185968 0 0 0
66 1 10.54603148177521 1.7575121109797212 5.272677578143639 0 0 0
83 1 10.546144354147303 3.5151385132573485 3.5150463937725127 0 0 0
85 1 12.303653212628374 3.5150808387303334 5.272897732739943 0 0 0
71 1 17.575870824440223 3.5132803738238834 3.513369791189867 -1 0 0
17 1 14.064857799706346 0.0003767833397915824 1.2845198837386628e-18 0 0 0
18 1 15.823526877858978 1.7559061279693255 0 0 0 0
20 1 14.060947140065961 1.7583174137627722 1.7579099211284153 0 0 0
37 1 14.064445954133753 3.5121466660060534 1.6294719070017374e-15 0 0 0
39 1 15.81755609718395 3.516652345814365 1.758939748829095 0 0 0
67 1 14.064028101651047 0.00029862367760458386 3.512738178811626 0 0 0
68 1 15.820928069174432 1.7583376185580908 3.513369791189866 0 0 0
69 1 15.819381703314829 0.0003116303751475674 5.272191909244587 0 0 0
70 1 14.062119077586269 1.7573430680303075 5.271881197323673 0 0 0
87 1 14.061082348717754 3.5154038874896942 3.5156854693318276 0 0 0
89 1 15.819251020488414 3.514957422509902 5.2724855242406194 0 0 0
22 1 1.7572785296600544 5.269350643291968 5.774729473121753e-17 0 0 0
28 1 3.516066939185178 5.273608443444858 1.7580942491943283 0 0 0
41 1 0.0004788530749117684 7.030097253050506 1.4178165083810716e-16 0 0 0
42 1 1.7575990953110432 7.029912917087574 1.7571349045721345 0 0 0
43 1 3.5146477109220537 7.030010677681714 6.34174413277262e-16 0 0 0
72 1 1.7573566893222428 5.2701803413472685 3.512738178811626 0 0 0
74 1 0.00031224496953836765 5.272089365412047 5.271881197323674 0 0 0
78 1 3.5149420298918166 5.2730391428513075 5.272833901799452 0 0 0
91 1 0.0003112199687057187 7.030287392972819 3.515052184394687 0 0 0
92 1 1.757507655274708 7.029722038908891 5.2720580481859685 0 0 0
93 1 3.5148825038851297 7.030224569886726 3.51519065089407 0 0 0
251 1 1.757606488960014 8.788268625258892 0 0 0 0
252 1 8.429424465446257e-05 8.788070392425608 1.7575182024212417 0 0 0
254 1 3.5151156398293346 8.788080409570913 1.7575480009298285 0 0 0
301 1 1.7576245412471805 8.788161882279308 3.5149453750451722 0 0 0
302 1 0.00014320202012505718 8.788176961223106 5.272677578143638 0 0 0
304 1 3.515044189677356 8.788192380445222 5.272754646290854 0 0 0
26 1 5.269616701951584 5.269616701951585 7.798461589899265e-17 0 0 0
32 1 7.030339459679169 5.272879092863959 1.7572212679272445 0 0 0
44 1 5.272879092863958 7.030339459679169 1.7572212679272436 0 0 0
45 1 7.029566278018096 7.029566278018096 5.527376943870201e-16 0 0 0
76 1 5.273506702877363 5.273506702877362 3.5157160079747114 0 0 0
82 1 7.03070858469294 5.272851921018826 5.272998316305312 0 0 0
94 1 5.272851921018826 7.03070858469294 5.272998316305312 0 0 0
95 1 7.030709202878429 7.030709202878429 3.515139666325477 0 0 0
30 1 8.788172896298033 5.272548804350332 2.258155710283954e-16 0 0 0
46 1 8.788198486352465 7.030454296111481 1.7573779061249093 0 0 0
80 1 8.788091428398845 5.2727229076560365 3.5150622580559205 0 0 0
253 1 5.272548804350332 8.788172896298033 2.142850593817973e-19 0 0 0
256 1 7.030454296111482 8.788198486352464 1.7573779061249097 0 0 0
303 1 5.2727229076560365 8.788091428398845 3.5150622580559205 0 0 0
255 1 8.788012364759314 8.788012364759314 1.3085211779421552e-16 0 0 0
34 1 12.304562534480269 5.271864988167352 0 0 0 0
36 1 10.546045351278487 5.2727249543644295 1.7574741318434064 0 0 0
47 1 10.546228432670304 7.030152439603965 0 0 0 0
48 1 12.30382799713072 7.030380445867597 1.757358899818192 0 0 0
84 1 12.30376164297041 5.272866161423126 3.5150812577419313 0 0 0
86 1 10.545951450146402 5.272778834379135 5.272794748910256 0 0 0
96 1 8.78829733546058 7.030544359685693 5.272848274939567 0 0 0
97 1 10.545949509386551 7.030499684406168 3.5150685806068136 0 0 0
98 1 12.303658623126902 7.030549819871413 5.272848832741508 0 0 0
257 1 12.304056003394349 8.787980010328011 2.6862931769471022e-17 0 0 0
258 1 10.546010215987902 8.788198227010414 1.7573787102230063 0 0 0
307 1 12.303708758592148 8.788258933611765 3.515068580606814 0 0 0
308 1 10.54596614174867 8.788242301249646 5.272823941945224 0 0 0
100 1 15.819127604267983 7.030555230369942 5.272897732739942 0 0 0
99 1 14.06134228157519 7.030446800027907 3.5150812577419304 0 0 0
90 1 14.061281499870187 5.272926943128129 5.273065960878513 0 0 0
88 1 15.818804555508622 5.273126094280562 3.5156854693318285 0 0 0
24 1 17.575891029235546 5.273261302932356 1.757909921128416 -1 0 0
38 1 15.822061776992262 5.269762488864565 2.982133743063346e-19 0 0 0
40 1 14.061545501086709 5.272662941911604 1.757005646089138 0 0 0
49 1 14.062343454830964 7.029645908518048 6.648789203596322e-19 0 0 0
50 1 15.819007330636254 7.030181358092939 1.7572533892226974 0 0 0
259 1 15.819208275429542 8.788151444428498 1.6785662984907454e-19 0 0 0
260 1 14.061483488633886 8.788163091719829 1.7574741318434062 0 0 0
309 1 15.819069929740966 8.788064088851012 3.515046393772511 0 0 0
310 1 14.06142960861918 8.788256992851915 5.272794748910255 0 0 0
101 1 7.87035327693882e-05 7.87035327697272e-05 7.030399419609263 0 0 0
102 1 1.757576609467078 1.757576609467078 7.030399419609263 0 0 0
103 1 1.7575925052079358 6.280779191239899e-05 8.788276564999235 0 0 0
104 1 6.280779190984008e-05 1.7575925052079353 8.788276564999235 0 0 0
105 1 3.514968959291961 8.901642212985763e-05 7.030282735295035 0 0 0
108 1 3.5151229681705547 1.7576231728275484 8.788276564999235 0 0 0
121 1 8.901642213030294e-05 3.5149689592919615 7.030282735295034 0 0 0
123 1 1.7576231728275487 3.5151229681705565 8.788276564999235 0 0 0
125 1 3.515088353950443 3.5150883539504436 7.030196850044871 0 0 0
151 1 7.870353276847105e-05 7.870353276956075e-05 10.546153710389207 0 0 0
152 1 1.7575766094670786 1.757576609467078 10.546153710389207 0 0 0
153 1 3.5149689592919615 8.901642212997186e-05 10.546270394703436 0 0 0
161 1 8.901642212967055e-05 3.514968959291961 10.546270394703434 0 0 0
163 1 3.515088353950442 3.515088353950443 10.5463562799536 0 0 0
106 1 5.27259421983884 1.7575064848472541 7.03038716043637 0 0 0
107 1 5.272639645852533 3.948446014860475e-05 8.788276564999235 0 0 0
109 1 7.030209837875887 0.00014531301221137118 7.030233434185397 0 0 0
112 1 7.030356053202135 1.7575109437384133 8.788276564999235 0 0 0
127 1 5.272718817022753 3.515146704623283 8.788276564999235 0 0 0
129 1 7.030521547897292 3.515046809054056 7.030539024598162 0 0 0
154 1 5.27259421983884 1.7575064848472526 10.5461659695621 0 0 0
155 1 7.030209837875885 0.00014531301221068808 10.546319695813073 0 0 0
165 1 7.030521547897294 3.515046809054057 10.546014105400308 0 0 0
110 1 8.78800568916691 1.7575129357419026 7.03028884457303 0 0 0
111 1 8.788188715053513 0.00014111008974147086 8.788276564999235 0 0 0
131 1 8.788223463589393 3.5150405969784537 8.788276564999235 0 0 0
156 1 8.78800568916691 1.7575129357419033 10.54626428542544 0 0 0
113 1 10.546202753831405 0.0001423772579441535 7.03028884457303 0 0 0
114 1 12.30399860512243 1.757509999987635 7.030233434185397 0 0 0
115 1 12.30385238979618 0.00014436926143539507 8.788276564999235 0 0 0
116 1 10.546019727944804 1.7575142029101032 8.788276564999235 0 0 0
133 1 10.545952168667345 3.515046512129482 7.030553842019648 0 0 0
135 1 12.30379649338691 3.515036458394403 8.788276564999235 0 0 0
157 1 10.546202753831405 0.00014237725794351294 10.54626428542544 0 0 0
158 1 12.30399860512243 1.7575099999876356 10.546319695813073 0 0 0
167 1 10.545952168667345 3.515046512129482 10.545999287978821 0 0 0
117 1 14.061614223159475 0.00014882815259465777 7.030387160436368 0 0 0
118 1 15.819239483706356 1.7575662965777163 7.030282735295035 0 0 0
119 1 15.81908547482776 3.214017229912114e-05 8.788276564999235 0 0 0
120 1 14.061568797145782 1.7576158285396999 8.788276564999235 0 0 0
137 1 14.061516435529159 3.5150123818391674 7.030301818968894 0 0 0
139 1 15.819071752585039 3.515136690413275 8.788276564999235 0 0 0
159 1 14.061614223159475 0.00014882815259184128 10.5461659695621 0 0 0
160 1 15.819239483706355 1.7575662965777166 10.546270394703436 0 0 0
169 1 14.061516435529157 3.515012381839167 10.546251311029577 0 0 0
122 1 1.7575064848472528 5.272594219838839 7.03038716043637 0 0 0
124 1 3.948446014792247e-05 5.272639645852534 8.788276564999235 0 0 0
128 1 3.515146704623282 5.272718817022753 8.788276564999236 0 0 0
141 1 0.00014531301221023998 7.030209837875886 7.030233434185397 0 0 0
142 1 1.7575109437384124 7.0303560532021345 8.788276564999235 0 0 0
143 1 3.515046809054056 7.030521547897293 7.030539024598161 0 0 0
162 1 1.7575064848472526 5.272594219838839 10.5461659695621 0 0 0
171 1 0.00014531301220984874 7.030209837875887 10.546319695813073 0 0 0
172 1 3.515046809054056 7.030521547897293 10.546014105400308 0 0 0
351 1 1.7575129357419028 8.788005689166912 7.03028884457303 0 0 0
352 1 0.00014111008974199924 8.788188715053513 8.788276564999235 0 0 0
354 1 3.5150405969784533 8.788223463589393 8.788276564999235 0 0 0
401 1 1.7575129357419033 8.788005689166912 10.54626428542544 0 0 0
126 1 5.272780181995383 5.272780181995382 7.0304361649056535 0 0 0
132 1 7.030489974419538 5.272770788510905 8.788276564999235 0 0 0
144 1 5.272770788510906 7.030489974419538 8.788276564999235 0 0 0
145 1 7.030548323097804 7.030548323097804 7.0306074447599025 0 0 0
164 1 5.272780181995383 5.272780181995384 10.546116965092816 0 0 0
173 1 7.030548323097803 7.030548323097805 10.545945685238566 0 0 0
146 1 8.78826336247426 7.030514290464151 8.788276564999235 0 0 0
356 1 7.030514290464151 8.788263362474261 8.788276564999235 0 0 0
355 1 8.788252809966258 8.788252809966258 7.03056265271881 0 0 0
403 1 8.78825280996626 8.788252809966258 10.545990477279659 0 0 0
130 1 8.788297936389432 5.272773515043986 7.030604441085647 0 0 0
134 1 12.30366459243749 5.272775824744546 7.030620065644515 0 0 0
136 1 10.54598134793295 5.27275757567268 8.788276564999235 0 0 0
147 1 10.545977852800439 7.030510796276045 7.030567067216597 0 0 0
148 1 12.303705145120205 7.030503297878109 8.788276564999235 0 0 0
166 1 8.788297936389432 5.272773515043985 10.545948688912821 0 0 0
168 1 12.30366459243749 5.272775824744545 10.545933064353953 0 0 0
174 1 10.54597785280044 7.030510796276045 10.545986062781873 0 0 0
357 1 12.303697646722272 8.788230590197875 7.030567067216596 0 0 0
358 1 10.545973693277865 8.788234749720448 8.788276564999235 0 0 0
404 1 12.303697646722272 8.788230590197875 10.545986062781873 0 0 0
138 1 15.819196061159147 5.272692007469156 7.030301818968893 0 0 0
140 1 14.06150272473293 5.272705718265384 8.788276564999235 0 0 0
149 1 14.061432618253772 7.030543850560827 7.030620065644516 0 0 0
150 1 15.819171984603912 7.030411949611406 8.788276564999235 0 0 0
170 1 15.819196061159149 5.272692007469158 10.546251311029577 0 0 0
175 1 14.061432618253772 7.030543850560827 10.545933064353953 0 0 0
359 1 15.819161930868834 8.788256274330971 7.030553842019649 0 0 0
360 1 14.061450867325638 8.788227095065364 8.788276564999235 0 0 0
405 1 15.819161930868834 8.788256274330971 10.54599928797882 0 0 0
176 1 1.757185231718091 0.00047008128175438855 12.304636783833965 0 0 0
177 1 0.0004700812817541276 1.7571852317180912 12.304636783833965 0 0 0
179 1 3.5148267396834854 1.7573436826246993 12.304361220753883 0 0 0
186 1 1.7573436826246993 3.5148267396834862 12.304361220753883 0 0 0
202 1 1.7583434660211186 1.7583434660211184 14.063688398229063 0 0 0
203 1 1.7558971499544167 0.0017581630454312424 15.822528724887286 0 0 0
204 1 0.0017581630454305617 1.7558971499544165 15.822528724887286 0 0 0
208 1 3.5148118020889125 1.7584846315614027 15.819521821239839 0 0 0
223 1 1.7584846315614027 3.514811802088913 15.819521821239839 0 0 0
225 1 3.5165023176733756 3.5165023176733756 14.059957266045002 0 0 0
178 1 5.2720893654120475 0.00031224496953832776 12.304671932674793 0 0 0
181 1 7.029722038908891 1.757507655274707 12.3044950818125 0 0 0
188 1 5.273039142851308 3.5149420298918175 12.303719228199018 0 0 0
206 1 5.270180341347268 1.757356689322244 14.063814951186844 0 0 0
209 1 7.030287392972819 0.0003112199687044472 14.061500945603782 0 0 0
212 1 7.029912917087573 1.7575990953110436 15.819418225426336 0 0 0
227 1 5.273608443444859 3.516066939185178 15.818458880804139 0 0 0
229 1 7.030224569886724 3.5148825038851315 14.0613624791044 0 0 0
180 1 8.788176961223108 0.00014320202012677721 12.303875551854832 0 0 0
190 1 8.788192380445222 3.5150441896773565 12.303798483707613 0 0 0
210 1 8.78816188227931 1.7576245412471803 14.061607754953297 0 0 0
211 1 8.78807039242561 8.429424465413452e-05 15.819034927577226 0 0 0
231 1 8.788080409570913 3.515115639829335 15.81900512906864 0 0 0
182 1 12.304486404089428 0.00014765772513818202 12.304495081812501 0 0 0
183 1 10.546031481775207 1.7575121109797205 12.30387555185483 0 0 0
192 1 12.303653212628374 3.5150808387303334 12.303655397258527 0 0 0
213 1 10.546046560719006 3.077175266521497e-05 14.061607754953299 0 0 0
214 1 12.303921050025497 1.7573440930311413 14.061500945603784 0 0 0
215 1 12.304295525910744 5.6217688803972065e-05 15.819418225426336 0 0 0
216 1 10.546138050572708 1.7575710187551918 15.819034927577228 0 0 0
233 1 10.546144354147303 3.5151385132573476 14.061506736225956 0 0 0
235 1 12.304027084905378 3.515201112362063 15.819299740775769 0 0 0
221 1 17.575870824440223 3.5132803738238825 14.063183338808601 -1 0 0
184 1 15.81938170331483 0.0003116303751481075 12.304361220753883 0 0 0
185 1 14.062119077586269 1.7573430680303086 12.304671932674793 0 0 0
194 1 15.819251020488416 3.514957422509901 12.304067605757849 0 0 0
217 1 14.064028101651045 0.0002986236776044395 14.063814951186844 0 0 0
218 1 15.820928069174434 1.758337618558091 14.063183338808603 0 0 0
220 1 14.06094714006596 1.7583174137627708 15.818643208870053 0 0 0
237 1 14.061082348717752 3.5154038874896942 14.060867660666641 0 0 0
239 1 15.817556097183951 3.5166523458143653 15.817613381169373 0 0 0
187 1 0.00031224496953750794 5.2720893654120475 12.304671932674795 0 0 0
189 1 3.5149420298918166 5.2730391428513075 12.303719228199016 0 0 0
196 1 1.757507655274707 7.02972203890889 12.304495081812501 0 0 0
222 1 1.7573566893222432 5.2701803413472685 14.063814951186844 0 0 0
228 1 3.5160669391851775 5.273608443444859 15.81845888080414 0 0 0
241 1 0.0003112199687064243 7.030287392972818 14.061500945603782 0 0 0
242 1 1.7575990953110432 7.0299129170875725 15.819418225426334 0 0 0
243 1 3.5148825038851292 7.030224569886725 14.0613624791044 0 0 0
426 1 0.00014320202012611588 8.788176961223106 12.30387555185483 0 0 0
427 1 3.5150441896773557 8.788192380445222 12.303798483707617 0 0 0
451 1 1.7576245412471816 8.788161882279308 14.061607754953299 0 0 0
452 1 8.429424465461807e-05 8.78807039242561 15.819034927577228 0 0 0
454 1 3.515115639829335 8.788080409570913 15.819005129068639 0 0 0
191 1 7.030708584692939 5.272851921018826 12.303554813693157 0 0 0
197 1 5.272851921018827 7.03070858469294 12.303554813693157 0 0 0
226 1 5.273506702877364 5.273506702877362 14.06083712202376 0 0 0
232 1 7.030339459679169 5.272879092863958 15.819331862071225 0 0 0
244 1 5.272879092863959 7.030339459679169 15.819331862071227 0 0 0
245 1 7.030709202878429 7.030709202878428 14.061413463672993 0 0 0
230 1 8.788091428398845 5.272722907656037 14.06149087194255 0 0 0
246 1 8.788198486352465 7.030454296111482 15.819175223873561 0 0 0
453 1 5.2727229076560365 8.788091428398845 14.06149087194255 0 0 0
456 1 7.030454296111482 8.788198486352467 15.819175223873561 0 0 0
193 1 10.545951450146402 5.272778834379135 12.303758381088214 0 0 0
198 1 8.78829733546058 7.030544359685692 12.303704855058903 0 0 0
199 1 12.303658623126903 7.030549819871413 12.303704297256962 0 0 0
234 1 12.30376164297041 5.272866161423126 14.06147187225654 0 0 0
236 1 10.546045351278487 5.27272495436443 15.819078998155062 0 0 0
247 1 10.54594950938655 7.030499684406167 14.061484549391658 0 0 0
248 1 12.30382799713072 7.030380445867596 15.819194230180276 0 0 0
429 1 10.54596614174867 8.788242301249644 12.303729188053246 0 0 0
457 1 12.30370875859215 8.788258933611765 14.061484549391656 0 0 0
458 1 10.546010215987902 8.788198227010414 15.819174419775463 0 0 0
250 1 15.819007330636254 7.030181358092939 15.819299740775772 0 0 0
249 1 14.06134228157519 7.0304468000279075 14.06147187225654 0 0 0
240 1 14.06154550108671 5.272662941911606 15.81954748390933 0 0 0
238 1 15.818804555508622 5.273126094280562 14.060867660666641 0 0 0
224 1 17.575891029235546 5.273261302932355 15.818643208870053 -1 0 0
195 1 14.061281499870185 5.272926943128129 12.303487169119958 0 0 0
200 1 15.819127604267983 7.030555230369941 12.303655397258527 0 0 0
430 1 14.061429608619179 8.788256992851915 12.303758381088215 0 0 0
459 1 15.819069929740968 8.78806408885101 14.061506736225958 0 0 0
460 1 14.061483488633886 8.788163091719827 15.819078998155062 0 0 0
261 1 4.882403983473753e-05 10.545939817739425 1.7287149547488466e-18 0 0 0
262 1 1.7571764599249344 12.30411118994781 2.7261821443573104e-19 0 0 0
263 1 1.757571018755191 10.54613805057271 1.757518202421241 0 0 0
264 1 5.621768880298177e-05 12.304295525910742 1.7571349045721338 0 0 0
265 1 3.5150001675687714 10.546056998569815 5.62556409419802e-20 0 0 0
268 1 3.515201112362063 12.304027084905378 1.757253389222698 0 0 0
311 1 3.077175266522319e-05 10.546046560719008 3.5149453750451713 0 0 0
312 1 1.757344093031141 12.303921050025497 3.5150521843946865 0 0 0
313 1 1.7575121109797212 10.54603148177521 5.272677578143639 0 0 0
314 1 0.00014765772513924107 12.304486404089426 5.272058048185968 0 0 0
315 1 3.5151385132573485 10.546144354147303 3.5150463937725123 0 0 0
318 1 3.5150808387303325 12.303653212628374 5.272897732739941 0 0 0
266 1 5.271864988167352 12.30456253448027 7.484928031580492e-16 0 0 0
267 1 5.27272495436443 10.546045351278488 1.7574741318434064 0 0 0
269 1 7.030152439603966 10.546228432670304 8.027123541152656e-16 0 0 0
272 1 7.030380445867596 12.30382799713072 1.7573588998181915 0 0 0
306 1 7.030544359685691 8.78829733546058 5.272848274939567 0 0 0
316 1 5.272866161423125 12.303761642970409 3.515081257741931 0 0 0
317 1 5.272778834379135 10.545951450146402 5.272794748910255 0 0 0
319 1 7.030499684406167 10.545949509386551 3.515068580606813 0 0 0
322 1 7.030549819871413 12.303658623126902 5.272848832741508 0 0 0
270 1 8.78798001032801 12.30405600339435 4.122139430024252e-16 0 0 0
271 1 8.788198227010414 10.546010215987902 1.7573787102230072 0 0 0
320 1 8.788258933611765 12.303708758592148 3.515068580606813 0 0 0
321 1 8.788242301249646 10.545966141748671 5.272823941945223 0 0 0
273 1 10.546196078239001 10.546196078239001 9.783089416214642e-17 0 0 0
274 1 12.304642164980221 12.30464216498022 1.3811655612097357e-18 0 0 0
275 1 12.303754146886835 10.546009956645852 1.7573779061249095 0 0 0
276 1 10.54600995664585 12.303754146886833 1.7573779061249093 0 0 0
305 1 8.788286753030219 8.788286753030219 3.515073338756476 0 0 0
323 1 10.545921689968097 10.545921689968097 3.5150733387564763 0 0 0
324 1 12.303499240119887 12.303499240119887 3.5151396663254766 0 0 0
325 1 12.303664083312624 10.545911107537735 5.272848274939568 0 0 0
326 1 10.545911107537735 12.303664083312624 5.272848274939568 0 0 0
277 1 14.061659638647983 10.546035546700283 9.853643039462782e-18 0 0 0
278 1 15.819560732076262 12.304197765316601 0 0 0 0
279 1 15.81909280316898 10.546128033427404 1.7575480009298294 0 0 0
280 1 14.06132935013436 12.303868983319147 1.7572212679272439 0 0 0
327 1 14.061485535342278 10.54611701459947 3.51506225805592 0 0 0
328 1 15.819325939113185 12.30398387311159 3.51519065089407 0 0 0
329 1 15.81916425332096 10.546016062553093 5.272754646290854 0 0 0
330 1 14.06135652197949 12.303499858305376 5.272998316305313 0 0 0
281 1 0.00037678333979057377 14.064857799706347 1.8508127958757665e-19 0 0 0
282 1 1.7559061279693255 15.823526877858978 0 0 0 0
283 1 1.7583174137627715 14.060947140065961 1.7579099211284155 0 0 0
285 1 3.5121466660060525 14.064445954133753 4.952586705285579e-19 0 0 0
288 1 3.5166523458143644 15.817556097183951 1.7589397488290948 0 0 0
331 1 0.00029862367760345433 14.064028101651047 3.5127381788116256 0 0 0
332 1 1.7583376185580895 15.820928069174434 3.5133697911898665 0 0 0
333 1 1.7573430680303073 14.062119077586269 5.271881197323673 0 0 0
334 1 0.0003116303751464597 15.819381703314829 5.272191909244586 0 0 0
335 1 3.5154038874896933 14.061082348717754 3.515685469331828 0 0 0
338 1 3.514957422509903 15.819251020488414 5.2724855242406194 0 0 0
55 1 3.5132803738238825 17.575870824440226 3.513369791189867 0 -1 0
341 1 8.788256992851913 14.06142960861918 5.272794748910255 0 0 0
340 1 8.78806408885101 15.819069929740968 3.5150463937725114 0 0 0
286 1 5.269762488864565 15.822061776992264 5.285116845991826e-19 0 0 0
287 1 5.272662941911605 14.06154550108671 1.7570056460891375 0 0 0
289 1 7.029645908518047 14.062343454830962 1.8623359674422652e-16 0 0 0
292 1 7.030181358092938 15.819007330636254 1.7572533892226991 0 0 0
336 1 5.2731260942805624 15.818804555508622 3.51568546933183 0 0 0
337 1 5.272926943128129 14.061281499870185 5.273065960878513 0 0 0
339 1 7.030446800027907 14.061342281575191 3.515081257741931 0 0 0
342 1 7.030555230369941 15.819127604267983 5.272897732739941 0 0 0
290 1 8.7881514444285 15.819208275429544 0 0 0 0
291 1 8.788163091719829 14.061483488633888 1.7574741318434062 0 0 0
7 1 5.273261302932355 17.57589102923555 1.7579099211284148 0 -1 0
346 1 10.546016062553095 15.819164253320958 5.272754646290854 0 0 0
345 1 12.303499858305376 14.061356521979492 5.272998316305312 0 0 0
344 1 12.30398387311159 15.819325939113185 3.5151906508940702 0 0 0
343 1 10.546117014599472 14.061485535342278 3.5150622580559205 0 0 0
296 1 10.546128033427403 15.81909280316898 1.7575480009298288 0 0 0
295 1 12.303868983319148 14.06132935013436 1.757221267927245 0 0 0
294 1 12.304197765316603 15.819560732076262 1.2531437917335602e-16 0 0 0
293 1 10.546035546700283 14.061659638647983 3.021111969400054e-16 0 0 0
350 1 14.061169300147009 15.819266413106499 5.272833901799452 0 0 0
349 1 15.819266413106499 14.061169300147009 5.272833901799452 0 0 0
348 1 15.817706125324941 15.817706125324941 3.5165958639534662 0 0 0
347 1 14.060701740120951 14.060701740120951 3.5157160079747114 0 0 0
300 1 14.060599999553457 15.818141503813138 1.75809424919433 0 0 0
299 1 15.818141503813138 14.060599999553459 1.7580942491943294 0 0 0
298 1 15.822773060070874 15.822773060070874 2.091660274076766e-18 0 0 0
297 1 14.064591741046732 14.06459174104673 0 0 0 0
284 1 17.575723811436916 15.819396640909401 1.7570313087586305 -1 0 0
51 1 17.575864976977197 17.575864976977197 3.5128647317694064 -1 -1 0
19 1 15.819396640909403 17.575723811436916 1.7570313087586296 0 -1 0
361 1 0.00014237725794316017 10.546202753831405 7.030288844573031 0 0 0
362 1 1.7575099999876354 12.30399860512243 7.030233434185398 0 0 0
363 1 1.7575142029101047 10.546019727944804 8.788276564999235 0 0 0
364 1 0.00014436926143447402 12.30385238979618 8.788276564999235 0 0 0
365 1 3.5150465121294805 10.545952168667345 7.030553842019649 0 0 0
368 1 3.5150364583944023 12.30379649338691 8.788276564999235 0 0 0
406 1 0.00014237725794316982 10.546202753831405 10.54626428542544 0 0 0
407 1 1.757509999987636 12.303998605122432 10.546319695813073 0 0 0
408 1 3.5150465121294814 10.545952168667345 10.545999287978821 0 0 0
353 1 5.272773515043987 8.78829793638943 7.030604441085647 0 0 0
366 1 5.272775824744545 12.30366459243749 7.030620065644515 0 0 0
367 1 5.27275757567268 10.54598134793295 8.788276564999235 0 0 0
369 1 7.030510796276045 10.54597785280044 7.030567067216597 0 0 0
372 1 7.030503297878109 12.303705145120205 8.788276564999235 0 0 0
402 1 5.272773515043987 8.788297936389432 10.545948688912821 0 0 0
409 1 5.272775824744545 12.30366459243749 10.545933064353953 0 0 0
410 1 7.030510796276045 10.54597785280044 10.545986062781873 0 0 0
370 1 8.788230590197873 12.303697646722272 7.030567067216596 0 0 0
371 1 8.788234749720448 10.545973693277867 8.788276564999235 0 0 0
411 1 8.788230590197875 12.303697646722274 10.545986062781873 0 0 0
373 1 10.545955633032058 10.545955633032058 7.03056265271881 0 0 0
374 1 12.303660119900513 12.303660119900513 7.030607444759903 0 0 0
375 1 12.303694152534165 10.545945080524056 8.788276564999235 0 0 0
376 1 10.545945080524056 12.303694152534165 8.788276564999235 0 0 0
412 1 10.545955633032058 10.545955633032058 10.545990477279657 0 0 0
413 1 12.303660119900513 12.303660119900512 10.545945685238564 0 0 0
377 1 14.061434927954329 10.545910506608886 7.0306044410856465 0 0 0
378 1 15.81916163394426 12.303686895101023 7.03053902459816 0 0 0
379 1 15.819167846019862 10.54598497940892 8.788276564999235 0 0 0
380 1 14.061437654487408 12.30371846857878 8.788276564999235 0 0 0
414 1 14.061434927954329 10.545910506608886 10.545948688912823 0 0 0
415 1 15.81916163394426 12.303686895101023 10.54601410540031 0 0 0
381 1 0.00014882815259343666 14.061614223159475 7.03038716043637 0 0 0
382 1 1.7575662965777163 15.819239483706356 7.030282735295034 0 0 0
383 1 1.757615828539699 14.061568797145782 8.788276564999235 0 0 0
384 1 3.214017229747598e-05 15.819085474827759 8.788276564999235 0 0 0
385 1 3.5150123818391674 14.061516435529159 7.030301818968894 0 0 0
388 1 3.515136690413277 15.81907175258504 8.788276564999235 0 0 0
416 1 0.00014882815259376005 14.061614223159475 10.5461659695621 0 0 0
417 1 1.757566296577716 15.819239483706355 10.546270394703436 0 0 0
418 1 3.515012381839166 14.061516435529157 10.546251311029577 0 0 0
421 1 8.788256274330971 15.819161930868834 10.54599928797882 0 0 0
386 1 5.272692007469156 15.819196061159147 7.030301818968892 0 0 0
387 1 5.272705718265384 14.06150272473293 8.788276564999235 0 0 0
389 1 7.030543850560827 14.061432618253772 7.030620065644515 0 0 0
392 1 7.0304119496114055 15.819171984603914 8.788276564999235 0 0 0
419 1 5.272692007469157 15.819196061159149 10.546251311029577 0 0 0
420 1 7.030543850560827 14.061432618253772 10.545933064353953 0 0 0
390 1 8.788256274330971 15.819161930868834 7.030553842019649 0 0 0
391 1 8.788227095065366 14.061450867325638 8.788276564999235 0 0 0
423 1 12.303686895101025 15.81916163394426 10.54601410540031 0 0 0
422 1 10.545910506608884 14.061434927954329 10.545948688912821 0 0 0
396 1 10.54598497940892 15.819167846019864 8.788276564999235 0 0 0
395 1 12.30371846857878 14.06143765448741 8.788276564999235 0 0 0
394 1 12.303686895101023 15.81916163394426 7.030539024598159 0 0 0
393 1 10.545910506608886 14.061434927954329 7.0306044410856465 0 0 0
425 1 15.819120089047873 15.819120089047873 10.5463562799536 0 0 0
424 1 14.061428261002932 14.061428261002934 10.546116965092814 0 0 0
400 1 14.061489625975563 15.819061738375032 8.788276564999235 0 0 0
399 1 15.819061738375034 14.061489625975563 8.788276564999235 0 0 0
398 1 15.819120089047873 15.819120089047873 7.03019685004487 0 0 0
397 1 14.061428261002934 14.061428261002934 7.0304361649056535 0 0 0
431 1 1.757512110979721 10.546031481775207 12.30387555185483 0 0 0
432 1 0.0001476577251388336 12.304486404089426 12.304495081812501 0 0 0
434 1 3.5150808387303316 12.303653212628376 12.303655397258527 0 0 0
461 1 3.077175266334938e-05 10.546046560719008 14.061607754953299 0 0 0
462 1 1.7573440930311413 12.303921050025497 14.061500945603782 0 0 0
463 1 1.7575710187551914 10.546138050572708 15.81903492757723 0 0 0
464 1 5.621768880266652e-05 12.304295525910742 15.819418225426336 0 0 0
465 1 3.515138513257349 10.546144354147305 14.061506736225956 0 0 0
468 1 3.5152011123620626 12.30402708490538 15.81929974077577 0 0 0
428 1 7.030544359685691 8.78829733546058 12.303704855058903 0 0 0
433 1 5.272778834379135 10.5459514501464 12.303758381088215 0 0 0
436 1 7.030549819871413 12.303658623126902 12.303704297256962 0 0 0
466 1 5.272866161423126 12.30376164297041 14.06147187225654 0 0 0
467 1 5.272724954364429 10.546045351278487 15.819078998155062 0 0 0
469 1 7.030499684406166 10.545949509386551 14.061484549391658 0 0 0
472 1 7.030380445867597 12.30382799713072 15.819194230180276 0 0 0
435 1 8.788242301249646 10.545966141748671 12.303729188053246 0 0 0
470 1 8.788258933611765 12.303708758592148 14.061484549391656 0 0 0
471 1 8.788198227010414 10.546010215987902 15.819174419775463 0 0 0
437 1 12.303664083312626 10.545911107537735 12.303704855058903 0 0 0
438 1 10.545911107537734 12.303664083312626 12.303704855058903 0 0 0
455 1 8.788286753030219 8.788286753030219 14.061479791241991 0 0 0
473 1 10.545921689968097 10.545921689968097 14.061479791241993 0 0 0
474 1 12.303499240119887 12.303499240119887 14.061413463672993 0 0 0
475 1 12.303754146886835 10.546009956645852 15.81917522387356 0 0 0
476 1 10.546009956645852 12.303754146886835 15.819175223873561 0 0 0
439 1 15.81916425332096 10.546016062553095 12.303798483707617 0 0 0
440 1 14.061356521979492 12.303499858305376 12.303554813693157 0 0 0
477 1 14.061485535342278 10.54611701459947 14.06149087194255 0 0 0
478 1 15.819325939113186 12.30398387311159 14.0613624791044 0 0 0
479 1 15.819092803168981 10.546128033427404 15.819005129068639 0 0 0
480 1 14.061329350134358 12.303868983319147 15.819331862071227 0 0 0
441 1 1.757343068030309 14.062119077586269 12.304671932674793 0 0 0
442 1 0.0003116303751471689 15.819381703314829 12.304361220753885 0 0 0
444 1 3.514957422509901 15.819251020488416 12.304067605757849 0 0 0
481 1 0.00029862367760156213 14.064028101651047 14.063814951186844 0 0 0
482 1 1.7583376185580903 15.820928069174434 14.063183338808603 0 0 0
483 1 1.758317413762772 14.060947140065961 15.818643208870055 0 0 0
485 1 3.515403887489694 14.061082348717752 14.060867660666641 0 0 0
488 1 3.5166523458143644 15.817556097183951 15.817613381169373 0 0 0
205 1 3.5132803738238816 17.575870824440223 14.063183338808603 0 -1 0
491 1 8.788163091719829 14.061483488633886 15.819078998155064 0 0 0
490 1 8.788064088851012 15.819069929740968 14.061506736225958 0 0 0
443 1 5.272926943128129 14.061281499870185 12.303487169119958 0 0 0
446 1 7.030555230369941 15.819127604267983 12.303655397258527 0 0 0
486 1 5.273126094280563 15.81880455550862 14.06086766066664 0 0 0
487 1 5.272662941911606 14.06154550108671 15.819547483909332 0 0 0
489 1 7.030446800027907 14.06134228157519 14.06147187225654 0 0 0
492 1 7.030181358092938 15.819007330636255 15.819299740775769 0 0 0
445 1 8.788256992851915 14.061429608619179 12.303758381088215 0 0 0
207 1 5.273261302932356 17.575891029235546 15.818643208870055 0 -1 0
496 1 10.546128033427403 15.81909280316898 15.81900512906864 0 0 0
495 1 12.303868983319147 14.061329350134358 15.819331862071225 0 0 0
494 1 12.30398387311159 15.819325939113185 14.061362479104398 0 0 0
493 1 10.546117014599472 14.061485535342278 14.06149087194255 0 0 0
448 1 10.546016062553095 15.81916425332096 12.303798483707617 0 0 0
447 1 12.303499858305376 14.061356521979492 12.303554813693157 0 0 0
500 1 14.060599999553459 15.81814150381314 15.81845888080414 0 0 0
499 1 15.81814150381314 14.060599999553459 15.818458880804139 0 0 0
498 1 15.817706125324941 15.817706125324941 14.059957266045004 0 0 0
497 1 14.060701740120951 14.060701740120953 14.06083712202376 0 0 0
450 1 14.061169300147007 15.819266413106497 12.303719228199016 0 0 0
449 1 15.819266413106499 14.061169300147007 12.303719228199018 0 0 0
484 1 17.575723811436912 15.819396640909403 15.819521821239839 -1 0 0
201 1 17.575864976977197 17.575864976977197 14.063688398229061 -1 -1 0
219 1 15.819396640909403 17.575723811436916 15.819521821239839 0 -1 0

Velocities

1 -4.0391973685319574e-09 -4.039204247571714e-09 -5.475777986774465e-16
2 4.039202689058002e-09 4.039199979342141e-09 -9.880077796060222e-16
3 4.060618195481279e-09 -4.060615968404753e-09 4.7563581634868115e-09
4 -4.060616594593315e-09 4.060620318391458e-09 4.756360287289844e-09
5 -2.7662163106942613e-09 -1.2416998324636289e-09 -2.130945868296762e-16
8 1.9424767820988077e-09 4.186778059015163e-09 5.015712682149892e-09
21 -1.2417021526946329e-09 -2.766214164867486e-09 2.690467967793677e-16
23 4.186775523308627e-09 1.9424789597707237e-09 5.015717854157895e-09
25 8.71243074187615e-10 8.712373561991381e-10 -7.470215264559878e-16
52 2.9734857052080037e-09 2.973491467095156e-09 -1.3044709284184908e-09
53 2.1972199324148035e-09 -2.19722245681185e-09 -6.502679645378484e-09
54 -2.1972230990717922e-09 2.1972195467016966e-09 -6.5026786025245284e-09
58 2.0582545160533185e-09 1.0895187338732295e-09 -4.297105753673853e-09
73 1.089518855896666e-09 2.0582506211247463e-09 -4.297110328957489e-09
75 4.3099706372725073e-11 4.310290755341773e-11 4.393272972060331e-10
6 -1.7447786288688877e-09 3.1188728501575098e-09 -1.6404711768228704e-15
9 -6.6679956591827355e-09 -2.487672925676724e-09 -7.345215646587163e-16
12 -9.644564571634423e-10 2.520227185707305e-09 3.0375875158458983e-09
27 1.124455742164744e-09 2.4838050235376224e-09 -1.6489005415962947e-09
29 -1.8148220642049681e-09 4.381410461793285e-09 -1.2589247238680591e-16
56 1.5609297594284758e-09 5.935442343416992e-10 3.213113983807725e-09
57 4.767738897054773e-09 -1.7058487694451142e-09 -3.729324273969335e-09
59 -2.0303959351240545e-09 8.409871297519061e-10 5.164498711354491e-09
62 2.5187770282345543e-09 2.579732687178281e-10 1.3280670720771142e-12
77 2.698869506646517e-09 -9.365898336505743e-10 2.6629219338944568e-09
79 -6.488196213452673e-09 -4.802097950778943e-09 2.46791900360873e-10
10 -2.4624704509155092e-09 -2.9397724439576895e-10 -1.5074358691233378e-16
11 4.365338772816787e-09 -3.481318288870321e-09 -7.001973921802479e-10
31 2.2346251472626193e-09 -4.399104707715643e-09 4.147458470926427e-09
60 1.7660017312681609e-09 6.4744383793092695e-09 -3.923271242848996e-10
61 5.057915709715452e-09 1.5865513892330622e-09 3.829148170465887e-09
81 3.505385078822607e-09 -5.452938671055159e-09 -2.211962815740288e-09
13 2.4624696833769325e-09 2.939755872579764e-10 -5.488078465278253e-16
14 6.667997090009836e-09 2.4876753637529125e-09 -6.526196107286586e-16
15 9.644584000146474e-10 -2.520227683324832e-09 3.037584487878962e-09
16 -4.365339186836169e-09 3.48132146981298e-09 -7.001973689660331e-10
33 -2.049085416809098e-09 1.9235824567340476e-09 -5.095222523078291e-16
35 2.675975601371362e-10 6.481988344330096e-11 -5.724643283927189e-10
63 -1.7660058083576349e-09 -6.474437010265834e-09 -3.923221962121633e-10
64 2.030393836320945e-09 -8.409792631092817e-10 5.164500996726971e-09
65 -2.518781012755487e-09 -2.579704993996549e-10 1.3299352703257766e-12
66 -5.0579120115185725e-09 -1.5865584415924608e-09 3.829146021662931e-09
83 2.5055511789374594e-09 5.375066417811651e-10 -3.339820864488533e-09
85 9.840621735122157e-10 2.4687923466613212e-09 -4.590504559635639e-09
71 -3.651583383977625e-09 1.538450884453439e-09 -2.0148044344586373e-09
17 1.7447795014852684e-09 -3.1188709692108775e-09 1.2845198837386627e-15
18 2.766211988683661e-09 1.241701411030233e-09 -1.7833278830774017e-15
20 1.0855212300190826e-10 9.005175191124304e-10 4.5514988931548e-09
37 6.120844070093011e-10 9.078392441866276e-10 -5.2464125371976706e-15
39 2.153140907606527e-09 -2.153135178754988e-09 1.5396166154145093e-09
67 -1.5609271199276141e-09 -5.935485633614394e-10 3.2131096746942105e-09
68 -1.5384495499337082e-09 3.65158789705907e-09 -2.014800326974911e-09
69 -2.0582478119071414e-09 -1.0895187487541363e-09 -4.297111624638053e-09
70 -4.767739388227007e-09 1.7058563549670736e-09 -3.729323492219492e-09
87 2.1641785423253838e-09 -8.64792346789411e-09 -2.1986172476383377e-09
89 1.6247838890525068e-09 -1.6247853438099656e-09 -5.080771747302675e-09
22 3.1188685284445277e-09 -1.7447714890097564e-09 2.855622782983446e-17
28 2.4838035089311137e-09 1.1244549440645046e-09 -1.6488946635787774e-09
41 -2.487669525687115e-09 -6.668000616310443e-09 -1.330353076995325e-15
42 2.5202261642818553e-09 -9.644600000097574e-10 3.037581581935462e-09
43 4.381404065384263e-09 -1.8148173689812225e-09 -1.2452342895186664e-15
72 5.93544776468251e-10 1.560924903267722e-09 3.213110056194777e-09
74 -1.7058527817637083e-09 4.767740342985994e-09 -3.729324754715634e-09
78 -9.365862944243368e-10 2.698872257733254e-09 2.662919365678952e-09
91 8.409795250132432e-10 -2.030394366081231e-09 5.164498944687112e-09
92 2.5796998301358426e-10 2.5187783778026022e-09 1.3323688446442039e-12
93 -4.8020915207390715e-09 -6.488200172369145e-09 2.467928981256808e-10
251 -2.93975030116822e-10 -2.4624742294753898e-09 -5.910696221281242e-16
252 -3.4813201126742708e-09 4.365340384716623e-09 -7.001972790853554e-10
254 -4.3991027273645515e-09 2.234623913337819e-09 4.147456110957007e-09
301 6.474436184077883e-09 1.7660083046669698e-09 -3.9232562745167667e-10
302 1.586558845162656e-09 5.057915103764923e-09 3.829148128204111e-09
304 -5.452936241402987e-09 3.5053866575400977e-09 -2.2119626746309256e-09
26 5.140250415103801e-09 5.140245052522689e-09 -3.6769442125703507e-16
32 -1.227878981321832e-09 5.884965684592238e-10 -3.950001564845002e-09
44 5.884971959266141e-10 -1.2278779671740757e-09 -3.949998525576501e-09
45 -8.557320131108054e-10 -8.557323034372991e-10 -1.7184471289868021e-15
76 1.11671448261602e-09 1.116719778852856e-09 2.1393982314269348e-10
82 -4.477956779821e-09 4.184041780473091e-09 2.806564294078069e-09
94 4.18403976976495e-09 -4.47795885451704e-09 2.806562105543091e-09
95 -3.2548810190249987e-09 -3.254881400409366e-09 5.200241762160235e-09
30 3.508466832741144e-09 1.012097282990806e-08 -1.003568361438084e-15
46 5.019833840261515e-09 -4.419479915682464e-09 1.8035643664681976e-09
80 -2.1341749461453667e-09 4.5390852845649155e-12 1.1017191908008857e-09
253 1.0120972146576814e-08 3.5084685618452875e-09 2.142850593817973e-16
256 -4.419481736373049e-09 5.019836457939551e-09 1.8035632727215404e-09
303 4.537915384303781e-12 -2.134175534462021e-09 1.1017173584264636e-09
255 -3.046397199806683e-09 -3.0463974395160045e-09 2.714277418836099e-16
34 -2.045300323171252e-09 2.0696571250368926e-09 -2.083540046507622e-15
36 -2.0142625618122678e-09 -4.4083227147321165e-09 5.159749168727318e-09
47 -1.0934380031450504e-09 -3.4394899869452276e-09 -5.535697367363097e-16
48 2.1043536278027294e-09 -2.104353948377246e-09 -5.523580646061221e-09
84 3.848858421231804e-09 3.5879243453150904e-09 1.0062220456455295e-09
86 -5.74027921830487e-10 4.471102305829356e-09 -3.084827499594755e-09
96 8.504700912460078e-10 -1.7128109366884793e-09 -3.3122709007557127e-09
97 -7.622527599588772e-10 -4.338103439036402e-09 -7.92470821704382e-11
98 2.6226080863868377e-09 -2.6226067024937114e-09 2.8608052894554915e-09
257 3.439491340954296e-09 1.0934384263219562e-09 -1.2105327121668475e-15
258 -1.3324192620194139e-09 1.3324203596653337e-09 -1.807840790303235e-09
307 4.338102533865417e-09 7.622538664084886e-10 -7.924854665163951e-11
308 -1.9978761773689793e-09 1.9978756976085406e-09 -1.8488657399216508e-09
100 -2.468796090511486e-09 -9.840614460556576e-10 -4.590502415617824e-09
99 -3.587923449789177e-09 -3.84886138411221e-09 1.0062231550543412e-09
90 -3.75687329760435e-09 3.756873416949223e-09 4.013353200150568e-09
88 8.647920927574493e-09 -2.164178811818608e-09 -2.198621049561242e-09
24 -9.005185668579029e-10 -1.0855436585219645e-10 4.5514977372059515e-09
38 -9.078391147227376e-10 -6.120868769422286e-10 2.982133743063346e-16
40 -1.4245649140625062e-10 1.4246506161815335e-10 -1.062034343243807e-08
49 -2.0696610413114284e-09 2.04529952469434e-09 6.648789203596322e-16
50 -6.482231974537888e-11 -2.6760234286061433e-10 -5.72462269919047e-10
259 -1.923580583004655e-09 2.04909574731841e-09 1.6785662984907454e-16
260 4.408323015851918e-09 2.0142641325460508e-09 5.159748075278278e-09
309 -5.375051959952656e-10 -2.505550870007361e-09 -3.339818363402194e-09
310 -4.471100787381616e-09 5.74023810087101e-10 -3.0848254705830993e-09
101 -5.557441134242529e-10 -5.557450193738651e-10 -7.186668988284696e-09
102 5.557417634314351e-10 5.557436443780674e-10 -7.186667922216525e-09
103 4.643930216616017e-09 -4.643935965407971e-09 1.910831678664637e-15
104 -4.643927373767563e-09 4.643934045770981e-09 1.307734098505024e-15
105 5.212360647220378e-10 -4.525568225872781e-09 4.007730953842919e-09
108 -6.837471688491039e-09 1.3509349990371663e-09 4.288665743307732e-16
121 -4.525570247696261e-09 5.212342069896202e-10 4.00773440145143e-09
123 1.3509317807687888e-09 -6.8374768894238044e-09 -7.068430778219008e-16
125 -2.9771929611396904e-09 -2.9771942181264085e-09 -2.34932044791815e-09
151 -5.557389729637729e-10 -5.557456943718022e-10 7.186667351087319e-09
152 5.557384491558499e-10 5.55742069382881e-10 7.186667869835733e-09
153 5.212339045909908e-10 -4.525569171643932e-09 -4.007736622081465e-09
161 -4.5255686593082586e-09 5.212348593685788e-10 -4.0077334651447676e-09
163 -2.9771882320060783e-09 -2.9771933454321357e-09 2.349320011394884e-09
106 1.542138174225909e-09 -9.772545799542278e-10 5.733160951071819e-09
107 6.470213200258093e-10 -4.9222583850294005e-09 -1.3757398430449417e-15
109 -6.992723631025854e-09 -3.2168382162292427e-09 -8.717197524926824e-10
112 -2.5242169076493164e-09 -2.3196531201358754e-09 1.3166626426459323e-15
127 -1.7910973658827352e-09 -3.7084521188233805e-09 2.5301285210715703e-15
129 -4.793765830009438e-09 -3.3031949405846865e-09 5.345009521316713e-09
154 1.5421386720846691e-09 -9.772492513990845e-10 -5.733162694221254e-09
155 -6.992716365032435e-09 -3.2168358067127975e-09 8.717198621649662e-10
165 -4.793772742844948e-09 -3.303196491100781e-09 -5.345012775462972e-09
110 6.598170056053865e-10 2.1569399317101303e-10 -2.3297796787701404e-09
111 -9.251977964781326e-10 -4.611824695690178e-09 7.14729958479703e-16
131 3.720489528869788e-09 4.897090703837444e-09 -7.476121124486417e-16
156 6.598164846364615e-10 2.1568927889970664e-10 2.3297778332400667e-09
113 -6.598162468442196e-10 -2.156957860226765e-10 -2.3297834153658634e-09
114 6.9927218790013535e-09 3.216839568606062e-09 -8.71721312606962e-10
115 2.524220040310408e-09 2.319646988701164e-09 -3.4996870348145857e-16
116 9.251922263525374e-10 4.611830938528241e-09 4.0476066772117266e-16
133 -2.2242636104192644e-09 1.6663676941243916e-09 -2.810277338908079e-09
135 3.014087249572823e-09 2.1271834251530776e-09 -1.4734760119748913e-15
157 -6.598149392775313e-10 -2.1569076937134188e-10 2.3297828607544633e-09
158 6.992720687170919e-09 3.2168362209972456e-09 8.717219971286794e-10
167 -2.2242624780675347e-09 1.6663672311607767e-09 2.8102771858009856e-09
117 -1.5421394719897998e-09 9.77251158536113e-10 5.733168894648732e-09
118 -5.212366224584284e-10 4.525569437877308e-09 4.007730528844218e-09
119 6.8374699221831935e-09 -1.35093808789237e-09 -9.80949382947783e-16
120 -6.470187767300107e-10 4.9222545648029805e-09 6.261885624156965e-16
137 5.939827680836227e-10 -1.741510790846472e-09 -4.253775416504872e-09
139 5.014719072686588e-09 -5.0147136043485764e-09 1.5690428236956047e-15
159 -1.5421381458033768e-09 9.772545037639846e-10 -5.733164501358588e-09
160 -5.21235823651346e-10 4.525568728950903e-09 -4.007736970640006e-09
169 5.939879548757018e-10 -1.7415071228559442e-09 4.253773100691637e-09
122 -9.772516466298594e-10 1.5421424728734855e-09 5.733162397793588e-09
124 -4.922260680260481e-09 6.470193897303694e-10 -3.8056989343939944e-16
128 -3.7084495987976e-09 -1.7910951533470452e-09 -4.012760941074299e-15
141 -3.216835897188711e-09 -6.992720475083118e-09 -8.717203382051781e-10
142 -2.3196516629974717e-09 -2.5242144788783725e-09 8.333307864847673e-18
143 -3.303195995101553e-09 -4.793769924937727e-09 5.345012909381833e-09
162 -9.77254422811851e-10 1.5421422718405714e-09 -5.733161337082544e-09
171 -3.2168341495750046e-09 -6.9927214511218015e-09 8.717199661825055e-10
172 -3.3031959162141452e-09 -4.793766688733932e-09 -5.345011567732055e-09
351 2.1569086937103627e-10 6.598123715584443e-10 -2.32978011359024e-09
352 -4.611825659972945e-09 -9.251972842912679e-10 2.321421476636137e-16
354 4.897093547299736e-09 3.7204874829101738e-09 -4.7572399250776614e-18
401 2.1569091698993834e-10 6.598114682873953e-10 2.3297793100212675e-09
126 2.501886760807437e-09 2.5018902244873275e-09 -2.3986815167023452e-09
132 -3.3058068297375756e-09 -1.5950245047063402e-09 2.2083265841846333e-16
144 -1.595027423745038e-09 -3.3058073609859517e-09 -2.5238018104967236e-16
145 -2.034847909613045e-09 -2.0348494524654727e-09 -1.7425383336324068e-09
164 2.5018878778547435e-09 2.501885045931726e-09 2.3986805321815444e-09
173 -2.034844804265393e-09 -2.034849836392871e-09 1.7425401764839173e-09
146 -3.0436673145265547e-09 -7.154545876936426e-09 1.1014847288500442e-15
356 -7.154544000751684e-09 -3.043668721665111e-09 2.4880876339330907e-16
355 -1.3130491032433027e-09 -1.313046458459719e-09 -4.979076597094297e-09
403 -1.3130525185602456e-09 -1.3130477203606242e-09 4.979077295901685e-09
130 2.19500006405425e-09 -2.23892134127533e-09 -3.327847761482614e-09
134 1.6690909451486148e-09 4.246306340131921e-09 -1.426189081525889e-09
136 -2.552267003877143e-09 7.859718927756655e-10 -5.807866829450079e-16
147 -3.9018137028477654e-09 -2.308571970073821e-09 -1.8611118649947051e-09
148 1.8284391508665115e-09 -1.8284382901055662e-09 -7.608909967165392e-16
166 2.19500036993853e-09 -2.2389170306928007e-09 3.3278464942245823e-09
168 1.6690910535560215e-09 4.2463077526671315e-09 1.426192055285395e-09
174 -3.90181642223813e-09 -2.308572824237877e-09 1.8611115352338083e-09
357 2.3085721587637204e-09 3.901817017420968e-09 -1.8611089447655348e-09
358 2.072076645833553e-09 -2.072073275605758e-09 -1.5285667569234873e-15
404 2.308571680868627e-09 3.901817858787445e-09 1.8611106898494872e-09
138 1.7415110084983366e-09 -5.939826798918233e-10 -4.25377212524819e-09
140 -4.280376677011541e-09 4.2803767979561114e-09 4.559509874623798e-16
149 -4.246307300889773e-09 -1.6690927197060634e-09 -1.426195151937271e-09
150 -2.1271782488590838e-09 -3.0140918200945688e-09 -1.0297587575847481e-15
170 1.7415064108933402e-09 -5.939876370195303e-10 4.253772587449159e-09
175 -4.246307012795416e-09 -1.6690928173248127e-09 1.4261946108674962e-09
359 -1.666368236366038e-09 2.2242642464874144e-09 -2.8102813831642267e-09
360 -7.859770130539156e-10 2.552274727048438e-09 -1.8273753675058824e-16
405 -1.6663696009452009e-09 2.2242644216356886e-09 2.8102846947612487e-09
176 2.1972187181328003e-09 -2.1972155223092342e-09 6.502680277221791e-09
177 -2.197213713386191e-09 2.1972196285466844e-09 6.502679310855697e-09
179 2.0582540106140152e-09 1.0895167023575956e-09 4.297112749227715e-09
186 1.089515017813158e-09 2.0582514720150026e-09 4.29711244026056e-09
202 2.9734860956830005e-09 2.9734894813869387e-09 1.3044655215897773e-09
203 4.060611535680205e-09 -4.060617151734469e-09 -4.756355827779664e-09
204 -4.060615644596218e-09 4.060615180311923e-09 -4.756358015868215e-09
208 1.9424814904177514e-09 4.186777226279612e-09 -5.01571348155221e-09
223 4.186775949497801e-09 1.9424792931030382e-09 -5.015715854164007e-09
225 4.31007873218024e-11 4.3102670649379854e-11 -4.393262854438723e-10
178 4.767736304828693e-09 -1.7058507770079306e-09 3.729330148746768e-09
181 2.518778348261677e-09 2.579729020522821e-10 -1.3260030902898744e-12
188 2.6988688673444325e-09 -9.36589347837624e-10 -2.6629237189650334e-09
206 1.5609272222617508e-09 5.935401789888124e-10 -3.2131145956961533e-09
209 -2.030395677981983e-09 8.40988977365307e-10 -5.164499285162261e-09
212 -9.64454945263301e-10 2.520223950002908e-09 -3.037587160713055e-09
227 1.124451239653393e-09 2.483804790208658e-09 1.648902300076551e-09
229 -6.488191398586436e-09 -4.802098248099463e-09 -2.4679500317877106e-10
180 5.057909115994905e-09 1.5865511273291005e-09 -3.829152473428927e-09
190 3.505385162923423e-09 -5.4529370431583485e-09 2.211970797529742e-09
210 1.7659994839536006e-09 6.4744401745418775e-09 3.923277580999268e-10
211 4.365334477591819e-09 -3.4813160174486915e-09 7.002010243120044e-10
231 2.2346216895350916e-09 -4.39910305533974e-09 -4.1474586382523425e-09
182 -2.5187849716766094e-09 -2.579669491093986e-10 -1.3301061069612708e-12
183 -5.057905946260882e-09 -1.5865580987363658e-09 -3.829146351126209e-09
192 9.840590633508751e-10 2.468791942765606e-09 4.590502962563232e-09
213 -1.7659977745001197e-09 -6.474434793605942e-09 3.923237723978223e-10
214 2.030390467878859e-09 -8.409830469091144e-10 -5.164504891171914e-09
215 9.644520714625602e-10 -2.52022912855851e-09 -3.037585665256316e-09
216 -4.365337778717928e-09 3.481318793630683e-09 7.001969695624918e-10
233 2.505549139020471e-09 5.375092934657693e-10 3.339818892083614e-09
235 2.6759885179985524e-10 6.482254414945495e-11 5.724714973927059e-10
221 -3.6515816280306107e-09 1.5384536040879844e-09 2.0148036613490206e-09
184 -2.0582576904483788e-09 -1.0895218463637169e-09 4.29711311168708e-09
185 -4.767738351920651e-09 1.7058512704588033e-09 3.7293286304187725e-09
194 1.6247781564574898e-09 -1.6247793025709884e-09 5.0807738436318334e-09
217 -1.5609210223272022e-09 -5.935477026497841e-10 -3.213114885941921e-09
218 -1.5384568100305672e-09 3.6515871922993192e-09 2.0147997601704673e-09
220 1.0855766881829231e-10 9.005227804818776e-10 -4.551495655664695e-09
237 2.164184941710588e-09 -8.647924387678316e-09 2.198617898975633e-09
239 2.1531338528661833e-09 -2.1531369187050275e-09 -1.5396155722629356e-09
187 -1.7058501912954348e-09 4.767736913085762e-09 3.729322891626089e-09
189 -9.365856368463613e-10 2.698872181997124e-09 -2.6629174094837586e-09
196 2.579725211010654e-10 2.5187800419158202e-09 -1.332851878882227e-12
222 5.935441505773068e-10 1.5609221056572246e-09 -3.2131141585631916e-09
228 2.4838066232073103e-09 1.1244527729401878e-09 1.6488956903613536e-09
241 8.409781107318513e-10 -2.0303912303765284e-09 -5.1644968589792e-09
242 2.5202245452391843e-09 -9.644543785983662e-10 -3.037578838510067e-09
243 -4.80208901777053e-09 -6.488199104515265e-09 -2.4679400422349075e-10
426 1.5865566061814036e-09 5.057914201386729e-09 -3.829145121070445e-09
427 -5.452935406742219e-09 3.5053841147395543e-09 2.211961086012734e-09
451 6.47443222218523e-09 1.7660082528256103e-09 3.923248426326467e-10
452 -3.481317946460653e-09 4.3653346109247444e-09 7.001968219438953e-10
454 -4.399102972006661e-09 2.2346206460858997e-09 -4.147453146725693e-09
191 -4.477954638160878e-09 4.184041556664251e-09 -2.8065640213110453e-09
197 4.184037125653724e-09 -4.477957189197073e-09 -2.8065616458207233e-09
226 1.116711536680083e-09 1.116719943065989e-09 -2.1394139430372129e-10
232 -1.227877001053284e-09 5.884982065262041e-10 3.950003911263296e-09
244 5.88496868886133e-10 -1.2278769829450805e-09 3.949998210104835e-09
245 -3.254880699367517e-09 -3.254877685686251e-09 -5.2002401925965795e-09
230 -2.1341754695870798e-09 4.53420697576474e-12 -1.101720401195252e-09
246 5.019831102896394e-09 -4.419479637707123e-09 -1.803563962005148e-09
453 4.538114701917078e-12 -2.1341782548464244e-09 -1.101717813851969e-09
456 -4.419480703373044e-09 5.019828701713256e-09 -1.803565306941514e-09
193 -5.740263337401024e-10 4.471102186484483e-09 3.0848298006293897e-09
198 8.504690168445295e-10 -1.7128104646661124e-09 3.3122679007648814e-09
199 2.622603046632895e-09 -2.622608325485809e-09 -2.8608045948252206e-09
234 3.848857369014502e-09 3.58792600601058e-09 -1.0062241924267752e-09
236 -2.0142628944131156e-09 -4.4083250436798594e-09 -5.159747028871506e-09
247 -7.622473668271158e-10 -4.338101280465526e-09 7.924474233383928e-11
248 2.1043529578296415e-09 -2.1043519031454013e-09 5.523581197250013e-09
429 -1.9978730643676797e-09 1.997879748826163e-09 1.848863826562543e-09
457 4.338097059096358e-09 7.622522763103742e-10 7.924936480506351e-11
458 -1.3324189665148296e-09 1.3324202581775486e-09 1.807841467682117e-09
250 -6.481956618236582e-11 -2.6760154464876814e-10 5.724605072756245e-10
249 -3.5879218769047764e-09 -3.848863177430065e-09 -1.0062242589758185e-09
240 -1.424595384207478e-10 1.4245909973161232e-10 1.0620347140016025e-08
238 8.647919994988058e-09 -2.1641794494654685e-09 2.198619230519182e-09
224 -9.005189239996685e-10 -1.0855305395144401e-10 -4.551496741970898e-09
195 -3.7568685404760315e-09 3.756871874096795e-09 -4.01335379171777e-09
200 -2.4687972536031697e-09 -9.840566591655255e-10 4.590503491209775e-09
430 -4.471093300111343e-09 5.740232991511625e-10 3.0848249385255735e-09
459 -5.375082096335162e-10 -2.505551600202092e-09 3.3398159641907765e-09
460 4.4083240301345325e-09 2.0142687868543576e-09 -5.159746467545097e-09
261 2.9396643966688587e-10 2.462467420567628e-09 1.7287149547488465e-15
262 2.487670616159973e-09 6.668004140109197e-09 2.72618214435731e-16
263 3.4813204555303657e-09 -4.365342704947627e-09 -7.001927642182015e-10
264 -2.520226983326971e-09 9.644601059618145e-10 3.0375835587151353e-09
265 1.923588379297792e-09 -2.049085787615776e-09 5.62556409419802e-17
268 6.482181777518682e-11 2.676001552370919e-10 -5.724650794470583e-10
311 -6.4744340626557955e-09 -1.7660062991113434e-09 -3.923229271623103e-10
312 -8.40981463102558e-10 2.030393669654788e-09 5.164499665518242e-09
313 -1.586560136825375e-09 -5.057912264487886e-09 3.82914518892738e-09
314 -2.579712972952818e-10 -2.518780166320202e-09 1.3310410213213817e-12
315 5.375046009019858e-10 2.5055495299703237e-09 -3.339821047714349e-09
318 2.4687927075233137e-09 9.84061136237501e-10 -4.5905000618152616e-09
266 2.0696551815823135e-09 -2.04530623479288e-09 -2.653265700539893e-15
267 -4.408325261976006e-09 -2.014267601082581e-09 5.159746446711827e-09
269 -3.4394921687837976e-09 -1.0934376582056285e-09 -5.761887152266105e-16
272 -2.1043516404973944e-09 2.10435604003752e-09 -5.523576891310792e-09
306 -1.712806052477216e-09 8.5047219600148e-10 -3.3122708293273594e-09
316 3.587926835669383e-09 3.848865132230173e-09 1.0062221330894586e-09
317 4.4711005186324374e-09 -5.740282611151643e-10 -3.084824255408242e-09
319 -4.338100922728523e-09 -7.62253318297022e-10 -7.924630423382766e-11
322 -2.6226083579944874e-09 2.6226076359045834e-09 2.8608023805462735e-09
270 1.0934421303208378e-09 3.4394871786204773e-09 5.019283395046504e-17
271 1.3324193736192402e-09 -1.3324204016294912e-09 -1.8078430462487212e-09
320 7.622523841063841e-10 4.338105406048155e-09 -7.924735125443725e-11
321 1.997874598802375e-09 -1.9978799368812986e-09 -1.8488643423068746e-09
273 3.0463966972563684e-09 3.046398160942371e-09 -1.4190432821283466e-15
274 8.557332210405214e-10 8.557377028914011e-10 1.3811655612097357e-15
275 4.41947946060108e-09 -5.0198369060466735e-09 1.8035647619438776e-09
276 -5.019833063009451e-09 4.419484683525035e-09 1.8035639426599691e-09
305 2.9790898342672653e-09 2.979090499983237e-09 3.34148808527087e-09
323 -2.9790883714183135e-09 -2.9790896020693145e-09 3.3414874436061646e-09
324 3.2548786350881117e-09 3.254878499969477e-09 5.200243581574317e-09
325 1.7128085246050772e-09 -8.504689889846816e-10 -3.312273088479216e-09
326 -8.50469347795899e-10 1.7128099081201942e-09 -3.3122723900368756e-09
277 -1.0120970604617242e-08 -3.508469232676571e-09 -1.7708279212801303e-15
278 -4.381406752280813e-09 1.8148204173350012e-09 -6.595217938750872e-16
279 4.3991043196215906e-09 -2.2346267966623403e-09 4.147451429801531e-09
280 -5.884991406983863e-10 1.227878821132357e-09 -3.950000972540787e-09
327 -4.5392727340921535e-12 2.1341760733054727e-09 1.1017196617629882e-09
328 4.802094264778304e-09 6.4882015414125795e-09 2.467938179145363e-10
329 5.452938334579253e-09 -3.505386965310967e-09 -2.211964111162761e-09
330 -4.184040628690897e-09 4.477959120290037e-09 2.8065607424520184e-09
281 -3.1188657966076387e-09 1.7447736390031856e-09 1.8508127958757665e-16
282 1.2416981946710153e-09 2.7662150839122963e-09 -1.7880897732858864e-15
283 9.005194620932621e-10 1.0855127062356094e-10 4.551497636015785e-09
285 9.078414420965769e-10 6.120872715838796e-10 4.952586705285579e-16
288 -2.1531330576305184e-09 2.153137798538648e-09 1.5396191737400239e-09
331 -5.935472336035986e-10 -1.5609280699247106e-09 3.2131113276194625e-09
332 3.6515902952660262e-09 -1.5384523338537712e-09 -2.014800358978161e-09
333 1.7058546531865602e-09 -4.767738191802093e-09 -3.729322739822238e-09
334 -1.0895153416216922e-09 -2.0582480821444105e-09 -4.297109090866035e-09
335 -8.647921584268915e-09 2.164179998868551e-09 -2.1986198565589355e-09
338 -1.6247870729713474e-09 1.624784355420129e-09 -5.080773510094906e-09
55 1.5384540219438502e-09 -3.6515935071609717e-09 -2.014803609563465e-09
341 5.740281660680217e-10 -4.471100572687331e-09 -3.0848275882477583e-09
340 -2.5055437278214485e-09 -5.375084673801244e-10 -3.339815844432028e-09
286 -6.120867764217025e-10 -9.078428526133192e-10 5.285116845991826e-16
287 1.4245985898803444e-10 -1.4245897793952734e-10 -1.0620341223583806e-08
289 2.0453029578517684e-09 -2.0696512120259928e-09 -1.1229260230675923e-15
292 -2.6760106235857545e-10 -6.482079594051215e-11 -5.724692926654411e-10
336 -2.1641851338137954e-09 8.647922945009269e-09 -2.198624784249186e-09
337 3.756872053952319e-09 -3.75687135484615e-09 4.013351972822194e-09
339 -3.848862489031173e-09 -3.5879307998406754e-09 1.0062216920728562e-09
342 -9.840576204721112e-10 -2.468794192898238e-09 -4.590498782295595e-09
290 2.0490850729462715e-09 -1.9235847984679622e-09 -7.17854948929021e-16
291 2.0142629551712583e-09 4.4083206397617094e-09 5.159749090964115e-09
7 -1.085529176702385e-10 -9.005263452323353e-10 4.551502075276306e-09
346 -3.50539343999356e-09 5.45294472384544e-09 -2.2119644980663405e-09
345 4.477960180712764e-09 -4.18404578610631e-09 2.8065630317132978e-09
344 6.488201211616779e-09 4.802095685988618e-09 2.4679205078824064e-10
343 2.1341705829320926e-09 -4.539586070188099e-12 1.10171762849051e-09
296 -2.2346210244515588e-09 4.399102900875926e-09 4.147455042885727e-09
295 1.2278739880323586e-09 -5.885008730219609e-10 -3.9500047902697385e-09
294 1.8148178174917565e-09 -4.381409118940247e-09 -6.69045574292056e-16
293 -3.508465153792948e-09 -1.0120972448063989e-08 1.5839307060222284e-15
350 -2.698869527830883e-09 9.365852459156364e-10 2.662917011668289e-09
349 9.365844566323344e-10 -2.698872106394431e-09 2.6629180234211495e-09
348 -4.310322302864404e-11 -4.310102511869469e-11 4.393294034402954e-10
347 -1.1167127549287778e-09 -1.116714053139096e-09 2.1394268646983352e-10
300 -1.1244516812768573e-09 -2.483800464892798e-09 -1.6488992033080904e-09
299 -2.4838032255986466e-09 -1.1244568491182061e-09 -1.6488970647619151e-09
298 -8.712431384731329e-10 -8.712396448826196e-10 2.091660274076766e-15
297 -5.140249493798953e-09 -5.140247063746856e-09 -1.6208283797128722e-15
284 -4.186779109011954e-09 -1.9424760823985653e-09 5.015711714890943e-09
51 -2.9734889643335527e-09 -2.9734878771740217e-09 -1.3044669459901857e-09
19 -1.9424829055919976e-09 -4.186779842045427e-09 5.015713939884143e-09
361 -2.156907169905496e-10 -6.598157858337238e-10 -2.3297830510812627e-09
362 3.216837835278026e-09 6.992722216744462e-09 -8.717242227171156e-10
363 4.611826019495655e-09 9.251933557318459e-10 2.076928176244267e-15
364 2.3196483011029844e-09 2.524217635416344e-09 1.0083302516465684e-15
365 1.6663727854778788e-09 -2.2242641342179473e-09 -2.8102805219247647e-09
368 2.127186018459594e-09 3.0140880218593392e-09 -5.481847085513244e-16
406 -2.1568981223140998e-10 -6.598146322658208e-10 2.3297811405216254e-09
407 3.216834521002441e-09 6.9927153530749624e-09 8.717217066533767e-10
408 1.6663693854324665e-09 -2.22426286346639e-09 2.8102790887894594e-09
353 -2.238924052576567e-09 2.1950058439434665e-09 -3.3278472686269773e-09
366 4.246306200297899e-09 1.6690902381660284e-09 -1.4261888281470742e-09
367 7.859702940268314e-10 -2.5522668830247924e-09 -1.2342224184115465e-15
369 -2.308572858761581e-09 -3.901817539443183e-09 -1.8611127179682888e-09
372 -1.828439249373465e-09 1.8284411499628944e-09 -1.02800327559871e-15
402 -2.2389247906695493e-09 2.1950009820535637e-09 3.3278470579133355e-09
409 4.246306505802917e-09 1.6690899206074752e-09 1.4261934772400085e-09
410 -2.3085707254347676e-09 -3.901816316827872e-09 1.8611126977302553e-09
370 3.901821285265068e-09 2.308573225427127e-09 -1.8611090684258711e-09
371 -2.072073052987391e-09 2.072074033936774e-09 -1.8839228137316345e-16
411 3.901816551350965e-09 2.3085682587756396e-09 1.8611100733335142e-09
373 1.3130473596474409e-09 1.3130484846440027e-09 -4.9790755780497926e-09
374 2.0348469204791636e-09 2.034848085802983e-09 -1.7425412434449421e-09
375 7.154549489025462e-09 3.0436618104825038e-09 -1.8868478419944635e-15
376 3.043663492041664e-09 7.154549205497683e-09 -2.134463807693948e-15
412 1.3130480298834877e-09 1.3130482346447667e-09 4.979082111958395e-09
413 2.034845707870245e-09 2.034851947695942e-09 1.7425480142575823e-09
377 2.238920895443359e-09 -2.1950053594211376e-09 -3.3278430150685487e-09
378 3.303195627301338e-09 4.793769603017984e-09 5.345016152806862e-09
379 -4.897096966690327e-09 -3.7204815198378107e-09 -2.738086869878521e-16
380 1.5950346478301024e-09 3.305802007430885e-09 -6.419623237313011e-16
414 2.2389224127006266e-09 -2.1950052802547132e-09 3.327841014479425e-09
415 3.3031955159921542e-09 4.793770507777123e-09 -5.345018714703795e-09
381 9.772532561487498e-10 -1.5421394922278332e-09 5.733162692435545e-09
382 4.525568668832039e-09 -5.212364534113261e-10 4.00773373002491e-09
383 4.922258185030012e-09 -6.470165785224432e-10 -1.1119013636811038e-15
384 -1.3509316712453138e-09 6.837478384062094e-09 3.5714176563632883e-16
385 -1.7415110880646857e-09 5.939834336321839e-10 -4.253774825688691e-09
388 -5.014719446439167e-09 5.014715630535185e-09 1.9916640674111488e-15
416 9.772514942493727e-10 -1.5421397315128162e-09 -5.7331622122286796e-09
417 4.525568587879906e-09 -5.212321986624248e-10 -4.007738315725181e-09
418 -1.7415049575309666e-09 5.939895666859455e-10 4.25377153938456e-09
421 2.224262962867651e-09 -1.6663667527396198e-09 2.8102861630603326e-09
386 -5.939823403095278e-10 1.7415113168307276e-09 -4.253771039090796e-09
387 4.280377089503741e-09 -4.28037664581744e-09 9.077353209923358e-17
389 -1.669093539337115e-09 -4.2463059706994565e-09 -1.4261891601278199e-09
392 -3.0140898397434785e-09 -2.1271831286060747e-09 -2.0749936583470705e-15
419 -5.939870051393116e-10 1.7415053847060003e-09 4.253772629115698e-09
420 -1.6690929944273684e-09 -4.246306252511281e-09 1.426193946543122e-09
390 2.224264970145917e-09 -1.66636622684837e-09 -2.810283199230105e-09
391 2.5522683842145317e-09 -7.859746527932719e-10 -2.4124926268734013e-15
423 4.793764026108061e-09 3.303196794559675e-09 -5.345018292681275e-09
422 -2.1949982263666312e-09 2.238922642201413e-09 3.32784506799545e-09
396 -3.720481095945877e-09 -4.897098534542678e-09 -8.666640179441579e-16
395 3.305799739627176e-09 1.5950310166563042e-09 -5.161489061624094e-16
394 4.793769199001361e-09 3.303197971639411e-09 5.345018280478931e-09
393 -2.195005183743526e-09 2.238920146171095e-09 -3.3278429355963678e-09
425 2.9771926242359582e-09 2.977192404593772e-09 2.349321711307146e-09
424 -2.501884000696825e-09 -2.5018904640699287e-09 2.3986862220451075e-09
400 1.7910951283865513e-09 3.708459436341939e-09 -1.8401729474411844e-15
399 3.708452437553805e-09 1.7910916355400834e-09 4.285701187635946e-16
398 2.97719309387738e-09 2.977195159942494e-09 -2.3493170612283517e-09
397 -2.5018882858027763e-09 -2.5018888506820025e-09 -2.398684267289177e-09
431 -1.5865595701604403e-09 -5.057907840096646e-09 -3.829144594286341e-09
432 -2.579677514727853e-10 -2.5187798353688324e-09 -1.3310292654049297e-12
434 2.468797677188185e-09 9.840545784764324e-10 4.590502442396481e-09
461 -6.474428707910255e-09 -1.766006143159439e-09 3.9232250335408174e-10
462 -8.409848964253984e-10 2.0303921387070858e-09 -5.1644972976683355e-09
463 3.4813206031489624e-09 -4.36533743770182e-09 7.001889124442591e-10
464 -2.520223172624332e-09 9.644593047737869e-10 -3.0375846997830765e-09
465 5.375041850178402e-10 2.505552443592604e-09 3.339820671240794e-09
468 6.482277425477848e-11 2.6759527923125375e-10 5.724664660894908e-10
428 -1.7128052748010214e-09 8.504712269568225e-10 3.3122700205500696e-09
433 4.47110000672924e-09 -5.740215813736744e-10 3.0848249946916967e-09
436 -2.6226089067340327e-09 2.6226070668587037e-09 -2.8608052543470143e-09
466 3.587923989249511e-09 3.848858979868024e-09 -1.006223559424385e-09
467 -4.408322399782373e-09 -2.014260932055344e-09 -5.159744711598082e-09
469 -4.338099329876249e-09 -7.62252693001314e-10 7.924447209656995e-11
472 -2.104354445101918e-09 2.1043531733796147e-09 5.523580881774787e-09
435 1.997875167848255e-09 -1.997879424978101e-09 1.8488625173124522e-09
470 7.622530098158219e-10 4.3381035298634126e-09 7.925160897951992e-11
471 1.3324215541557307e-09 -1.3324185441946918e-09 1.8078420926802069e-09
437 1.7128017387813223e-09 -8.504678922339413e-10 3.3122698516315585e-09
438 -8.504627906730819e-10 1.7128041367092614e-09 3.312268637072155e-09
455 2.9790881142762425e-09 2.9790908190298807e-09 -3.341482987667402e-09
473 -2.9790882618948388e-09 -2.9790891214160216e-09 -3.3414877815515603e-09
474 3.2548793508597335e-09 3.2548789304867456e-09 -5.20024444429722e-09
475 4.419479559703269e-09 -5.0198379131934274e-09 -1.80356166315036e-09
476 -5.019837411954493e-09 4.419478740686056e-09 -1.8035652527750128e-09
439 5.452938989339156e-09 -3.5053925962461386e-09 2.2119629439044233e-09
440 -4.184045325105115e-09 4.4779613446880005e-09 -2.806561669123148e-09
477 -4.536197445871887e-12 2.134176251281119e-09 -1.101716946592715e-09
478 4.802088418962837e-09 6.488200405701765e-09 -2.4679107908362113e-10
479 4.399098083926362e-09 -2.2346257799987807e-09 -4.1474505845660195e-09
480 -5.884938014289899e-10 1.2278786633947438e-09 3.949998738023806e-09
441 1.7058485913003248e-09 -4.767737327519019e-09 3.729330410948347e-09
442 -1.0895198567864643e-09 -2.0582519809420186e-09 4.297106786111174e-09
444 -1.624779903508512e-09 1.6247783610757726e-09 5.080775034910047e-09
481 -5.935369574445287e-10 -1.5609269651661824e-09 -3.213112665710611e-09
482 3.6515868455741884e-09 -1.5384569933633403e-09 2.0148009161193157e-09
483 9.005148478216501e-10 1.0855384918710883e-10 -4.551500489838908e-09
485 -8.647922984562255e-09 2.1641862845636267e-09 2.198619581857394e-09
488 -2.153132100490586e-09 2.153134433370361e-09 -1.5396163953258964e-09
205 1.5384590647855809e-09 -3.6515843019807717e-09 2.0147996475220022e-09
491 2.014262923175989e-09 4.408324332440156e-09 -5.159751099133771e-09
490 -2.5055490672950264e-09 -5.375124917632862e-10 3.3398152975261475e-09
443 3.756871833264982e-09 -3.756870251580363e-09 -4.013355422868496e-09
446 -9.840536281491815e-10 -2.4687964310808045e-09 4.590500849300066e-09
486 -2.1641868310835337e-09 8.647924403441614e-09 2.1986227590635508e-09
487 1.4245897643864837e-10 -1.424579342787475e-10 1.0620343299587308e-08
489 -3.848858866327867e-09 -3.587924541758983e-09 -1.0062236945209308e-09
492 -2.6759753897718413e-10 -6.482617003123058e-11 5.724710490588826e-10
445 5.740223011550032e-10 -4.4710933215283175e-09 3.08482725223223e-09
207 -1.085562232311925e-10 -9.005180390367854e-10 -4.551502887471554e-09
496 -2.234619258107092e-09 4.399102807423831e-09 -4.147456215501191e-09
495 1.227879172670531e-09 -5.884939720095233e-10 3.950004351688895e-09
494 6.4881997579312376e-09 4.802096122456414e-09 -2.4678661899564316e-10
493 2.1341708328499483e-09 -4.538189032047051e-12 -1.1017169683978938e-09
448 -3.5053920876499758e-09 5.452938857807053e-09 2.211961207609507e-09
447 4.477958099510977e-09 -4.1840484453266985e-09 -2.806565553875596e-09
500 -1.1244559491209568e-09 -2.4838062357084945e-09 1.6488966105966364e-09
499 -2.483809425579698e-09 -1.1244577443535654e-09 1.6489006683223303e-09
498 -4.3106049210482777e-11 -4.3099262921699406e-11 -4.393322192054993e-10
497 -1.1167125699219028e-09 -1.1167180061032054e-09 -2.1394093960017234e-10
450 -2.698862382614625e-09 9.365893161412922e-10 -2.6629168152730156e-09
449 9.365838233009368e-10 -2.6988653373674995e-09 -2.6629217751953973e-09
484 -4.186769024518965e-09 -1.9424792204842124e-09 -5.0157125756025984e-09
201 -2.9734869123471712e-09 -2.9734869754422167e-09 1.3044714751430104e-09
219 -1.9424819436901756e-09 -4.186776229556468e-09 -5.015714001788716e-09
