LAMMPS data file via write_data, version 29 Aug 2024, timestep = 27, units = metal

500 atoms
3 atom types

0 17.68439335487763 xlo xhi
0 17.68439335487763 ylo yhi
0 17.68439335487763 zlo zhi

Masses

1 54.7621
2 58.71
3 58.71

Atoms # atomic

1 2 0.005863012389104038 0.0058630123891039556 1.1246736148985267e-19 0 0 0
2 3 1.7625763230986593 1.7625763230986593 0 0 0 0
3 1 1.7621215746705037 0.006317760817259457 1.7554659768961276 0 0 0
4 1 0.006317760817258989 1.7621215746705037 1.7554659768961276 0 0 0
5 1 3.529973898230797 0.00624968228848527 0 0 0 0
8 1 3.5295227224119854 1.7676653488887868 1.7613682447055041 0 0 0
21 1 0.006249682288484986 3.5299738982307964 0 0 0 0
23 1 1.7676653488887863 3.5295227224119854 1.761368244705504 0 0 0
25 1 3.5285020160075087 3.5285020160075087 0 0 0 0
51 1 0.0007599475014563979 0.0007599475014567726 3.5349405123903557 0 0 0
52 1 1.767679387986306 1.7676793879863055 3.534940512390357 0 0 0
53 1 1.7681379186682884 0.00030141681947489196 5.305229482461943 0 0 0
54 1 0.00030141681947380234 1.7681379186682882 5.305229482461943 0 0 0
55 1 3.5339127525183383 0.0007003583671173125 3.5335792691602577 0 0 0
58 1 3.5360405125250556 1.7680672751577557 5.304636025894786 0 0 0
71 1 0.0007003583671161566 3.5339127525183383 3.533579269160257 0 0 0
73 1 1.7680672751577557 3.5360405125250556 5.304636025894786 0 0 0
75 1 3.5357132341390316 3.5357132341390316 3.535424623667591 0 0 0
6 1 5.304438430333821 1.7681814740004442 0 0 0 0
7 1 5.30441152749346 0.0006771174063483168 1.7674622586415538 0 0 0
9 1 7.073936567472406 0.00030246368764916514 0 0 0 0
12 1 7.073742180899768 1.7684043015690019 1.768091599875838 0 0 0
27 1 5.303806571490276 3.5357057038233743 1.767435955757212 0 0 0
29 1 7.0736638000533665 3.536437985126039 0 0 0 0
56 1 5.302435919605611 1.768072699986296 3.534073946711022 0 0 0
57 1 5.303893543998603 0.0003649559473254842 5.3037814095655005 0 0 0
59 1 7.073093691459218 0.00035976256794377324 3.5362203649057307 0 0 0
62 1 7.072556305509126 1.768283168492204 5.304134158905695 0 0 0
77 1 5.304486579642558 3.5362308162412677 5.304382776974816 0 0 0
79 1 7.072864360878078 3.5363020413451225 3.5361762986833876 0 0 0
11 1 8.842189183889301 4.072932687557224e-05 1.7684065417460446 0 0 0
31 1 8.842188561130646 3.536783873561929 1.7683759059737945 0 0 0
60 1 8.84212444427496 1.768416555185218 3.536659264977143 0 0 0
61 1 8.841907602504094 0.00015444600293139805 5.304906961714185 0 0 0
81 1 8.841907892681055 3.5365490558491466 5.304874145111339 0 0 0
10 1 8.842394375003567 1.768457148308474 0 0 0 0
14 1 12.378896122892987 1.768136871800113 0 0 0 0
15 1 12.379090509465627 3.5033918760824224e-05 1.7680915998758382 0 0 0
16 1 10.610643506476093 1.7683986061608874 1.768406541746044 0 0 0
33 1 10.61070994560794 3.5367393646714174 0 0 0 0
35 1 12.37965948627104 3.5363513532767437 1.768043983316515 0 0 0
63 1 10.610708246090434 2.2780302544379847e-05 3.5366592649771436 0 0 0
64 1 12.379738998906177 1.7680795729198182 3.536220364905731 0 0 0
65 1 12.380276384856268 0.0001561669955584691 5.304134158905696 0 0 0
66 1 10.6109250878613 1.768284889484831 5.3049069617141855 0 0 0
83 1 10.610934473845743 3.5366429203714644 3.5366122251060044 0 0 0
85 1 12.379682067911194 3.5364489363014013 5.304731165919442 0 0 0
17 1 14.148394260031573 0.0002578614873172651 0 0 0 0
18 1 15.922858792134596 1.7621896531992778 0 0 0 0
19 1 15.923309967953408 0.0007739865989753715 1.7613682447055043 0 0 0
20 1 14.148421162871934 1.767762218081414 1.7674622586415545 0 0 0
37 1 14.149714069448102 3.534385505833665 0 0 0 0
39 1 15.917616731729254 3.53521595863614 1.7669898806421418 0 0 0
67 1 14.150396770759782 0.0003666355014666101 3.5340739467110214 0 0 0
68 1 15.918919937847056 1.767738977120646 3.533579269160257 0 0 0
69 1 15.916792177840339 0.00037206033000721243 5.304636025894785 0 0 0
70 1 14.148939146366791 1.768074379540438 5.3037814095655005 0 0 0
87 1 14.148571647593096 3.536071513909092 3.5359045674285907 0 0 0
89 1 15.916831248497195 3.5360014418682 5.304074384113448 0 0 0
22 1 1.768181474000444 5.304438430333822 0 0 0 0
24 1 0.0006771174063490899 5.30441152749346 1.7674622586415543 0 0 0
28 1 3.5357057038233752 5.303806571490276 1.7674359557572121 0 0 0
41 1 0.000302463687649252 7.073936567472406 0 0 0 0
42 1 1.7684043015690023 7.073742180899768 1.7680915998758384 0 0 0
43 1 3.536437985126039 7.0736638000533665 0 0 0 0
72 1 1.7680726999862961 5.30243591960561 3.5340739467110214 0 0 0
74 1 0.00036495594732383426 5.303893543998602 5.303781409565501 0 0 0
78 1 3.5362308162412672 5.304486579642557 5.304382776974816 0 0 0
91 1 0.00035976256794449326 7.073093691459217 3.5362203649057307 0 0 0
92 1 1.7682831684922045 7.072556305509126 5.304134158905696 0 0 0
93 1 3.536302041345123 7.072864360878077 3.536176298683388 0 0 0
252 1 4.072932687583484e-05 8.842189183889301 1.7684065417460446 0 0 0
254 1 3.536783873561929 8.842188561130646 1.7683759059737947 0 0 0
301 1 1.7684165551852185 8.84212444427496 3.536659264977144 0 0 0
302 1 0.00015444600293208177 8.841907602504094 5.3049069617141855 0 0 0
304 1 3.5365490558491466 8.841907892681055 5.30487414511134 0 0 0
26 1 5.3022131593353405 5.3022131593353405 0 0 0 0
32 1 7.072881848654264 5.3045568526470275 1.7679445024654457 0 0 0
44 1 5.3045568526470275 7.072881848654264 1.7679445024654465 0 0 0
45 1 7.072554094025656 7.072554094025655 0 0 0 0
76 1 5.304569435802237 5.304569435802238 3.5361792197770425 0 0 0
82 1 7.073305268070648 5.304857281291468 5.304844016894405 0 0 0
94 1 5.304857281291468 7.073305268070648 5.304844016894404 0 0 0
95 1 7.073320964068315 7.073320964068316 3.53645063163036 0 0 0
30 1 8.842120811980852 5.305027006917776 0 0 0 0
46 1 8.841911479023057 7.073339664018134 1.7681693717980702 0 0 0
80 1 8.841892415377544 5.304922840739845 3.5365116447792033 0 0 0
96 1 8.842055049490277 7.073474795957348 5.305012031500338 0 0 0
253 1 5.305027006917775 8.842120811980852 1.615155062821337e-16 0 0 0
256 1 7.073339664018134 8.841911479023057 1.7681693717980709 0 0 0
303 1 5.304922840739845 8.841892415377544 3.5365116447792038 0 0 0
306 1 7.073474795957349 8.842055049490277 5.305012031500338 0 0 0
255 1 8.841875440344664 8.841875440344664 4.926931485236065e-19 0 0 0
305 1 8.84206449797727 8.84206449797727 3.536557222624415 0 0 0
34 1 12.380020636667505 5.304293502980243 8.21349131108872e-16 0 0 0
36 1 10.610914082844026 5.304996070426821 1.7682746349766854 0 0 0
47 1 10.61095443747553 7.07330183294479 0 0 0 0
48 1 12.379628945361667 7.0732037450037275 1.7681505809370044 0 0 0
84 1 12.379684398399595 5.30479794079568 3.5364018067060257 0 0 0
86 1 10.610779151222696 5.304959334467122 5.304969546519954 0 0 0
97 1 10.610767893807768 7.073443341539118 3.53655062631637 0 0 0
98 1 12.379402069387428 7.073430620977966 5.30497137917476 0 0 0
257 1 12.379530857420603 8.841878252889865 0 0 0 0
258 1 10.610785761533046 8.842046928832348 1.768188830083247 0 0 0
307 1 12.379389348826276 8.842064796557624 3.536550626316371 0 0 0
308 1 10.610734456936894 8.842098233428498 5.305046848898252 0 0 0
100 1 15.916383754063991 7.0731506224542 5.304731165919442 0 0 0
38 1 15.918447184531729 5.303118620917291 0 0 0 0
40 1 14.148607901418552 5.304224788946842 1.767726522111142 0 0 0
49 1 14.148539187385152 7.072812053697891 7.777032980262512e-19 0 0 0
50 1 15.916481337088651 7.073173204094354 1.7680439833165156 0 0 0
88 1 15.916761176456303 5.304261042772297 3.5359045674285907 0 0 0
90 1 14.14810309596915 5.304729594396245 5.3046970137023575 0 0 0
99 1 14.148034749569714 7.0731482919658 3.5364018067060266 0 0 0
259 1 15.916093325693977 8.842122744757454 6.222848947853988e-19 0 0 0
260 1 14.147836619938573 8.841918607521368 1.7682746349766854 0 0 0
309 1 15.91618976999393 8.84189821651965 3.5366122251060044 0 0 0
310 1 14.14787335589827 8.842053539142698 5.304969546519954 0 0 0
101 1 5.1371331270123197e-05 5.137133126988349e-05 7.073917352223722 0 0 0
102 1 1.7683879641564928 1.7683879641564926 7.073917352223722 0 0 0
105 1 3.5366584480910657 4.9051762221763423e-05 7.073648324526722 0 0 0
108 1 3.5368107306775616 1.7684098262520909 8.842196677438816 0 0 0
121 1 4.905176222200224e-05 3.5366584480910657 7.073648324526722 0 0 0
123 1 1.7684098262520904 3.5368107306775616 8.842196677438816 0 0 0
125 1 3.5365990994693477 3.5365990994693473 7.073415887422272 0 0 0
151 1 5.137133126875932e-05 5.137133127006166e-05 10.610476002653908 0 0 0
152 1 1.7683879641564932 1.7683879641564935 10.610476002653908 0 0 0
153 1 3.5366584480910657 4.90517622207827e-05 10.610745030350909 0 0 0
161 1 4.905176222214852e-05 3.5366584480910657 10.610745030350909 0 0 0
163 1 3.536599099469347 3.5365990994693473 10.61097746745536 0 0 0
106 1 5.304852929111702 1.7682810307890668 7.073369206206207 0 0 0
107 1 5.305089558727728 2.955131100670716e-05 8.842196677438816 0 0 0
109 1 7.073131944388992 0.00015673903520975997 7.073131370742298 0 0 0
112 1 7.073434063554573 1.7682991466788567 8.842196677438816 0 0 0
127 1 5.305047273240213 3.536666747189204 8.842196677438816 0 0 0
129 1 7.073328269270561 3.5365326453311825 7.073331818957718 0 0 0
154 1 5.304852929111702 1.7682810307890668 10.611024148671424 0 0 0
155 1 7.073131944388992 0.00015673903520909853 10.611261984135334 0 0 0
165 1 7.07332826927056 3.536532645331182 10.611061535919912 0 0 0
110 1 8.841858802581676 1.7683001471157054 7.073280050978642 0 0 0
111 1 8.842033080440801 0.0001395187511180681 8.842196677438816 0 0 0
131 1 8.842034605262338 3.5365625300871724 8.842196677438816 0 0 0
156 1 8.841858802581676 1.7683001471157052 10.611113303898987 0 0 0
113 1 10.610973887783718 0.00013918837205715315 7.073280050978642 0 0 0
114 1 12.3797007459764 1.7682825964525528 7.073131370742297 0 0 0
115 1 12.37939862681082 0.00014018880890571598 8.842196677438816 0 0 0
116 1 10.610799609924593 1.768299816736644 8.842196677438816 0 0 0
133 1 10.61077798781406 3.5365528310053866 7.0734767949849005 0 0 0
135 1 12.379432466216274 3.53655920711845 8.842196677438816 0 0 0
157 1 10.610973887783718 0.0001391883720575038 10.611113303898987 0 0 0
158 1 12.3797007459764 1.7682825964525528 10.611261984135334 0 0 0
167 1 10.61077798781406 3.5365528310053866 10.61091655989273 0 0 0
104 1 17.684387207064443 1.7684454833009509 8.842196677438816 -1 0 0
117 1 14.147979761253692 0.00015830469869628866 7.073369206206207 0 0 0
118 1 15.916174242274328 1.7683902837255405 7.073648324526722 0 0 0
119 1 15.916021959687832 2.9509235671393033e-05 8.842196677438816 0 0 0
120 1 14.147743131637665 1.7684097841767545 8.842196677438816 0 0 0
137 1 14.14802624567565 3.536496966196327 7.07314878917758 0 0 0
139 1 15.916054013356518 3.5367786770088747 8.842196677438816 0 0 0
159 1 14.147979761253692 0.00015830469869586037 10.611024148671424 0 0 0
160 1 15.916174242274328 1.7683902837255403 10.610745030350909 0 0 0
169 1 14.14802624567565 3.536496966196327 10.611244565700051 0 0 0
122 1 1.7682810307890666 5.304852929111702 7.073369206206207 0 0 0
124 1 2.9551311008039935e-05 5.305089558727727 8.842196677438816 0 0 0
128 1 3.5366667471892046 5.305047273240213 8.842196677438816 0 0 0
141 1 0.00015673903521030665 7.073131944388992 7.073131370742297 0 0 0
142 1 1.768299146678857 7.073434063554573 8.842196677438816 0 0 0
143 1 3.536532645331182 7.07332826927056 7.073331818957718 0 0 0
162 1 1.7682810307890668 5.304852929111702 10.611024148671422 0 0 0
171 1 0.00015673903521040038 7.073131944388992 10.611261984135336 0 0 0
172 1 3.5365326453311825 7.073328269270561 10.611061535919914 0 0 0
351 1 1.768300147115705 8.841858802581676 7.073280050978642 0 0 0
352 1 0.00013951875111876337 8.842033080440801 8.842196677438816 0 0 0
354 1 3.536562530087173 8.842034605262338 8.842196677438816 0 0 0
401 1 1.7683001471157052 8.841858802581676 10.611113303898987 0 0 0
126 1 5.304899956264889 5.304899956264888 7.073303859108476 0 0 0
132 1 7.073458498371911 5.3049800888787395 8.842196677438816 0 0 0
144 1 5.304980088878739 7.073458498371911 8.842196677438816 0 0 0
145 1 7.073473019582549 7.073473019582549 7.073537358585316 0 0 0
164 1 5.304899956264889 5.304899956264888 10.611089495769155 0 0 0
173 1 7.073473019582549 7.07347301958255 10.610855996292313 0 0 0
130 1 8.842059005216376 5.304976388876548 7.073538576217942 0 0 0
146 1 8.842095094108723 7.073515539903886 8.842196677438816 0 0 0
166 1 8.842059005216376 5.304976388876549 10.61085477865969 0 0 0
353 1 5.304976388876548 8.842059005216376 7.073538576217943 0 0 0
356 1 7.073515539903885 8.842095094108725 8.842196677438816 0 0 0
402 1 5.304976388876548 8.842059005216376 10.61085477865969 0 0 0
355 1 8.842101661004126 8.842101661004126 7.073599351677133 0 0 0
403 1 8.842101661004126 8.842101661004126 10.610794003200496 0 0 0
134 1 12.379403987116476 5.304942460183467 7.073486966230611 0 0 0
136 1 10.610740071199013 5.304986547506652 8.842196677438816 0 0 0
147 1 10.610732016453689 7.073508028995276 7.073581891870982 0 0 0
148 1 12.379333445023148 7.073499245342246 8.842196677438816 0 0 0
168 1 12.379403987116474 5.304942460183466 10.61090638864702 0 0 0
174 1 10.610732016453689 7.073508028995276 10.61081146300665 0 0 0
357 1 12.379324661370116 8.842100673911705 7.073581891870982 0 0 0
358 1 10.61072228819188 8.842110402173514 8.842196677438816 0 0 0
404 1 12.379324661370118 8.842100673911705 10.610811463006648 0 0 0
175 1 14.147890230181927 7.073428703248919 10.61090638864702 0 0 0
138 1 15.916335724169066 5.304806444689744 7.073148789177579 0 0 0
140 1 14.147888221582333 5.304944468783061 8.842196677438814 0 0 0
149 1 14.147890230181927 7.073428703248919 7.073486966230611 0 0 0
150 1 15.916273483246945 7.07340022414912 8.842196677438814 0 0 0
170 1 15.916335724169066 5.304806444689744 10.611244565700053 0 0 0
359 1 15.916279859360008 8.842054702551334 7.0734767949849005 0 0 0
360 1 14.147846142858741 8.84209261916638 8.842196677438816 0 0 0
405 1 15.916279859360007 8.842054702551334 10.61091655989273 0 0 0
176 1 1.768137918668289 0.0003014168194740841 12.379163872415686 0 0 0
177 1 0.00030141681947467533 1.768137918668288 12.379163872415686 0 0 0
179 1 3.536040512525055 1.7680672751577557 12.379757328982844 0 0 0
186 1 1.7680672751577555 3.536040512525055 12.379757328982844 0 0 0
201 1 0.0007599475014577236 0.0007599475014569344 14.149452842487275 0 0 0
202 1 1.7676793879863053 1.7676793879863053 14.149452842487275 0 0 0
203 1 1.7621215746705035 0.006317760817258403 15.928927377981504 0 0 0
204 1 0.006317760817258909 1.7621215746705037 15.928927377981504 0 0 0
205 1 3.5339127525183383 0.0007003583671170203 14.150814085717373 0 0 0
208 1 3.529522722411986 1.7676653488887863 15.923025110172127 0 0 0
221 1 0.0007003583671161384 3.533912752518338 14.150814085717373 0 0 0
223 1 1.7676653488887868 3.529522722411986 15.923025110172127 0 0 0
225 1 3.535713234139032 3.5357132341390316 14.14896873121004 0 0 0
178 1 5.303893543998602 0.0003649559473243772 12.380611945312129 0 0 0
181 1 7.072556305509126 1.7682831684922042 12.380259195971936 0 0 0
188 1 5.304486579642558 3.5362308162412677 12.380010577902814 0 0 0
206 1 5.302435919605611 1.7680726999862963 14.150319408166611 0 0 0
207 1 5.30441152749346 0.0006771174063485753 15.916931096236077 0 0 0
209 1 7.073093691459218 0.00035976256794568057 14.1481729899719 0 0 0
212 1 7.073742180899768 1.768404301569002 15.916301755001792 0 0 0
227 1 5.303806571490276 3.535705703823375 15.916957399120419 0 0 0
229 1 7.072864360878077 3.536302041345123 14.148217056194243 0 0 0
180 1 8.841907602504094 0.00015444600293194698 12.379486393163447 0 0 0
190 1 8.841907892681055 3.5365490558491466 12.379519209766292 0 0 0
210 1 8.84212444427496 1.7684165551852185 14.147734089900487 0 0 0
211 1 8.842189183889301 4.072932687511634e-05 15.915986813131587 0 0 0
231 1 8.842188561130646 3.536783873561929 15.916017448903837 0 0 0
182 1 12.380276384856268 0.00015616699555800104 12.380259195971936 0 0 0
183 1 10.6109250878613 1.7682848894848302 12.379486393163447 0 0 0
192 1 12.379682067911194 3.5364489363014013 12.37966218895819 0 0 0
213 1 10.610708246090434 2.2780302544294486e-05 14.147734089900487 0 0 0
214 1 12.379738998906177 1.768079572919817 14.148172989971899 0 0 0
215 1 12.379090509465627 3.5033918760210355e-05 15.916301755001792 0 0 0
216 1 10.610643506476093 1.7683986061608867 15.915986813131587 0 0 0
233 1 10.610934473845745 3.536642920371465 14.147781129771626 0 0 0
235 1 12.37965948627104 3.5363513532767428 15.916349371561116 0 0 0
184 1 15.916792177840339 0.0003720603300057661 12.379757328982842 0 0 0
185 1 14.148939146366791 1.768074379540438 12.38061194531213 0 0 0
194 1 15.916831248497193 3.5360014418682 12.380318970764185 0 0 0
217 1 14.150396770759782 0.0003666355014667178 14.150319408166611 0 0 0
218 1 15.918919937847056 1.767738977120646 14.150814085717373 0 0 0
219 1 15.923309967953408 0.0007739865989756952 15.923025110172128 0 0 0
220 1 14.148421162871934 1.7677622180814136 15.916931096236075 0 0 0
237 1 14.148571647593096 3.536071513909092 14.148488787449041 0 0 0
239 1 15.917616731729254 3.5352159586361402 15.91740347423549 0 0 0
187 1 0.0003649559473250206 5.303893543998603 12.380611945312129 0 0 0
189 1 3.5362308162412677 5.304486579642557 12.380010577902814 0 0 0
196 1 1.768283168492204 7.072556305509127 12.380259195971936 0 0 0
222 1 1.7680726999862961 5.302435919605611 14.150319408166611 0 0 0
224 1 0.0006771174063482701 5.304411527493459 15.916931096236075 0 0 0
228 1 3.5357057038233752 5.303806571490277 15.916957399120419 0 0 0
241 1 0.00035976256794568193 7.073093691459218 14.1481729899719 0 0 0
242 1 1.7684043015690025 7.073742180899767 15.916301755001792 0 0 0
243 1 3.5363020413451234 7.072864360878078 14.148217056194243 0 0 0
426 1 0.0001544460029315632 8.841907602504095 12.379486393163445 0 0 0
427 1 3.5365490558491475 8.841907892681055 12.379519209766292 0 0 0
451 1 1.7684165551852182 8.84212444427496 14.147734089900487 0 0 0
452 1 4.0729326875402304e-05 8.842189183889301 15.915986813131587 0 0 0
454 1 3.5367838735619292 8.842188561130646 15.916017448903837 0 0 0
191 1 7.073305268070647 5.304857281291468 12.379549337983226 0 0 0
197 1 5.304857281291468 7.073305268070647 12.379549337983226 0 0 0
226 1 5.304569435802237 5.304569435802238 14.148214135100588 0 0 0
232 1 7.072881848654264 5.3045568526470275 15.916448852412184 0 0 0
244 1 5.3045568526470275 7.072881848654264 15.916448852412184 0 0 0
245 1 7.073320964068315 7.073320964068315 14.147942723247272 0 0 0
198 1 8.842055049490277 7.073474795957348 12.379381323377293 0 0 0
230 1 8.841892415377544 5.304922840739845 14.147881710098428 0 0 0
246 1 8.841911479023056 7.073339664018134 15.916223983079561 0 0 0
428 1 7.073474795957349 8.842055049490277 12.379381323377293 0 0 0
453 1 5.304922840739846 8.841892415377544 14.147881710098428 0 0 0
456 1 7.073339664018134 8.841911479023057 15.916223983079561 0 0 0
455 1 8.84206449797727 8.842064497977269 14.147836132253216 0 0 0
193 1 10.610779151222696 5.304959334467123 12.379423808357677 0 0 0
199 1 12.37940206938743 7.073430620977965 12.37942197570287 0 0 0
234 1 12.379684398399595 5.30479794079568 14.147991548171605 0 0 0
236 1 10.610914082844026 5.30499607042682 15.916118719900945 0 0 0
247 1 10.610767893807768 7.073443341539118 14.14784272856126 0 0 0
248 1 12.379628945361667 7.073203745003727 15.916242773940628 0 0 0
429 1 10.610734456936894 8.842098233428498 12.379346505979381 0 0 0
457 1 12.379389348826276 8.842064796557624 14.147842728561262 0 0 0
458 1 10.610785761533046 8.842046928832348 15.916204524794384 0 0 0
195 1 14.14810309596915 5.304729594396244 12.379696341175272 0 0 0
200 1 15.916383754063991 7.0731506224542 12.37966218895819 0 0 0
238 1 15.916761176456301 5.304261042772296 14.148488787449041 0 0 0
240 1 14.14860790141855 5.304224788946842 15.91666683276649 0 0 0
249 1 14.148034749569714 7.0731482919658 14.147991548171605 0 0 0
250 1 15.91648133708865 7.073173204094354 15.916349371561116 0 0 0
430 1 14.147873355898271 8.842053539142698 12.379423808357679 0 0 0
459 1 15.91618976999393 8.84189821651965 14.147781129771628 0 0 0
460 1 14.147836619938573 8.841918607521368 15.916118719900945 0 0 0
251 1 1.7684571483084743 8.842394375003567 3.2239666958332936e-17 0 0 0
262 1 1.7681368718001125 12.37889612289299 0 0 0 0
263 1 1.768398606160887 10.610643506476093 1.7684065417460442 0 0 0
264 1 3.5033918759600295e-05 12.379090509465627 1.768091599875838 0 0 0
265 1 3.5367393646714187 10.61070994560794 0 0 0 0
268 1 3.5363513532767437 12.37965948627104 1.768043983316515 0 0 0
311 1 2.278030254416773e-05 10.610708246090434 3.536659264977144 0 0 0
312 1 1.7680795729198178 12.379738998906177 3.536220364905731 0 0 0
313 1 1.7682848894848304 10.6109250878613 5.304906961714186 0 0 0
314 1 0.00015616699555884547 12.380276384856268 5.304134158905696 0 0 0
315 1 3.5366429203714644 10.610934473845745 3.536612225106005 0 0 0
318 1 3.5364489363014013 12.379682067911194 5.304731165919443 0 0 0
266 1 5.304293502980243 12.380020636667503 0 0 0 0
267 1 5.30499607042682 10.610914082844026 1.7682746349766851 0 0 0
269 1 7.073301832944789 10.61095443747553 0 0 0 0
272 1 7.0732037450037275 12.379628945361667 1.7681505809370037 0 0 0
316 1 5.304797940795681 12.379684398399595 3.536401806706026 0 0 0
317 1 5.304959334467123 10.610779151222696 5.3049695465199544 0 0 0
319 1 7.073443341539118 10.610767893807768 3.53655062631637 0 0 0
322 1 7.073430620977965 12.37940206938743 5.30497137917476 0 0 0
270 1 8.841878252889863 12.379530857420603 0 0 0 0
271 1 8.842046928832348 10.610785761533046 1.7681888300832473 0 0 0
320 1 8.842064796557624 12.379389348826276 3.5365506263163704 0 0 0
321 1 8.842098233428498 10.610734456936896 5.305046848898252 0 0 0
273 1 10.61095725002073 10.61095725002073 2.0416812854452182e-19 0 0 0
274 1 12.380278596339737 12.380278596339737 0 0 0 0
275 1 12.37949302634726 10.610921211342337 1.7681693717980702 0 0 0
276 1 10.610921211342337 12.37949302634726 1.7681693717980702 0 0 0
323 1 10.610768192388123 10.610768192388123 3.5365572226244146 0 0 0
324 1 12.379511726297078 12.37951172629708 3.5364506316303603 0 0 0
325 1 12.379357894408047 10.610777640875117 5.305012031500338 0 0 0
326 1 10.610777640875117 12.379357894408047 5.305012031500338 0 0 0
261 1 17.68437554205692 10.610438315361828 0 -1 0 0
277 1 14.147805683447618 10.610711878384542 4.6048840631201775e-17 0 0 0
278 1 15.916394705239354 12.379168890312028 1.0381240459411862e-16 0 0 0
279 1 15.916048816803464 10.610644129234748 1.7683759059737947 0 0 0
280 1 14.148275837718366 12.37995084171113 1.767944502465446 0 0 0
327 1 14.147909849625549 10.61094027498785 3.5365116447792038 0 0 0
328 1 15.91653064902027 12.379968329487317 3.536176298683387 0 0 0
329 1 15.916283634516246 10.610924797684339 5.30487414511134 0 0 0
330 1 14.147975409073926 12.379527422294746 5.304844016894404 0 0 0
281 1 0.00025786148731814885 14.148394260031571 0 0 0 0
282 1 1.7621896531992773 15.922858792134596 9.817186061152755e-19 0 0 0
283 1 1.7677622180814136 14.148421162871934 1.767462258641554 0 0 0
284 1 0.0007739865989757196 15.923309967953408 1.7613682447055046 0 0 0
285 1 3.5343855058336664 14.149714069448104 0 0 0 0
288 1 3.535215958636141 15.917616731729254 1.7669898806421416 0 0 0
331 1 0.0003666355014667138 14.150396770759782 3.5340739467110214 0 0 0
332 1 1.7677389771206453 15.918919937847056 3.533579269160257 0 0 0
333 1 1.7680743795404374 14.148939146366791 5.3037814095655005 0 0 0
334 1 0.0003720603300071756 15.916792177840339 5.304636025894785 0 0 0
335 1 3.5360715139090924 14.148571647593098 3.5359045674285907 0 0 0
338 1 3.5360014418681995 15.916831248497195 5.304074384113449 0 0 0
341 1 8.842053539142698 14.147873355898271 5.304969546519954 0 0 0
340 1 8.841898216519649 15.916189769993931 3.536612225106005 0 0 0
291 1 8.841918607521368 14.147836619938573 1.7682746349766847 0 0 0
286 1 5.303118620917291 15.918447184531729 0 0 0 0
287 1 5.304224788946842 14.148607901418552 1.7677265221111416 0 0 0
289 1 7.072812053697891 14.148539187385152 2.0217965662845008e-16 0 0 0
292 1 7.073173204094354 15.916481337088651 1.7680439833165156 0 0 0
336 1 5.304261042772297 15.916761176456301 3.53590456742859 0 0 0
337 1 5.304729594396244 14.14810309596915 5.3046970137023575 0 0 0
339 1 7.0731482919658 14.148034749569714 3.5364018067060266 0 0 0
342 1 7.073150622454202 15.916383754063991 5.304731165919442 0 0 0
290 1 8.842122744757454 15.916093325693977 0 0 0 0
346 1 10.610924797684337 15.916283634516248 5.304874145111339 0 0 0
345 1 12.379527422294746 14.147975409073926 5.304844016894405 0 0 0
344 1 12.379968329487316 15.91653064902027 3.5361762986833876 0 0 0
343 1 10.61094027498785 14.147909849625547 3.5365116447792033 0 0 0
296 1 10.610644129234748 15.916048816803466 1.7683759059737942 0 0 0
295 1 12.37995084171113 14.148275837718366 1.767944502465446 0 0 0
294 1 12.379168890312028 15.916394705239355 4.1629563524258814e-17 0 0 0
293 1 10.610711878384542 14.14780568344762 2.6078803268694424e-19 0 0 0
13 1 10.610438315361828 17.68437554205692 0 0 -1 0
350 1 14.148346110722835 15.916601874124126 5.3043827769748155 0 0 0
349 1 15.916601874124126 14.148346110722835 5.3043827769748155 0 0 0
348 1 15.917119456226363 15.917119456226361 3.5354246236675904 0 0 0
347 1 14.148263254563156 14.148263254563156 3.536179219777043 0 0 0
300 1 14.149026118875117 15.91712698654202 1.7674359557572112 0 0 0
299 1 15.917126986542018 14.149026118875117 1.7674359557572117 0 0 0
298 1 15.924330674357885 15.924330674357885 0 0 0 0
297 1 14.150619531030054 14.150619531030054 0 0 0 0
361 1 0.00013918837205698306 10.610973887783718 7.073280050978642 0 0 0
362 1 1.7682825964525528 12.3797007459764 7.073131370742297 0 0 0
363 1 1.7682998167366444 10.610799609924593 8.842196677438814 0 0 0
364 1 0.00014018880890549694 12.37939862681082 8.842196677438816 0 0 0
365 1 3.5365528310053866 10.61077798781406 7.073476794984901 0 0 0
368 1 3.5365592071184504 12.379432466216274 8.842196677438816 0 0 0
406 1 0.00013918837205725113 10.610973887783718 10.611113303898989 0 0 0
407 1 1.7682825964525528 12.3797007459764 10.611261984135336 0 0 0
408 1 3.536552831005387 10.61077798781406 10.610916559892729 0 0 0
366 1 5.304942460183467 12.379403987116474 7.073486966230611 0 0 0
367 1 5.304986547506652 10.610740071199015 8.842196677438816 0 0 0
369 1 7.073508028995275 10.610732016453689 7.073581891870982 0 0 0
372 1 7.073499245342245 12.37933344502315 8.842196677438816 0 0 0
409 1 5.304942460183466 12.379403987116474 10.61090638864702 0 0 0
410 1 7.073508028995275 10.610732016453689 10.61081146300665 0 0 0
370 1 8.842100673911705 12.379324661370118 7.073581891870982 0 0 0
371 1 8.842110402173514 10.61072228819188 8.842196677438816 0 0 0
411 1 8.842100673911705 12.379324661370116 10.61081146300665 0 0 0
373 1 10.610731029361267 10.610731029361268 7.073599351677133 0 0 0
374 1 12.379359670782843 12.379359670782843 7.073537358585316 0 0 0
375 1 12.379317150461508 10.61073759625667 8.842196677438816 0 0 0
376 1 10.61073759625667 12.379317150461508 8.842196677438816 0 0 0
412 1 10.610731029361267 10.610731029361267 10.610794003200498 0 0 0
413 1 12.379359670782843 12.379359670782843 10.610855996292315 0 0 0
377 1 14.147856301488845 10.610773685149018 7.073538576217942 0 0 0
378 1 15.916300045034212 12.379504421094833 7.073331818957718 0 0 0
379 1 15.91627016027822 10.610798085103054 8.842196677438816 0 0 0
380 1 14.147852601486655 12.379374191993483 8.842196677438816 0 0 0
414 1 14.147856301488845 10.610773685149018 10.61085477865969 0 0 0
415 1 15.91630004503421 12.379504421094833 10.611061535919912 0 0 0
381 1 0.00015830469869681845 14.147979761253692 7.073369206206208 0 0 0
382 1 1.768390283725541 15.916174242274328 7.073648324526722 0 0 0
383 1 1.7684097841767539 14.147743131637666 8.842196677438816 0 0 0
384 1 2.950923567202352e-05 15.916021959687832 8.842196677438816 0 0 0
385 1 3.536496966196327 14.14802624567565 7.073148789177579 0 0 0
388 1 3.5367786770088747 15.91605401335652 8.842196677438816 0 0 0
416 1 0.00015830469869654784 14.147979761253692 10.611024148671422 0 0 0
417 1 1.7683902837255414 15.916174242274328 10.610745030350909 0 0 0
418 1 3.5364969661963275 14.14802624567565 10.611244565700053 0 0 0
103 1 1.7684454833009515 17.684387207064443 8.842196677438816 0 -1 0
421 1 8.842054702551334 15.916279859360007 10.610916559892729 0 0 0
391 1 8.842092619166381 14.147846142858741 8.842196677438816 0 0 0
390 1 8.842054702551334 15.916279859360008 7.073476794984901 0 0 0
386 1 5.304806444689744 15.916335724169066 7.073148789177581 0 0 0
387 1 5.304944468783061 14.147888221582333 8.842196677438816 0 0 0
389 1 7.073428703248919 14.147890230181927 7.073486966230611 0 0 0
392 1 7.07340022414912 15.916273483246945 8.842196677438816 0 0 0
419 1 5.304806444689744 15.916335724169066 10.611244565700051 0 0 0
420 1 7.07342870324892 14.147890230181927 10.61090638864702 0 0 0
423 1 12.379504421094833 15.916300045034212 10.611061535919914 0 0 0
422 1 10.610773685149018 14.147856301488844 10.61085477865969 0 0 0
396 1 10.610798085103056 15.91627016027822 8.842196677438816 0 0 0
395 1 12.379374191993483 14.147852601486655 8.842196677438814 0 0 0
394 1 12.379504421094833 15.916300045034212 7.073331818957718 0 0 0
393 1 10.610773685149018 14.147856301488845 7.073538576217943 0 0 0
425 1 15.916233590896047 15.916233590896047 10.61097746745536 0 0 0
424 1 14.147932734100504 14.147932734100504 10.611089495769155 0 0 0
400 1 14.147785417125181 15.916165943176189 8.842196677438814 0 0 0
399 1 15.916165943176189 14.147785417125181 8.842196677438814 0 0 0
398 1 15.916233590896045 15.916233590896047 7.073415887422272 0 0 0
397 1 14.147932734100504 14.147932734100506 7.073303859108476 0 0 0
431 1 1.7682848894848302 10.6109250878613 12.379486393163447 0 0 0
432 1 0.00015616699555890044 12.380276384856268 12.380259195971936 0 0 0
434 1 3.5364489363014013 12.379682067911194 12.37966218895819 0 0 0
461 1 2.278030254520125e-05 10.610708246090434 14.147734089900489 0 0 0
462 1 1.7680795729198178 12.379738998906175 14.148172989971899 0 0 0
463 1 1.7683986061608865 10.610643506476093 15.915986813131587 0 0 0
464 1 3.503391876084036e-05 12.379090509465627 15.916301755001792 0 0 0
465 1 3.5366429203714644 10.610934473845745 14.147781129771626 0 0 0
468 1 3.5363513532767437 12.37965948627104 15.916349371561116 0 0 0
433 1 5.304959334467123 10.610779151222696 12.379423808357679 0 0 0
436 1 7.073430620977966 12.37940206938743 12.37942197570287 0 0 0
466 1 5.304797940795681 12.379684398399595 14.147991548171605 0 0 0
467 1 5.30499607042682 10.610914082844026 15.916118719900945 0 0 0
469 1 7.073443341539118 10.610767893807768 14.14784272856126 0 0 0
472 1 7.0732037450037275 12.379628945361667 15.916242773940626 0 0 0
435 1 8.842098233428498 10.610734456936896 12.379346505979381 0 0 0
470 1 8.842064796557624 12.379389348826276 14.14784272856126 0 0 0
471 1 8.842046928832348 10.610785761533046 15.916204524794384 0 0 0
437 1 12.379357894408045 10.610777640875117 12.379381323377293 0 0 0
438 1 10.610777640875117 12.379357894408045 12.379381323377293 0 0 0
473 1 10.610768192388123 10.610768192388123 14.147836132253216 0 0 0
474 1 12.37951172629708 12.379511726297078 14.14794272324727 0 0 0
475 1 12.37949302634726 10.610921211342337 15.916223983079561 0 0 0
476 1 10.610921211342337 12.37949302634726 15.916223983079561 0 0 0
439 1 15.916283634516246 10.610924797684337 12.379519209766292 0 0 0
440 1 14.147975409073926 12.379527422294746 12.379549337983226 0 0 0
477 1 14.147909849625547 10.61094027498785 14.147881710098428 0 0 0
478 1 15.91653064902027 12.379968329487316 14.148217056194243 0 0 0
479 1 15.916048816803464 10.610644129234748 15.916017448903837 0 0 0
480 1 14.148275837718366 12.37995084171113 15.916448852412184 0 0 0
441 1 1.768074379540438 14.14893914636679 12.380611945312129 0 0 0
442 1 0.000372060330005868 15.916792177840339 12.379757328982844 0 0 0
444 1 3.5360014418681995 15.916831248497195 12.380318970764183 0 0 0
481 1 0.0003666355014666799 14.150396770759782 14.15031940816661 0 0 0
482 1 1.767738977120646 15.918919937847056 14.150814085717371 0 0 0
483 1 1.7677622180814139 14.148421162871935 15.916931096236077 0 0 0
484 1 0.0007739865989764885 15.923309967953408 15.923025110172127 0 0 0
485 1 3.5360715139090924 14.148571647593096 14.148488787449041 0 0 0
488 1 3.5352159586361402 15.917616731729254 15.917403474235488 0 0 0
491 1 8.84191860752137 14.147836619938573 15.916118719900943 0 0 0
490 1 8.84189821651965 15.91618976999393 14.147781129771626 0 0 0
445 1 8.842053539142698 14.147873355898271 12.379423808357677 0 0 0
443 1 5.304729594396245 14.14810309596915 12.379696341175274 0 0 0
446 1 7.073150622454201 15.916383754063991 12.37966218895819 0 0 0
486 1 5.304261042772297 15.916761176456301 14.148488787449041 0 0 0
487 1 5.304224788946842 14.148607901418552 15.916666832766488 0 0 0
489 1 7.0731482919658 14.148034749569714 14.147991548171605 0 0 0
492 1 7.073173204094354 15.916481337088651 15.916349371561116 0 0 0
496 1 10.610644129234748 15.916048816803464 15.916017448903837 0 0 0
495 1 12.37995084171113 14.148275837718366 15.916448852412184 0 0 0
494 1 12.379968329487316 15.91653064902027 14.148217056194243 0 0 0
493 1 10.61094027498785 14.147909849625549 14.147881710098426 0 0 0
448 1 10.610924797684337 15.916283634516246 12.379519209766292 0 0 0
447 1 12.379527422294746 14.147975409073926 12.379549337983226 0 0 0
500 1 14.149026118875119 15.91712698654202 15.916957399120419 0 0 0
499 1 15.917126986542018 14.149026118875117 15.916957399120419 0 0 0
498 1 15.917119456226361 15.917119456226361 14.14896873121004 0 0 0
497 1 14.148263254563156 14.148263254563156 14.148214135100588 0 0 0
450 1 14.148346110722837 15.916601874124128 12.380010577902814 0 0 0
449 1 15.916601874124126 14.148346110722835 12.380010577902814 0 0 0

Velocities

1 -2.1399154105737463e-09 -2.1399161426806773e-09 1.1246736148985268e-16
2 2.1399133180251193e-09 2.1399128333748922e-09 -1.5483149309287449e-15
3 -1.6414665186431282e-09 1.641462946464981e-09 3.4270742720187252e-09
4 1.6414671837177504e-09 -1.6414671555987867e-09 3.4270740889398192e-09
5 -2.3288572060467938e-09 2.3382382994917817e-09 -7.55349426202879e-16
8 -3.289865178504881e-09 1.5107447687635557e-09 2.3130623380375154e-10
21 2.338239372573142e-09 -2.3288548689014846e-09 -1.006169878994859e-15
23 1.5107460625031778e-09 -3.2898654332135996e-09 2.3130641781927945e-10
25 6.115850215794776e-09 6.115851524468866e-09 -1.1835902491430065e-15
51 1.4727530438600406e-09 1.4727525976243105e-09 -4.671556740592533e-09
52 -1.472751919101488e-09 -1.472750075475513e-09 -4.67155929957106e-09
53 -3.096929412155902e-09 3.0969274407720264e-09 1.4494286460962266e-08
54 3.0969281406897123e-09 -3.096928204874304e-09 1.4494286237844402e-08
55 7.32599540706722e-10 2.617288441590624e-09 -6.704041457330689e-10
58 2.052437008128267e-09 5.15270176963129e-10 7.088706501363402e-09
71 2.617293260465884e-09 7.325991328074358e-10 -6.70402256379602e-10
73 5.152684952965955e-10 2.0524360589269886e-09 7.0887059007090935e-09
75 4.527134488450603e-09 4.527133747559872e-09 1.379610830088354e-09
6 4.846640238321027e-10 -1.2435731116759346e-09 -1.0052529562618747e-15
7 -3.412997066951664e-10 1.8096915499089186e-09 -2.530030582818721e-09
9 6.5905194078809185e-09 3.97255025310446e-09 -3.3987269302620996e-16
12 6.788192417052535e-09 -7.958219601940241e-10 -4.789804839919596e-09
27 -2.1456557191348313e-09 5.3359839529331085e-09 8.114371166618048e-10
29 2.7245256576090514e-09 3.703258600704765e-09 -6.504038585969198e-16
56 8.609277645603634e-10 3.4034668095098067e-10 3.773739751463107e-09
57 3.4429281923436975e-10 4.119222665878251e-09 -1.919969997380278e-09
59 -4.4124001897039715e-09 2.299893788581227e-09 1.97118464939012e-09
62 3.045281352487398e-09 -4.270869973754158e-09 -2.8468836940672927e-09
77 3.3869233498916864e-09 6.128793137803141e-09 -1.7327287199044627e-09
79 1.4709779049112107e-08 1.6592880267600242e-09 9.076302900959833e-10
11 -3.7863299016718106e-10 3.0171883195396917e-09 -2.1776222766197608e-09
31 2.777582074240866e-09 1.2571369821737534e-09 -6.294641333574844e-09
60 -3.399230787250538e-09 -6.354639108060384e-10 1.0620198462177842e-09
61 6.769806141510272e-11 5.500316729293006e-09 -3.5397337709948983e-09
81 3.3869067685315994e-09 -4.826777154049607e-09 3.732989832883058e-11
10 4.151475591724759e-09 1.4629690993043677e-09 -6.868515372330489e-16
14 -6.590516574673396e-09 -3.972551351877666e-09 -9.301317780096204e-16
15 -6.788192986367234e-09 7.95822761539348e-10 -4.789804682567476e-09
16 3.7863334342599087e-10 -3.0171869698294287e-09 -2.177621164086845e-09
33 7.461573434245983e-09 4.2922651651708496e-09 -1.6640588058979038e-16
35 2.092565851078363e-09 -5.738180144710185e-10 -3.349529619518115e-09
63 3.3992314037473582e-09 6.354660282862697e-10 1.0620198871736663e-09
64 4.412395511869828e-09 -2.2998926980544568e-09 1.9711838443319605e-09
65 -3.0452792583627284e-09 4.270867470474806e-09 -2.8468861973500768e-09
66 -6.769953477591826e-11 -5.500314484666156e-09 -3.5397364588010695e-09
83 -9.240495988075218e-09 -4.1154692377805245e-10 1.686132002963929e-09
85 8.501416833591277e-11 -2.0488769868035074e-09 -7.632674642820668e-10
17 -4.846647949688967e-10 1.2435777827859774e-09 -9.951668061990464e-16
18 2.3288571599857534e-09 -2.3382402601543477e-09 -1.0318437155184216e-15
19 3.2898659707595515e-09 -1.5107432139298872e-09 2.3130421048062027e-10
20 3.4129983924780896e-10 -1.8096913347377172e-09 -2.5300326202210333e-09
37 -3.831766162245031e-09 6.771135751298714e-10 -6.983894816231023e-16
39 6.509467292722628e-09 -6.509466396134566e-09 6.680538302081914e-10
67 -8.609286954231874e-10 -3.403475935947409e-10 3.773741643074706e-09
68 -7.32599887740486e-10 -2.617291419132216e-09 -6.704024428205577e-10
69 -2.0524365397001415e-09 -5.152710064423201e-10 7.088706666950858e-09
70 -3.442924886073143e-10 -4.11922405471055e-09 -1.919969077477546e-09
87 1.4859597483259873e-09 -2.478142824023405e-09 3.2121468037681875e-09
89 2.5647174329912358e-09 -2.564720057682559e-09 -1.205669433093645e-09
22 -1.2435732975056084e-09 4.846614885741754e-10 -1.1452602224549353e-15
24 1.8096904006990933e-09 -3.4130014431564326e-10 -2.5300325823215603e-09
28 5.335981841793732e-09 -2.145656674883847e-09 8.114357276645219e-10
41 3.972550101506569e-09 6.59051906304156e-09 -1.4197020315708142e-15
42 -7.958219650842788e-10 6.788192839448274e-09 -4.7898048787359915e-09
43 3.7032589364017583e-09 2.724526042585437e-09 -3.2902050058245587e-16
72 3.403459523030489e-10 8.609292373531764e-10 3.7737415289178255e-09
74 4.119226734570058e-09 3.442936096981758e-10 -1.919971274959286e-09
78 6.128794673366956e-09 3.386924504564078e-09 -1.7327280689588674e-09
91 2.299893514726971e-09 -4.412396420387436e-09 1.971186288847967e-09
92 -4.270870765975399e-09 3.045279735324623e-09 -2.8468863879862823e-09
93 1.659286088408051e-09 1.47097810589135e-08 9.076302519991421e-10
252 3.0171843462078487e-09 -3.786334889731478e-10 -2.177621878064013e-09
254 1.2571367786819747e-09 2.77758223041285e-09 -6.29464010112753e-09
301 -6.354640330624028e-10 -3.399230698920315e-09 1.0620192095677667e-09
302 5.5003136410972415e-09 6.769907056498061e-11 -3.5397369001465452e-09
304 -4.826776557122162e-09 3.386907701494315e-09 3.7329001767595116e-11
26 4.5977961577463045e-09 4.5977964171251265e-09 -5.591849705375812e-16
32 3.765662183303269e-09 3.4258050235821213e-09 -7.1249786998682565e-09
44 3.425805625536075e-09 3.765662644209762e-09 -7.124981690258929e-09
45 3.497545840552457e-09 3.4975497943996917e-09 -2.277024786911209e-16
76 4.442784174601102e-09 4.442780351469652e-09 6.88550230670563e-09
82 2.194184315038569e-09 1.2258986971252142e-08 2.179394967952185e-09
94 1.2258986548350781e-08 2.1941847876502222e-09 2.1793990528148285e-09
95 6.969098347395495e-10 6.969069818850687e-10 1.3955681043696034e-08
30 -2.9947411342713582e-09 1.2013988751297686e-09 -4.857287741327457e-16
46 3.681923146195158e-09 2.2603497315619372e-09 -2.818209820843406e-09
80 1.4260159833821992e-08 3.631204164198311e-09 3.439325222617771e-09
96 1.2668125811447212e-09 -1.4916143058559303e-09 5.684430492008147e-09
253 1.2014016944060047e-09 -2.9947425828514192e-09 -1.7604916473300085e-16
256 2.2603491869361e-09 3.6819235141845017e-09 -2.8182114780284253e-09
303 3.63120263340096e-09 1.426016144619592e-08 3.439325382223813e-09
306 -1.4916150836768284e-09 1.2668126601608063e-09 5.684431519267249e-09
255 1.9654918160375915e-10 1.96550384603997e-10 4.926931485236065e-16
305 -4.894662641493594e-10 -4.89466717765946e-10 9.530095650728746e-09
34 6.6739203341450505e-09 9.739674347322252e-10 -1.6881832459673902e-16
36 1.5152600590628067e-09 1.5748489272787166e-09 -9.213023842122962e-09
47 1.125457945035971e-09 -2.7006903599732864e-10 -5.655885057958647e-16
48 -1.0460692967748272e-09 1.046069227068571e-09 -1.0276165059869242e-08
84 -1.079569984636312e-08 -3.935920327041432e-10 9.873220112647127e-09
86 1.954865967714289e-09 4.8629978478508594e-09 5.0898082515284326e-09
97 1.6847614943539079e-09 -1.7335351504178673e-09 1.0627872948769571e-08
98 -4.092873595569045e-10 4.0928667909241504e-10 7.889223672536062e-09
257 2.7006993379228337e-10 -1.1254586665843726e-09 -4.239443146358869e-17
258 1.1635478391700263e-09 -1.1635483306543412e-09 1.0453413022831547e-08
307 1.7335337721915364e-09 -1.6847582762626593e-09 1.0627871239853037e-08
308 1.1219442986146295e-09 -1.1219403733251202e-09 4.727488296211521e-09
100 2.0488786239803606e-09 -8.501304493356723e-11 -7.632684841915344e-10
38 -6.771141919132298e-10 3.83176672890328e-09 -1.0367339700943384e-15
40 2.3198035865653483e-09 -2.3198017890147403e-09 -1.0388510774437987e-09
49 -9.739674650463265e-10 -6.673924474224307e-09 7.777032980262512e-16
50 5.738161416563364e-10 -2.092564796922861e-09 -3.34953075527974e-09
88 2.478140619049881e-09 -1.4859570930938544e-09 3.2121464922691345e-09
90 -4.666172444380394e-09 4.6661702168694344e-09 1.7074460473300338e-09
99 3.935949434923723e-10 1.079569815668413e-08 9.873217459373623e-09
259 -4.29226210876174e-09 -7.46157347603581e-09 6.222848947853988e-16
260 -1.5748521597246044e-09 -1.5152603593317555e-09 -9.21302330428357e-09
309 4.115480474058231e-10 9.24049563077383e-09 1.6861326146019839e-09
310 -4.862994752201366e-09 -1.954866000073314e-09 5.089809360856297e-09
101 2.3928176749397367e-09 2.392817479329554e-09 7.554261589773015e-09
102 -2.3928162445402734e-09 -2.392816169963891e-09 7.554260989341447e-09
105 1.203357441554421e-09 3.928831321898302e-09 -1.4340007181084784e-09
108 7.174611810539029e-09 5.934339622064462e-10 -1.2227128827052443e-18
121 3.9288297450733e-09 1.2033565333991648e-09 -1.4340005833520273e-09
123 5.934363257747331e-10 7.174610050047381e-09 -1.168770843644089e-15
125 3.296295076344468e-09 3.2962964590232815e-09 1.2038994865564535e-08
151 2.392821149465613e-09 2.3928179585745023e-09 -7.5542605041365e-09
152 -2.3928175355674814e-09 -2.39281922942941e-09 -7.554259746147041e-09
153 1.2033575004470073e-09 3.9288333629447634e-09 1.4339975529223948e-09
161 3.928829139904296e-09 1.203357085997932e-09 1.4339988253055074e-09
163 3.2962981005971095e-09 3.2962968743657743e-09 -1.2038994714377646e-08
106 3.0427364210527974e-09 -2.2740686329103217e-09 -2.199514430682862e-09
107 1.3122515615659658e-09 4.6492132667744355e-09 2.854686108691368e-16
109 1.629934726804613e-09 6.420767898320019e-09 2.268861923847979e-09
112 1.1453913152240074e-09 7.646393462726046e-09 -3.337598748063141e-16
127 5.619382816159341e-09 1.5681856571552504e-09 -4.401229118325021e-16
129 1.8980762394239563e-09 -5.785490478260503e-10 -4.793813985504008e-10
154 3.0427348775290367e-09 -2.2740690902556775e-09 2.19951403082232e-09
155 1.6299353737700114e-09 6.420767800514928e-09 -2.268862436102146e-09
165 1.898078208402682e-09 -5.7854773644268e-10 4.79382951199998e-10
110 1.5054347108773904e-09 6.032195326355032e-09 -2.587259700630479e-09
111 -2.7191460884583436e-09 -5.674414584645125e-09 -3.038070655288244e-16
131 1.7533954191319675e-09 3.5751598029732265e-09 -8.788239517023564e-17
156 1.5054338761344543e-09 6.032196187039838e-09 2.587260757154698e-09
113 -1.505435006411258e-09 -6.032194680841428e-09 -2.587258830394395e-09
114 -1.6299329577550202e-09 -6.420767609794999e-09 2.268864033687188e-09
115 -1.1453905075464097e-09 -7.646394204043227e-09 -4.682692982599387e-16
116 2.7191461534198716e-09 5.674416350027027e-09 -1.1638805890681722e-15
133 3.660942824001222e-09 5.359174425431152e-09 -1.453089047207167e-09
135 1.9170900530792423e-10 1.7487881448455762e-09 -5.33948142313638e-16
157 -1.5054354365626351e-09 -6.032196627162749e-09 2.5872609582664174e-09
158 -1.6299328089795311e-09 -6.420767883649255e-09 -2.2688623401309e-09
167 3.6609421289787936e-09 5.359173121283472e-09 1.4530884821837538e-09
104 -1.2176879721424013e-09 1.2176845465190708e-09 2.983055291309181e-16
117 -3.042737648347906e-09 2.2740668342135608e-09 -2.19951637241957e-09
118 -1.2033560908311257e-09 -3.928830223706967e-09 -1.4340004525377175e-09
119 -7.17460988866898e-09 -5.934313218217382e-10 -2.176163286282927e-16
120 -1.312251705122726e-09 -4.6492108995796105e-09 -3.832737023874706e-16
137 1.6058479673883e-09 -6.821961203548873e-09 1.2259511051077117e-08
139 1.5557465127578196e-09 -1.555743994276713e-09 3.0564091099479315e-16
159 -3.042737995555981e-09 2.274066694459254e-09 2.199513497561161e-09
160 -1.2033566684924475e-09 -3.9288294003103526e-09 1.433998184682158e-09
169 1.6058474098992786e-09 -6.8219599965582895e-09 -1.225951206886135e-08
122 -2.2740679873967176e-09 3.0427350910504036e-09 -2.1995145651648633e-09
124 4.649208475235904e-09 1.3122543996529972e-09 7.018921145240045e-17
128 1.568185369187376e-09 5.619382593189222e-09 2.2115060013912215e-16
141 6.420767384843289e-09 1.6299336906819247e-09 2.268864025434883e-09
142 7.646393624104448e-09 1.145392157636023e-09 6.296202766492738e-17
143 -5.785471690680851e-10 1.898077363199381e-09 -4.793821743044919e-10
162 -2.2740674690297327e-09 3.0427359031383043e-09 2.199518441914178e-09
171 6.4207663432190645e-09 1.629935341142844e-09 -2.2688679254129075e-09
172 -5.785484113324348e-10 1.8980749789615203e-09 4.79379723463077e-10
351 6.032196837443696e-09 1.50543373555635e-09 -2.587259103026088e-09
352 -5.67441536464073e-09 -2.7191465878564896e-09 1.1430970071205263e-15
354 3.5751588544847122e-09 1.753394956511355e-09 -5.390081559404612e-16
401 6.0321973558106815e-09 1.5054356913525395e-09 2.5872597216432915e-09
126 6.9536639663719294e-09 6.953665950554519e-09 8.977498126192393e-09
132 -1.0410180138108221e-09 5.002114041998633e-09 -8.275925356228409e-16
144 5.002115421744234e-09 -1.041018449274918e-09 -3.1358757468065774e-16
145 4.829131453375778e-09 4.829132387335996e-09 2.8241659620307896e-09
164 6.953663333028268e-09 6.953665274572895e-09 -8.977498940042803e-09
173 4.829131818983356e-09 4.82913112381647e-09 -2.824161893338982e-09
130 1.5443510361543263e-09 9.984016916293298e-09 -2.598063891892174e-09
146 -9.85821296949887e-12 8.706228612774596e-09 -1.6033922190786848e-15
166 1.5443490625624261e-09 9.984015339155521e-09 2.5980654950539688e-09
353 9.984016773638984e-09 1.5443499468501195e-09 -2.598065946410378e-09
356 8.706229395098324e-09 -9.861090766735336e-12 -1.2005574983875474e-15
402 9.9840173802562e-09 1.5443508075349249e-09 2.598065795423768e-09
355 5.562989924768839e-09 5.562990827937731e-09 1.4862802996159012e-08
403 5.5629898189847645e-09 5.56299097204742e-09 -1.4862798139524937e-08
134 2.0429285532162057e-09 9.407236178461352e-09 -8.649750360833122e-10
136 2.6672037716775724e-09 3.46783947132386e-09 -6.936718589435691e-16
147 -4.2633637153876406e-09 2.8983758551873997e-09 3.0660027551370373e-09
148 3.7971402846700595e-09 -3.797140599931526e-09 5.184595130573336e-16
168 2.042933834694431e-09 9.407238108443682e-09 8.649718508989235e-10
174 -4.2633629814760104e-09 2.8983784788089798e-09 -3.066004746693213e-09
357 -2.898376536766631e-09 4.263363084549487e-09 3.066002099231642e-09
358 -1.2556344937840021e-08 1.2556343537724677e-08 -8.191176414660456e-16
404 -2.898379315483662e-09 4.263362515828162e-09 -3.0659986833888207e-09
175 -9.40723671446981e-09 -2.042933211400235e-09 8.649718696527423e-10
138 6.821959605949504e-09 -1.6058493568318815e-09 1.2259514153943647e-08
140 -1.469549055424937e-09 1.469552184270943e-09 4.607536733246506e-15
149 -9.407237380766994e-09 -2.0429298328456047e-09 -8.649752145868722e-10
150 -1.7487880883559234e-09 -1.917107294921773e-10 4.024373875068441e-15
170 6.8219590875825185e-09 -1.605848706428023e-09 -1.2259517380900383e-08
359 -5.359177015758766e-09 -3.6609437798468432e-09 -1.4530900350182204e-09
360 -3.467837723185747e-09 -2.6672024437346396e-09 -1.8032813748692796e-15
405 -5.359173038453592e-09 -3.6609450999099378e-09 1.4530873007546306e-09
176 -3.09693082054922e-09 3.096929259335447e-09 -1.4494286133926491e-08
177 3.096927221321852e-09 -3.096928395594232e-09 -1.4494285281799632e-08
179 2.052438306915889e-09 5.152691652565475e-10 -7.0887055739789595e-09
186 5.152690674563809e-10 2.0524387060829187e-09 -7.088704757000805e-09
201 1.4727463735527991e-09 1.4727517418297597e-09 4.671558033453587e-09
202 -1.4727494055106362e-09 -1.4727498517463661e-09 4.67155862517439e-09
203 -1.6414661665447988e-09 1.6414676877196127e-09 -3.427073293662169e-09
204 1.6414670590162588e-09 -1.6414671452069957e-09 -3.427072689410088e-09
205 7.3259971681797e-10 2.617288356917272e-09 6.70400765341907e-10
208 -3.289866651775258e-09 1.5107460051222307e-09 -2.3130364801284547e-10
221 2.6172927200927537e-09 7.326001744316605e-10 6.703997916912957e-10
223 1.5107455783679747e-09 -3.2898661633133255e-09 -2.313035836111118e-10
225 4.5271330191010256e-09 4.527134174308756e-09 -1.3796115699766761e-09
178 3.442942301492251e-10 4.119224763797464e-09 1.9199742885786686e-09
181 3.045280575548202e-09 -4.270870736633871e-09 2.8468847534951006e-09
188 3.3869223392314378e-09 6.128792135741505e-09 1.7327275739319983e-09
206 8.609274169200932e-10 3.4034567844879265e-10 -3.773743799065692e-09
207 -3.4129930472006074e-10 1.809690738126659e-09 2.5300315932675723e-09
209 -4.4123992052728015e-09 2.2998875779579156e-09 -1.9711872620086273e-09
212 6.788192904357569e-09 -7.958214124855116e-10 4.789807933311257e-09
227 -2.1456562555186242e-09 5.335984020738231e-09 -8.114352488372926e-10
229 1.4709781268680188e-08 1.6592871116979997e-09 -9.076300257006267e-10
180 6.769871371011447e-11 5.500313584859314e-09 3.5397345234828212e-09
190 3.386907050918741e-09 -4.826776567063849e-09 -3.7329131609913196e-11
210 -3.399230117886795e-09 -6.354635782687272e-10 -1.0620193651389903e-09
211 -3.7863283656829637e-10 3.01718730236674e-09 2.1776215528620836e-09
231 2.777582211203816e-09 1.2571362887891417e-09 6.294641357678726e-09
182 -3.0452792903681673e-09 4.270867926647597e-09 2.8468847279420125e-09
183 -6.769938790978946e-11 -5.500312376966434e-09 3.53973545920247e-09
192 8.501423345350728e-11 -2.048878569543446e-09 7.632686506417017e-10
213 3.3992303385219245e-09 6.354646834662613e-10 -1.0620193681953995e-09
214 4.4123951928483225e-09 -2.2998913297315132e-09 -1.9711835707704734e-09
215 -6.788193352934407e-09 7.95821802969683e-10 4.7898071411432175e-09
216 3.7863355134538405e-10 -3.017185708143748e-09 2.177620394483031e-09
233 -9.24049933333953e-09 -4.115482998773039e-10 -1.686132581858373e-09
235 2.092565884247006e-09 -5.738170570687734e-10 3.3495312574910362e-09
184 -2.0524350897396596e-09 -5.152646833431535e-10 -7.08869975640986e-09
185 -3.4429296907482635e-10 -4.11922523876344e-09 1.9199688297860327e-09
194 2.5647208419353477e-09 -2.5647200201958804e-09 1.2056693241075135e-09
217 -8.609278834116971e-10 -3.4034664610791683e-10 -3.7737436147642224e-09
218 -7.325983674825947e-10 -2.6172938228451603e-09 6.704006401504646e-10
219 3.2898686359482957e-09 -1.5107439401326918e-09 -2.3130639459057023e-10
220 3.4130014977897454e-10 -1.8096907393492227e-09 2.530035728589098e-09
237 1.4859583560020986e-09 -2.4781431471849423e-09 -3.212147922210136e-09
239 6.509465995811833e-09 -6.509467287185274e-09 -6.680534946144712e-10
187 4.119225179469103e-09 3.442915019984536e-10 1.9199750844676007e-09
189 6.128791687046919e-09 3.3869244623631534e-09 1.732727581340731e-09
196 -4.270869235325717e-09 3.0452791491053556e-09 2.8468855838450453e-09
222 3.40347346025603e-10 8.609270997484013e-10 -3.773744163389658e-09
224 1.8096904055893478e-09 -3.412979580662069e-10 2.5300354125563964e-09
228 5.335983081214188e-09 -2.145657658814115e-09 -8.114354856128889e-10
241 2.299886360284526e-09 -4.4123976498280005e-09 -1.9711875260823742e-09
242 -7.958223954266814e-10 6.7881946433409315e-09 4.789807542625762e-09
243 1.659286051953209e-09 1.4709780208946973e-08 -9.076305671439809e-10
426 5.500314013979153e-09 6.769538820328494e-11 3.5397413184915544e-09
427 -4.826778512045007e-09 3.386909163711102e-09 -3.7328956100880725e-11
451 -6.354631136945425e-10 -3.3992306695787876e-09 -1.0620197462732063e-09
452 3.0171869906130108e-09 -3.786338581873683e-10 2.1776230541702384e-09
454 1.257135593289817e-09 2.7775827137784292e-09 6.294640701678714e-09
191 2.194187316981581e-09 1.225898743654327e-08 -2.179398062538277e-09
197 1.2258987991396137e-08 2.194187088515e-09 -2.1793972605365267e-09
226 4.442782833948194e-09 4.442781356030551e-09 -6.885499462598607e-09
232 3.7656613241138724e-09 3.4258044115978093e-09 7.1249814558580195e-09
244 3.4258058821696e-09 3.765662139290977e-09 7.124982105319287e-09
245 6.969082709502725e-10 6.969083555489307e-10 -1.3955682913565341e-08
198 1.2668105989185028e-09 -1.4916143046333667e-09 -5.684432630577601e-09
230 1.4260161350152199e-08 3.6312030068869368e-09 -3.4393266008169237e-09
246 3.6819275506786136e-09 2.2603487932443406e-09 2.8182114749720165e-09
428 -1.4916145110139952e-09 1.2668112595957685e-09 -5.684432656308447e-09
453 3.6312021370831974e-09 1.4260160761866143e-08 -3.439326026696925e-09
456 2.260348708138569e-09 3.6819245823994857e-09 2.818211441351516e-09
455 -4.894670430257053e-10 -4.894625118687552e-10 -9.53009455572929e-09
193 1.9548649780101077e-09 4.862995869930178e-09 -5.089804211112588e-09
199 -4.092888138845591e-10 4.0928940316023547e-10 -7.889222953671214e-09
234 -1.0795699734982156e-08 -3.935917671899066e-10 -9.873219861405954e-09
236 1.515260308998838e-09 1.5748518375640111e-09 9.213023094190067e-09
247 1.684762876716728e-09 -1.7335364571332368e-09 -1.0627869888276693e-08
248 -1.0460702256755162e-09 1.0460710303499457e-09 1.027616374377948e-08
429 1.1219449780686576e-09 -1.1219414073382445e-09 -4.727490969737338e-09
457 1.7335337361742796e-09 -1.684759647747855e-09 -1.0627874178947822e-08
458 1.1635472575189565e-09 -1.1635494573231493e-09 -1.0453414753981667e-08
195 -4.666172721902341e-09 4.666171316259791e-09 -1.7074436364345279e-09
200 2.0488794822200384e-09 -8.501280324801687e-11 7.632724743336275e-10
238 2.478144575265833e-09 -1.4859530757497203e-09 -3.2121487099995845e-09
240 2.3198051178263123e-09 -2.319802903763553e-09 1.0388514799728786e-09
249 3.9359407333269866e-10 1.079569766704739e-08 -9.87321887682812e-09
250 5.73819666001681e-10 -2.0925673802762513e-09 3.3495301843425184e-09
430 -4.86299974735974e-09 -1.9548652924871454e-09 -5.089807835959917e-09
459 4.1154961769704196e-10 9.240495434122335e-09 -1.6861353754057409e-09
460 -1.5748526291890436e-09 -1.5152598811512639e-09 9.2130237908639e-09
251 1.4629688254501114e-09 4.15147506846752e-09 -7.965002140524309e-16
262 -3.972547641708517e-09 -6.59052123683613e-09 -8.087258504922227e-16
263 -3.017185390277201e-09 3.7863421517595235e-10 -2.177620978257171e-09
264 7.958223074020991e-10 -6.788193723361789e-09 -4.789804472844862e-09
265 4.29226020645271e-09 7.461573442637378e-09 -1.3448196352802747e-16
268 -5.738182003006924e-10 2.092567716099202e-09 -3.349530525743416e-09
311 6.354643558192048e-10 3.3992315654122977e-09 1.0620194666117728e-09
312 -2.2998917053327777e-09 4.412396504285867e-09 1.9711841466108217e-09
313 -5.500312567686362e-09 -6.769896970347998e-11 -3.539737940548206e-09
314 4.270866890448648e-09 -3.0452791863935467e-09 -2.846885834776233e-09
315 -4.1154730766303667e-10 -9.240499123311552e-09 1.6861329547297258e-09
318 -2.0488778562306885e-09 8.501406807207593e-11 -7.632696961706456e-10
266 9.739684851958448e-10 6.673926161392842e-09 -9.035799700605782e-16
267 1.5748516257372496e-09 1.5152595639246057e-09 -9.213022281853497e-09
269 -2.7006704465128076e-10 1.125457580120684e-09 -3.912203660733352e-17
272 1.046068426443697e-09 -1.0460692900305985e-09 -1.0276163336054505e-08
316 -3.9359414811256793e-10 -1.0795698782636716e-08 9.87321890762144e-09
317 4.862996123468865e-09 1.954864723105588e-09 5.089806018061654e-09
319 -1.733535606276697e-09 1.6847621234572595e-09 1.0627873272944142e-08
322 4.0928899095988927e-10 -4.092891769859613e-10 7.889224263036878e-09
270 -1.125454634722502e-09 2.700704657855103e-10 -1.0965499334846302e-15
271 -1.163548392489318e-09 1.1635476409756256e-09 1.0453411501962373e-08
320 -1.6847595383879227e-09 1.7335346031154707e-09 1.0627872138023028e-08
321 -1.1219426338536553e-09 1.1219425678268611e-09 4.727488670927278e-09
273 -1.9655197848314273e-10 -1.965507746017994e-10 2.0416812854452181e-16
274 -3.497545365208907e-09 -3.4975443348796637e-09 -7.237440218922346e-16
275 -2.2603469457581564e-09 -3.681924825356289e-09 -2.8182081917828194e-09
276 -3.6819255511359644e-09 -2.260347184961867e-09 -2.8182107799445848e-09
323 4.894660078205367e-10 4.89465966833613e-10 9.530097542452274e-09
324 -6.969050219414232e-10 -6.96910624627054e-10 1.3955678870012499e-08
325 1.491611412557286e-09 -1.2668137438208045e-09 5.6844310324107156e-09
326 -1.2668141906019275e-09 1.4916127116329385e-09 5.684431912321461e-09
261 -1.4629716092275288e-09 -4.151475106366992e-09 -8.692427508691917e-16
277 -1.201398886859634e-09 2.994741394825198e-09 -6.216736129634093e-16
278 -3.703257111010965e-09 -2.7245298455008135e-09 -1.4866373910786737e-15
279 -1.2571351446605965e-09 -2.7775823377033313e-09 -6.29464202340638e-09
280 -3.4258088104503242e-09 -3.7656629437378545e-09 -7.1249798417427e-09
327 -3.6312055363724593e-09 -1.4260160182370976e-08 3.4393244688452016e-09
328 -1.6592856832822175e-09 -1.4709781906964567e-08 9.076326741880648e-10
329 4.826778562934816e-09 -3.386906659249742e-09 3.732720070211685e-11
330 -1.2258985806560291e-08 -2.19418442454882e-09 2.17939875137648e-09
281 1.2435726617725136e-09 -4.84660528833061e-10 -6.149495129215238e-16
282 -2.338238812638993e-09 2.3288596387335416e-09 9.817186061152755e-16
283 -1.8096890705498486e-09 3.412998287796078e-10 -2.5300313881825212e-09
284 -1.5107431479114505e-09 3.289866144363589e-09 2.313024713838367e-10
285 6.771127920778575e-10 -3.831769249829514e-09 -1.3677428341887695e-15
288 -6.509471112891363e-09 6.509470052023327e-09 6.680556078987065e-10
331 -3.403467249632719e-10 -8.60929641763858e-10 3.773740753048373e-09
332 -2.6172884655712727e-09 -7.325969490031268e-10 -6.704040300138085e-10
333 -4.119223145123199e-09 -3.442925845785603e-10 -1.919969791394422e-09
334 -5.152713805467953e-10 -2.0524365934929417e-09 7.088708367536886e-09
335 -2.478144654770675e-09 1.4859546230861016e-09 3.212147115695407e-09
338 -2.5647187457356633e-09 2.5647192046204948e-09 -1.2056711568439118e-09
341 -1.9548647339250744e-09 -4.86299777372085e-09 5.089808502210914e-09
340 9.240499975872666e-09 4.1154223890831113e-10 1.6861301015252593e-09
291 -1.5152594819490767e-09 -1.5748505431689328e-09 -9.213021379013327e-09
286 3.831767652397292e-09 -6.771145757982141e-10 -1.3937225541362567e-15
287 -2.3198009598113965e-09 2.3198009670654434e-09 -1.038851368905837e-09
289 -6.673924826019509e-09 -9.7396718515417e-10 -2.3626042046800694e-15
292 -2.092566148525471e-09 5.738152485735945e-10 -3.3495312675339068e-09
336 -1.4859558204900703e-09 2.478145971234057e-09 3.2121491827310087e-09
337 4.666172126233189e-09 -4.6661707986951136e-09 1.7074472951922535e-09
339 1.0795698813829316e-08 3.935947343181799e-10 9.873217009317531e-09
342 -8.50187085360582e-11 2.048878573855251e-09 -7.63266727367578e-10
290 -7.46157430309534e-09 -4.292263641856549e-09 -1.4010579360001318e-15
346 -3.3869031926705298e-09 4.826775063957666e-09 3.73294037618033e-11
345 -2.1941861460020043e-09 -1.2258984392961713e-08 2.1793976033324706e-09
344 -1.4709779057846396e-08 -1.6592864203762404e-09 9.076321778585655e-10
343 -1.4260162601218395e-08 -3.6311995341619243e-09 3.4393245708716225e-09
296 -2.7775825728934152e-09 -1.257140093139766e-09 -6.294640144326059e-09
295 -3.765662725323248e-09 -3.4258063227184765e-09 -7.124981353263235e-09
294 -2.7245281557796624e-09 -3.703260159661219e-09 -1.7197817852966354e-15
293 2.9947411642371257e-09 -1.2014024276791432e-09 2.607880326869442e-16
13 -4.151476412258377e-09 -1.4629697289246443e-09 -5.232572396230859e-16
350 -3.386923861331495e-09 -6.128789957609462e-09 -1.7327276560950805e-09
349 -6.1287905640010295e-09 -3.3869234010362827e-09 -1.7327251094950102e-09
348 -4.527139104698102e-09 -4.5271348497181595e-09 1.3796121148608924e-09
347 -4.442782923725837e-09 -4.4427808067040665e-09 6.885500178238444e-09
300 2.145657379432392e-09 -5.335984808911521e-09 8.114397046045095e-10
299 -5.335981753724975e-09 2.145657912470141e-09 8.114371521972617e-10
298 -6.115846818128038e-09 -6.11584978162231e-09 -8.28898150617879e-16
297 -4.597798967364794e-09 -4.597797131379842e-09 -9.78050915183338e-16
361 -6.0321958520573994e-09 -1.5054347582308383e-09 -2.5872587081380308e-09
362 -6.420767208794124e-09 -1.6299318027380176e-09 2.268864723824365e-09
363 5.674413928128448e-09 2.7191464986093437e-09 4.220900980838093e-15
364 -7.64639360454343e-09 -1.1453924486061703e-09 4.865803303037107e-16
365 5.359174584926161e-09 3.660942235336502e-09 -1.4530908016569592e-09
368 1.7487851684369706e-09 1.9171203136572017e-10 -1.4863167073958893e-16
406 -6.032195541526234e-09 -1.5054337606189046e-09 2.5872545257478047e-09
407 -6.42076703274496e-09 -1.6299341219412501e-09 -2.2688682729266235e-09
408 5.3591715106179545e-09 3.6609423080412443e-09 1.4530929613409428e-09
366 9.407236204116347e-09 2.042934075752731e-09 -8.649748106059981e-10
367 3.467839739904766e-09 2.6672006924122196e-09 -1.7421531926703209e-16
369 2.89837959899247e-09 -4.263362097940627e-09 3.0660022942305433e-09
372 -3.797137101037323e-09 3.797137310491786e-09 6.745335966411818e-16
409 9.407238528201477e-09 2.0429340219599307e-09 8.649751852453448e-10
410 2.898378748215922e-09 -4.263362870600849e-09 -3.0660039935940085e-09
370 4.2633614832967544e-09 -2.898378719042736e-09 3.066001492610844e-09
371 1.2556341737610746e-08 -1.2556343519386224e-08 -4.0283472069113733e-16
411 4.263362521345667e-09 -2.8983766700260685e-09 -3.0660043132944014e-09
373 -5.562988326023317e-09 -5.562991229549888e-09 1.4862801688627195e-08
374 -4.8291310645221336e-09 -4.8291318952541294e-09 2.8241660689286984e-09
375 -8.70622950657816e-09 9.862887308675884e-12 -7.397058498392307e-16
376 9.862882058793287e-12 -8.706230521196443e-09 2.7135428373154497e-16
412 -5.56298840649642e-09 -5.562989146301439e-09 -1.486280201260656e-08
413 -4.829131853398637e-09 -4.829132447852896e-09 -2.824167331913353e-09
377 -9.984017647997639e-09 -1.5443511037009677e-09 -2.598063357631862e-09
378 5.785467619711063e-10 -1.898075319028893e-09 -4.793821934345087e-10
379 -3.575157734129896e-09 -1.753392997799899e-09 -3.47208074890085e-16
380 -5.0021157078241264e-09 1.041017278058947e-09 -1.8153541908535738e-15
414 -9.984019480620541e-09 -1.5443510465461174e-09 2.5980659751406235e-09
415 5.785522479198178e-10 -1.8980752236689285e-09 4.793840871855932e-10
381 2.274064583779533e-09 -3.0427361290069375e-09 -2.199517934244625e-09
382 -3.928831191366091e-09 -1.2033555626836315e-09 -1.4340008205293744e-09
383 -4.649206049669634e-09 -1.312256330692273e-09 6.998570579456096e-16
384 -5.934357303862384e-10 -7.174609074441593e-09 -1.069743188481776e-15
385 -6.821960060155776e-09 1.6058479056555163e-09 1.2259515332374936e-08
388 -1.555744198585126e-09 1.5557420916300304e-09 1.16075082912436e-16
416 2.2740641583273848e-09 -3.042737438678241e-09 2.1995181072373805e-09
417 -3.928833039882321e-09 -1.2033556321405286e-09 1.4339989567310992e-09
418 -6.821960531802682e-09 1.6058478341811187e-09 -1.2259516179492113e-08
103 1.2176827218428323e-09 -1.2176875256010303e-09 8.667976235812333e-16
421 -3.660942863642247e-09 -5.359171876177617e-09 1.4530908651389347e-09
391 -2.667205105890256e-09 -3.4678382366445686e-09 8.24604776326886e-17
390 -3.6609432287762807e-09 -5.359176296891344e-09 -1.4530901933402122e-09
386 -1.605847746180691e-09 6.821959315896279e-09 1.2259510794338753e-08
387 1.4695504354273843e-09 -1.4695489427914858e-09 1.9499890121467803e-16
389 -2.042931599221587e-09 -9.407235849749589e-09 -8.649740784806174e-10
392 -1.917098953981312e-10 -1.7487895762158781e-09 -1.0636303702618801e-16
419 -1.605847756558155e-09 6.821958683219594e-09 -1.2259512190506433e-08
420 -2.0429341245853097e-09 -9.407237180942907e-09 8.649727188069159e-10
423 -1.8980751364208354e-09 5.785467916946849e-10 4.793801450291232e-10
422 -1.544349447871827e-09 -9.98401527756314e-09 2.5980653446932286e-09
396 -1.7533949913487105e-09 -3.5751577744744963e-09 3.1297629285866817e-16
395 1.0410177699096268e-09 -5.002115403828573e-09 4.3511868737245265e-15
394 -1.8980768823821527e-09 5.785487831744507e-10 -4.793844337823864e-10
393 -1.544350924389035e-09 -9.984016821497455e-09 -2.598067267611343e-09
425 -3.29629894294346e-09 -3.2963012279149107e-09 -1.2038998048003063e-08
424 -6.953664477059686e-09 -6.953662331384081e-09 -8.977499931918895e-09
400 -5.6193831399631735e-09 -1.5681843919287132e-09 5.239136437739032e-15
399 -1.5681843893026154e-09 -5.619380403577736e-09 3.1077567829950568e-15
398 -3.2962929315980224e-09 -3.29629850679388e-09 1.2038991882003324e-08
397 -6.953664887841071e-09 -6.953669119439483e-09 8.977496634970388e-09
431 -5.500310738731151e-09 -6.770039337884339e-11 3.5397349076734465e-09
432 4.270865032151909e-09 -3.0452801522188257e-09 2.846884871396082e-09
434 -2.0488767476278254e-09 8.501280562710601e-11 7.632689333414864e-10
461 6.354589961001896e-10 3.3992298660488325e-09 -1.0620233115744331e-09
462 -2.2998914852713218e-09 4.412401385371215e-09 -1.9711820621398086e-09
463 -3.0171834195046065e-09 3.786334327352202e-10 2.177622886679019e-09
464 7.958202522726135e-10 -6.7881917403635585e-09 4.78980662944713e-09
465 -4.115465376568752e-10 -9.2404999937972e-09 -1.686131951015836e-09
468 -5.738193024788287e-10 2.0925674475285936e-09 3.349531575784406e-09
433 4.862995789966875e-09 1.9548653783997012e-09 -5.089808520649433e-09
436 4.092868555668321e-10 -4.0928844344777494e-10 -7.889223053310151e-09
466 -3.935933350982681e-10 -1.0795700098115196e-08 -9.873219452044314e-09
467 1.5748517404616847e-09 1.51525981148904e-09 9.213021320062776e-09
469 -1.7335340293415192e-09 1.6847616442123111e-09 -1.0627870318007814e-08
472 1.0460690878407786e-09 -1.0460691726644887e-09 1.0276166856579338e-08
435 -1.1219423794398325e-09 1.1219393598198593e-09 -4.727489803632495e-09
470 -1.6847581580492467e-09 1.7335347596036171e-09 -1.0627871871886205e-08
471 -1.1635488030175936e-09 1.1635474453654425e-09 -1.0453415695355673e-08
437 1.4916165535190426e-09 -1.2668161843332207e-09 -5.6844325397388886e-09
438 -1.2668140621356651e-09 1.4916166287268538e-09 -5.684431303637586e-09
473 4.894649890310311e-10 4.894650768072802e-10 -9.530094710383592e-09
474 -6.969106010398733e-10 -6.969048934391412e-10 -1.3955678329847444e-08
475 -2.2603477992890545e-09 -3.681924791124507e-09 2.818210515876154e-09
476 -3.681924508312308e-09 -2.2603466323631e-09 2.818209526281978e-09
439 4.826779252460711e-09 -3.3869021944473142e-09 -3.732650017314885e-11
440 -1.2258985977719202e-08 -2.194186700351043e-09 -2.1793975533699195e-09
477 -3.6312020535178683e-09 -1.4260161897016487e-08 -3.4393260104979567e-09
478 -1.6592855414648347e-09 -1.4709780436220502e-08 -9.076314461228844e-10
479 -1.257135235130306e-09 -2.777581709305618e-09 6.294642514876965e-09
480 -3.4258076355666622e-09 -3.7656623948067785e-09 7.1249817733932576e-09
441 -4.119224714894918e-09 -3.442890477019383e-10 1.919972913194569e-09
442 -5.152652970701028e-10 -2.0524380532339327e-09 -7.088706823439004e-09
444 -2.564717859933383e-09 2.564717297420837e-09 1.2056740839384118e-09
481 -3.4034577625388413e-10 -8.609295861372122e-10 -3.77373988991844e-09
482 -2.6172896783544073e-09 -7.325992156361227e-10 6.70402046709937e-10
483 -1.8096897991977803e-09 3.4129617705841344e-10 2.5300300214327776e-09
484 -1.5107484318315198e-09 3.2898649169096905e-09 -2.3130340175476977e-10
485 -2.4781455930333517e-09 1.4859579298542462e-09 -3.2121498988357895e-09
488 -6.509467773291623e-09 6.509469266665948e-09 -6.680522507422234e-10
491 -1.5152639521659321e-09 -1.5748515513833823e-09 9.21302611834753e-09
490 9.240493980455956e-09 4.115485882984537e-10 -1.6861315830133173e-09
445 -1.9548652082886107e-09 -4.862999338060279e-09 -5.08980559291011e-09
443 4.666170360489534e-09 -4.666171994810969e-09 -1.707447467461761e-09
446 -8.501573490240685e-11 2.0488801426858706e-09 7.632698377579022e-10
486 -1.4859555862268554e-09 2.4781472208935587e-09 -3.212149812751991e-09
487 -2.3198013046863853e-09 2.3198013378803984e-09 1.0388556830602027e-09
489 1.0795700260009776e-08 3.9359518010082117e-10 -9.873218876618806e-09
492 -2.092564904414143e-09 5.738152790612753e-10 3.349529742385761e-09
496 -2.777581375525447e-09 -1.2571349179514508e-09 6.294642071086362e-09
495 -3.765661814959706e-09 -3.425806961674755e-09 7.124980715190975e-09
494 -1.470977747011903e-08 -1.659286038833211e-09 -9.076314546970223e-10
493 -1.4260160209016224e-08 -3.631207224051129e-09 -3.4393237270748953e-09
448 -3.3869039732669056e-09 4.826779319329622e-09 -3.733090473252935e-11
447 -2.1941848080524993e-09 -1.2258985321360867e-08 -2.179397545931807e-09
500 2.1456525429706166e-09 -5.3359853694569515e-09 -8.114369147142739e-10
499 -5.335979604458089e-09 2.1456572009381e-09 -8.114371983490393e-10
498 -4.527132657814366e-09 -4.5271333314469345e-09 -1.3796101413375301e-09
497 -4.442782613347491e-09 -4.442781329655665e-09 -6.885500573126501e-09
450 -3.386928798654771e-09 -6.128795747059598e-09 1.732727759825397e-09
449 -6.128792021296893e-09 -3.386925406040659e-09 1.7327256816547956e-09
