#Generated by cif2cell 2.1.0.  :  Failed to get author information, No journal information.

500 atoms
3 atom types

0.0 17.600000 xlo xhi
0.0 17.600000 ylo yhi
0.0 17.600000 zlo zhi
1.0776891771264368e-15 1.0776891771264368e-15 1.0776891771264368e-15 xy xz yz

Atoms

1 1   3.519999980000001   0.000000000000000   7.039999960000000 
2 1  15.839999910000001   8.799999950000000  10.559999939999999 
3 1  14.079999920000001   7.039999960000001  14.079999920000001 
4 1   8.799999950000002  15.839999910000001   3.519999980000000 
5 1  14.079999920000002   8.799999950000002  15.839999910000001 
6 1  15.839999910000003   3.519999980000001  15.839999910000001 
7 1   5.279999970000000   5.279999970000000  10.559999939999999 
8 1   5.279999970000000   0.000000000000001  15.839999910000001 
9 1   7.039999960000001  14.079999920000001   0.000000000000000 
10 1  14.079999920000001   7.039999960000001  10.559999939999999 
11 1  15.839999910000001   8.799999950000000   7.039999960000000 
12 1   7.039999960000001   5.279999970000000  15.839999910000001 
13 1   8.799999950000000  14.079999920000001   1.759999990000000 
14 1   8.799999950000002  15.839999910000001   0.000000000000000 
15 1   7.039999960000001  15.839999910000001   5.279999970000000 
16 1  14.079999920000001   7.039999960000000   3.519999980000000 
17 1  15.839999910000001   5.279999970000000  10.559999939999999 
18 1   3.519999980000001   1.759999990000001  15.839999910000001 
19 1   1.759999990000001  12.319999930000000   0.000000000000000 
20 1  15.839999910000001   8.799999950000000   0.000000000000000 
21 1  15.839999910000001   7.039999960000000   1.759999990000000 
22 1   1.759999990000001   3.519999980000001  15.839999910000001 
23 1  15.839999910000001  12.319999930000000  14.079999920000001 
24 1   7.039999960000001  10.559999939999999   7.039999960000000 
25 1   8.799999950000000  10.559999939999999   5.279999970000000 
26 1   7.039999960000001   8.799999950000000   5.279999970000000 
27 1   1.759999990000001  15.839999910000001   3.519999980000000 
28 1   8.799999950000000   7.039999960000000   5.279999970000000 
29 1   8.799999950000000  12.319999930000000   0.000000000000000 
30 1  15.839999910000003  15.839999910000001   3.519999980000000 
31 1   1.759999990000001  12.319999930000000   3.519999980000000 
32 1   0.000000000000001  14.079999920000001   0.000000000000000 
33 1   8.799999950000002   7.039999960000001  15.839999910000001 
34 1  15.839999910000001  14.079999920000001  12.319999930000000 
35 1   7.039999960000002   8.799999950000002  15.839999910000001 
36 1  14.079999920000001  14.079999920000001  14.079999920000001 
37 1   0.000000000000002  10.559999939999999  14.079999920000001 
38 1   0.000000000000001   3.519999980000001  14.079999920000001 
39 1   7.039999960000002  10.559999939999999  10.559999939999999 
40 1   0.000000000000001   1.759999990000001   8.799999950000000 
41 1   8.799999950000000  12.319999930000000  14.079999920000001 
42 1   8.799999950000002  10.559999940000001  15.839999910000001 
43 1   8.799999950000002   3.519999980000001  15.839999910000001 
44 1   7.039999960000002  10.559999939999999  14.079999920000001 
45 1   1.759999990000001  10.559999939999999   5.279999970000000 
46 1   1.759999990000000   1.759999990000000   3.519999980000000 
47 1  14.079999920000001  12.319999930000000   8.799999950000000 
48 1  15.839999910000003   7.039999960000001  15.839999910000001 
49 1   0.000000000000002  15.839999910000003  15.839999910000001 
50 1   0.000000000000002  14.079999920000001  14.079999920000001 
51 1   8.799999950000000   7.039999960000000   1.759999990000000 
52 1   8.799999950000000   8.799999950000000   0.000000000000000 
53 1  15.839999910000001  12.319999930000000  10.559999939999999 
54 1   7.039999960000002  12.319999930000000   8.799999950000000 
55 1  14.079999920000002  12.319999930000002  15.839999910000001 
56 1  12.319999930000002  10.559999940000001  15.839999910000001 
57 1   8.799999950000000   1.759999990000000   3.519999980000000 
58 1   1.759999990000001   7.039999960000001   8.799999950000000 
59 1  10.559999939999999   5.279999970000000   1.759999990000000 
60 1  10.559999939999999   3.519999980000000   0.000000000000000 
61 1   8.799999950000000   0.000000000000001   8.799999950000000 
62 1  12.319999930000000  10.559999939999999  12.319999930000000 
63 1  12.319999930000002   0.000000000000001  15.839999910000001 
64 1   0.000000000000001   7.039999960000001  10.559999939999999 
65 1   8.799999950000000   0.000000000000000   5.279999970000000 
66 1  12.319999930000000  12.319999930000000  14.079999920000001 
67 1  10.559999939999999  14.079999920000001   0.000000000000000 
68 1  12.319999930000000   0.000000000000001  12.319999930000000 
69 1   5.279999970000001   8.799999950000000  14.079999920000001 
70 1   5.279999970000000   7.039999960000001  15.839999910000001 
71 1  12.319999930000002  15.839999910000001   3.519999980000000 
72 1   3.519999980000001   7.039999960000001  14.079999920000001 
73 1  10.559999940000001  15.839999910000001   8.799999950000000 
74 1  10.559999939999999  12.319999930000000   5.279999970000000 
75 1   8.799999950000000   1.759999990000000   0.000000000000000 
76 1  10.559999939999999  10.559999939999999   0.000000000000000 
77 1  12.319999930000000   8.799999950000000  14.079999920000001 
78 1  12.319999930000000   3.519999980000001   8.799999950000000 
79 1   7.039999960000000   0.000000000000000   0.000000000000000 
80 1   3.519999980000001  15.839999910000001   1.759999990000000 
81 1  12.319999930000000   5.279999970000000  10.559999939999999 
82 1  12.319999930000000   7.039999960000001   8.799999950000000 
83 1   0.000000000000001   7.039999960000000   7.039999960000000 
84 1  12.319999930000002   3.519999980000001  15.839999910000001 
85 1   5.279999970000001  14.079999920000001   8.799999950000000 
86 1  10.559999939999999   7.039999960000000   3.519999980000000 
87 1   5.279999970000001  14.079999920000001  12.319999930000000 
88 1   3.519999980000001  14.079999920000001  10.559999939999999 
89 1  15.839999910000001   1.759999990000001   7.039999960000000 
90 1   7.039999960000001   5.279999970000000  12.319999930000000 
91 1   8.799999950000000   5.279999970000000   7.039999960000000 
92 1   0.000000000000002   8.799999950000002  15.839999910000001 
93 1   7.039999960000002  15.839999910000001  12.319999930000000 
94 1   8.799999950000000   5.279999970000000   3.519999980000000 
95 1  14.079999920000001   5.279999970000000   5.279999970000000 
96 1  14.079999920000001   3.519999980000000   3.519999980000000 
97 1  15.839999910000001   5.279999970000000   0.000000000000000 
98 1   1.759999990000001   8.799999950000000   3.519999980000000 
99 1   5.279999970000000   3.519999980000001  15.839999910000001 
100 1  14.079999920000001   0.000000000000001  14.079999920000001 
101 1   1.759999990000001   5.279999970000000   7.039999960000000 
102 1  12.319999930000000   0.000000000000000   1.759999990000000 
103 1  14.079999920000001   1.759999990000001  12.319999930000000 
104 1   8.799999950000000   3.519999980000000   1.759999990000000 
105 1   7.039999960000002  15.839999910000001   8.799999950000000 
106 1  10.559999939999999   0.000000000000000   3.519999980000000 
107 1   1.759999990000001   3.519999980000001   8.799999950000000 
108 1  15.839999910000001   1.759999990000000   3.519999980000000 
109 1   5.279999970000000   8.799999950000000   3.519999980000000 
110 1   3.519999980000001   7.039999960000000   7.039999960000000 
111 1   3.519999980000001   8.799999950000000   8.799999950000000 
112 1  14.079999920000001   1.759999990000000   1.759999990000000 
113 1  14.079999920000001   0.000000000000000   0.000000000000000 
114 1  12.319999930000002  15.839999910000001  14.079999920000001 
115 1  12.319999930000002  14.079999920000002  15.839999910000001 
116 1  10.559999940000003  15.839999910000003  15.839999910000001 
117 1   3.519999980000001   7.039999960000001  10.559999939999999 
118 1  12.319999930000000  14.079999920000001  12.319999930000000 
119 1  12.319999930000000   1.759999990000001   7.039999960000000 
120 1  12.319999930000000  14.079999920000001   8.799999950000000 
121 2  12.319999930000000   5.279999970000000   0.000000000000000 
122 2   0.000000000000000   5.279999970000000   1.759999990000000 
123 2  10.559999939999999   5.279999970000000   5.279999970000000 
124 2  10.559999939999999   3.519999980000001  14.079999920000001 
125 2  10.559999939999999   5.279999970000000  12.319999930000000 
126 2  12.319999930000000   3.519999980000001   5.279999970000000 
127 2  10.559999939999999   3.519999980000001  10.559999939999999 
128 2  12.319999930000000   5.279999970000000   7.039999960000000 
129 2  10.559999939999999   8.799999950000000   5.279999970000000 
130 2  12.319999930000000   5.279999970000000   3.519999980000000 
131 2  10.559999939999999   8.799999950000000  12.319999930000000 
132 2  10.559999939999999  12.319999930000000   8.799999950000000 
133 2  10.559999939999999  10.559999939999999   7.039999960000000 
134 2  12.319999930000000  12.319999930000000   3.519999980000000 
135 2  12.319999930000000  10.559999939999999   5.279999970000000 
136 2   1.759999990000001   0.000000000000001  15.839999910000001 
137 2  12.319999930000000  12.319999930000000   0.000000000000000 
138 2  12.319999930000000  10.559999939999999   1.759999990000000 
139 2  10.559999939999999  12.319999930000000   1.759999990000000 
140 2  10.559999939999999   7.039999960000001  14.079999920000001 
141 2  12.319999930000000   8.799999950000000  10.559999939999999 
142 2  12.319999930000000   7.039999960000001  12.319999930000000 
143 2  10.559999939999999   7.039999960000000   0.000000000000000 
144 2  10.559999939999999   7.039999960000001  10.559999939999999 
145 2  12.319999930000000   8.799999950000000   7.039999960000000 
146 2  10.559999939999999   8.799999950000000   8.799999950000000 
147 2  10.559999939999999   7.039999960000000   7.039999960000000 
148 2  12.319999930000000   8.799999950000000   3.519999980000000 
149 2  12.319999930000000   7.039999960000000   5.279999970000000 
150 2  10.559999939999999   0.000000000000001  14.079999920000001 
151 2  12.319999930000000   8.799999950000000   0.000000000000000 
152 2  12.319999930000000   7.039999960000000   1.759999990000000 
153 2  10.559999939999999   8.799999950000000   1.759999990000000 
154 2   8.799999950000000  10.559999939999999   8.799999950000000 
155 2   0.000000000000001   3.519999980000001  10.559999939999999 
156 2   7.039999960000001  14.079999920000001   7.039999960000000 
157 2   0.000000000000002  12.319999930000000  12.319999930000000 
158 2   7.039999960000001  14.079999920000001   3.519999980000000 
159 2   7.039999960000001  15.839999910000001   1.759999990000000 
160 2   0.000000000000001   5.279999970000000  12.319999930000000 
161 2   8.799999950000000  12.319999930000000  10.559999939999999 
162 2   8.799999950000000  10.559999939999999  12.319999930000000 
163 2   7.039999960000002  12.319999930000000  12.319999930000000 
164 2   8.799999950000000  12.319999930000000   7.039999960000000 
165 2   8.799999950000002  15.839999910000001   7.039999960000000 
166 2   8.799999950000000  12.319999930000000   3.519999980000000 
167 2   7.039999960000001  12.319999930000000   5.279999970000000 
168 2   1.759999990000001   3.519999980000001  12.319999930000000 
169 2   8.799999950000000  10.559999939999999   1.759999990000000 
170 2   7.039999960000001  12.319999930000000   1.759999990000000 
171 2   7.039999960000001  10.559999939999999   0.000000000000000 
172 2   7.039999960000001   7.039999960000001  14.079999920000001 
173 2   8.799999950000000   8.799999950000000  10.559999939999999 
174 2   8.799999950000000   7.039999960000001  12.319999930000000 
175 2   0.000000000000001   5.279999970000000   8.799999950000000 
176 2  12.319999930000000   1.759999990000001  14.079999920000001 
177 2  10.559999940000001   1.759999990000001  15.839999910000001 
178 2  10.559999940000001  12.319999930000002  15.839999910000001 
179 2  12.319999930000000   1.759999990000001  10.559999939999999 
180 2  10.559999939999999   1.759999990000001  12.319999930000000 
181 2  10.559999939999999   0.000000000000001  10.559999939999999 
182 2  12.319999930000000   0.000000000000001   8.799999950000000 
183 2  10.559999939999999   1.759999990000001   8.799999950000000 
184 2  12.319999930000000   1.759999990000000   3.519999980000000 
185 2   1.759999990000001   5.279999970000000   3.519999980000000 
186 2  12.319999930000000   1.759999990000000   0.000000000000000 
187 2  10.559999939999999   0.000000000000000   0.000000000000000 
188 2   8.799999950000002  15.839999910000001  14.079999920000001 
189 2   8.799999950000002  14.079999920000002  15.839999910000001 
190 2   7.039999960000002  15.839999910000003  15.839999910000001 
191 2   7.039999960000002  14.079999920000001  14.079999920000001 
192 2   8.799999950000002  15.839999910000001  10.559999939999999 
193 2   8.799999950000000  14.079999920000001  12.319999930000000 
194 2   7.039999960000002  14.079999920000001  10.559999939999999 
195 2   1.759999990000001   0.000000000000001   8.799999950000000 
196 2  15.839999910000001  12.319999930000000   3.519999980000000 
197 2  14.079999920000001  12.319999930000000   5.279999970000000 
198 2  14.079999920000001  10.559999939999999   3.519999980000000 
199 2  15.839999910000001  12.319999930000000   0.000000000000000 
200 2  15.839999910000001  10.559999939999999   1.759999990000000 
201 2   0.000000000000000   0.000000000000000   7.039999960000000 
202 2  14.079999920000001  10.559999939999999   0.000000000000000 
203 2  15.839999910000001   7.039999960000001  12.319999930000000 
204 2  14.079999920000001   8.799999950000000  12.319999930000000 
205 2  15.839999910000001   7.039999960000001   8.799999950000000 
206 2  14.079999920000001  10.559999939999999   7.039999960000000 
207 2  14.079999920000001   7.039999960000000   7.039999960000000 
208 2  15.839999910000001   8.799999950000000   3.519999980000000 
209 2  15.839999910000001   7.039999960000000   5.279999970000000 
210 2  14.079999920000001   8.799999950000000   5.279999970000000 
211 2  14.079999920000001   8.799999950000000   1.759999990000000 
212 2   1.759999990000001   1.759999990000001   7.039999960000000 
213 2  15.839999910000001   5.279999970000000  14.079999920000001 
214 2  14.079999920000002   5.279999970000000  15.839999910000001 
215 2  14.079999920000001   3.519999980000001  14.079999920000001 
216 2  15.839999910000001   3.519999980000001  12.319999930000000 
217 2  14.079999920000001  14.079999920000001   3.519999980000000 
218 2   0.000000000000000   1.759999990000000   1.759999990000000 
219 2  15.839999910000003  14.079999920000002  15.839999910000001 
220 2  15.839999910000003  15.839999910000001  10.559999939999999 
221 2  14.079999920000002  15.839999910000001  12.319999930000000 
222 2  14.079999920000001  14.079999920000001  10.559999939999999 
223 2  15.839999910000003  15.839999910000001   7.039999960000000 
224 2  15.839999910000001  14.079999920000001   8.799999950000000 
225 2  14.079999920000002  15.839999910000001   8.799999950000000 
226 2  14.079999920000001  14.079999920000001   7.039999960000000 
227 2  14.079999920000002  15.839999910000001   5.279999970000000 
228 2  14.079999920000001   5.279999970000000  12.319999930000000 
229 2   0.000000000000000   0.000000000000000   3.519999980000000 
230 2  15.839999910000001  14.079999920000001   1.759999990000000 
231 2  14.079999920000002  15.839999910000001   1.759999990000000 
232 2  14.079999920000001  14.079999920000001   0.000000000000000 
233 2  14.079999920000001  10.559999939999999  14.079999920000001 
234 2  15.839999910000001  10.559999939999999  12.319999930000000 
235 2  14.079999920000001  12.319999930000000  12.319999930000000 
236 2  14.079999920000001  10.559999939999999  10.559999939999999 
237 2  15.839999910000001  10.559999939999999   8.799999950000000 
238 2  10.559999939999999  14.079999920000001   3.519999980000000 
239 2  15.839999910000001   1.759999990000000   0.000000000000000 
240 2  15.839999910000001   0.000000000000000   1.759999990000000 
241 2  10.559999939999999  14.079999920000001  14.079999920000001 
242 2  12.319999930000002  15.839999910000001  10.559999939999999 
243 2  10.559999940000001  15.839999910000001  12.319999930000000 
244 2  10.559999939999999  14.079999920000001  10.559999939999999 
245 2  12.319999930000002  15.839999910000001   7.039999960000000 
246 2  10.559999939999999  14.079999920000001   7.039999960000000 
247 2  12.319999930000000  14.079999920000001   5.279999970000000 
248 2  10.559999940000001  15.839999910000001   5.279999970000000 
249 2  14.079999920000001   0.000000000000000   3.519999980000000 
250 2  12.319999930000002  15.839999910000001   0.000000000000000 
251 2  12.319999930000000  14.079999920000001   1.759999990000000 
252 2  10.559999940000001  15.839999910000001   1.759999990000000 
253 2   8.799999950000000  14.079999920000001   5.279999970000000 
254 2  10.559999939999999  10.559999939999999  14.079999920000001 
255 2  12.319999930000000  12.319999930000000  10.559999939999999 
256 2  10.559999939999999  12.319999930000000  12.319999930000000 
257 2  10.559999939999999  10.559999939999999  10.559999939999999 
258 2  12.319999930000000  12.319999930000000   7.039999960000000 
259 2   0.000000000000001   1.759999990000001  12.319999930000000 
260 2  14.079999920000001   3.519999980000001  10.559999939999999 
261 2  15.839999910000001   5.279999970000000   7.039999960000000 
262 2   0.000000000000001   0.000000000000001  10.559999939999999 
263 2  14.079999920000001   5.279999970000000   8.799999950000000 
264 2  14.079999920000001   3.519999980000001   7.039999960000000 
265 2  15.839999910000001   5.279999970000000   3.519999980000000 
266 2  15.839999910000001   3.519999980000001   5.279999970000000 
267 2  15.839999910000001   3.519999980000000   1.759999990000000 
268 2  14.079999920000001   5.279999970000000   1.759999990000000 
269 2  14.079999920000001   3.519999980000000   0.000000000000000 
270 2  12.319999930000000  10.559999939999999   8.799999950000000 
271 2  15.839999910000003   0.000000000000001  15.839999910000001 
272 2  14.079999920000002   1.759999990000001  15.839999910000001 
273 2  15.839999910000001   0.000000000000001  12.319999930000000 
274 2   1.759999990000001   1.759999990000001  10.559999939999999 
275 2   0.000000000000001   0.000000000000001  14.079999920000001 
276 2  14.079999920000001   1.759999990000001   8.799999950000000 
277 2  14.079999920000001   0.000000000000000   7.039999960000000 
278 2  15.839999910000001   0.000000000000000   5.279999970000000 
279 2   0.000000000000001   1.759999990000001  15.839999910000001 
280 2   5.279999970000000   7.039999960000001   8.799999950000000 
281 2   3.519999980000001  12.319999930000000   5.279999970000000 
282 2   3.519999980000001  10.559999939999999   3.519999980000000 
283 2   5.279999970000000  10.559999939999999   1.759999990000000 
284 2   3.519999980000001  12.319999930000000   1.759999990000000 
285 2   0.000000000000001   8.799999950000000  12.319999930000000 
286 2   3.519999980000001   8.799999950000002  15.839999910000001 
287 2   5.279999970000001   8.799999950000000  10.559999939999999 
288 2   5.279999970000000   7.039999960000001  12.319999930000000 
289 2   3.519999980000001   8.799999950000000  12.319999930000000 
290 2   1.759999990000001   7.039999960000001  12.319999930000000 
291 2   5.279999970000000  10.559999939999999   5.279999970000000 
292 2   5.279999970000000   7.039999960000000   5.279999970000000 
293 2   3.519999980000001   8.799999950000000   5.279999970000000 
294 2   3.519999980000001   7.039999960000000   3.519999980000000 
295 2   5.279999970000000   7.039999960000000   1.759999990000000 
296 2   0.000000000000001   7.039999960000001  14.079999920000001 
297 2   3.519999980000001   7.039999960000000   0.000000000000000 
298 2   5.279999970000000   5.279999970000000  14.079999920000001 
299 2   3.519999980000001   5.279999970000000  15.839999910000001 
300 2   3.519999980000001   3.519999980000001  14.079999920000001 
301 2   5.279999970000000   3.519999980000001  12.319999930000000 
302 2   5.279999970000001  10.559999940000001  15.839999910000001 
303 2   5.279999970000000  15.839999910000001   7.039999960000000 
304 2   3.519999980000001  15.839999910000001   8.799999950000000 
305 2   3.519999980000001  14.079999920000001   7.039999960000000 
306 2   5.279999970000000  15.839999910000001   3.519999980000000 
307 2   3.519999980000001  15.839999910000001   5.279999970000000 
308 2   3.519999980000001  14.079999920000001   3.519999980000000 
309 2   0.000000000000001   8.799999950000000   8.799999950000000 
310 2   5.279999970000000  14.079999920000001   1.759999990000000 
311 2   3.519999980000001  14.079999920000001   0.000000000000000 
312 2   5.279999970000001  12.319999930000000  14.079999920000001 
313 2   3.519999980000001   5.279999970000000  12.319999930000000 
314 2   3.519999980000002  12.319999930000002  15.839999910000001 
315 2   3.519999980000001  10.559999939999999  14.079999920000001 
316 2   5.279999970000001  12.319999930000000  10.559999939999999 
317 2   5.279999970000001  10.559999939999999  12.319999930000000 
318 2   3.519999980000002  12.319999930000000  12.319999930000000 
319 2   3.519999980000001  10.559999939999999  10.559999939999999 
320 2   5.279999970000001  10.559999939999999   8.799999950000000 
321 2   3.519999980000001  12.319999930000000   8.799999950000000 
322 2   3.519999980000001  10.559999939999999   7.039999960000000 
323 2   1.759999990000001   8.799999950000000   7.039999960000000 
324 2   0.000000000000001  14.079999920000001   7.039999960000000 
325 2   3.519999980000000   1.759999990000000   1.759999990000000 
326 2   3.519999980000000   0.000000000000000   0.000000000000000 
327 2   1.759999990000002  15.839999910000001  14.079999920000001 
328 2   1.759999990000002  14.079999920000002  15.839999910000001 
329 2   1.759999990000002  15.839999910000001  10.559999939999999 
330 2   1.759999990000002  14.079999920000001  12.319999930000000 
331 2   0.000000000000002  15.839999910000001  12.319999930000000 
332 2   1.759999990000001  15.839999910000001   7.039999960000000 
333 2   0.000000000000001  10.559999939999999   7.039999960000000 
334 2   0.000000000000001  12.319999930000000   8.799999950000000 
335 2   5.279999970000000   1.759999990000000   0.000000000000000 
336 2   1.759999990000001  14.079999920000001   5.279999970000000 
337 2   0.000000000000001  15.839999910000001   5.279999970000000 
338 2   1.759999990000001  10.559999939999999   8.799999950000000 
339 2   1.759999990000001  15.839999910000001   0.000000000000000 
340 2   1.759999990000001  14.079999920000001   1.759999990000000 
341 2   1.759999990000002  12.319999930000000  14.079999920000001 
342 2   1.759999990000002  10.559999940000001  15.839999910000001 
343 2   0.000000000000002  12.319999930000002  15.839999910000001 
344 2   0.000000000000001  10.559999939999999  10.559999939999999 
345 2   1.759999990000001  10.559999939999999  12.319999930000000 
346 2   5.279999970000000   1.759999990000001  10.559999939999999 
347 2   3.519999980000001   3.519999980000001  10.559999939999999 
348 2   5.279999970000000   5.279999970000000   7.039999960000000 
349 2   5.279999970000000   3.519999980000001   8.799999950000000 
350 2   3.519999980000001   5.279999970000000   8.799999950000000 
351 2   5.279999970000000   5.279999970000000   3.519999980000000 
352 2   5.279999970000000   3.519999980000001   5.279999970000000 
353 2   1.759999990000001   7.039999960000001  15.839999910000001 
354 2   3.519999980000001   5.279999970000000   1.759999990000000 
355 2   1.759999990000001  10.559999939999999   1.759999990000000 
356 2   5.279999970000000   1.759999990000001  14.079999920000001 
357 2   7.039999960000001   7.039999960000001  10.559999939999999 
358 2   5.279999970000000   0.000000000000001  12.319999930000000 
359 2   3.519999980000001   1.759999990000001  12.319999930000000 
360 2   3.519999980000001   0.000000000000001  10.559999939999999 
361 2   5.279999970000000   1.759999990000001   7.039999960000000 
362 2   5.279999970000000   0.000000000000001   8.799999950000000 
363 2   3.519999980000001   1.759999990000001   8.799999950000000 
364 2   0.000000000000001  10.559999939999999   3.519999980000000 
365 2   3.519999980000001   1.759999990000000   5.279999970000000 
366 2   3.519999980000000   0.000000000000000   3.519999980000000 
367 2   7.039999960000001   1.759999990000001  12.319999930000000 
368 2   7.039999960000000   1.759999990000000   5.279999970000000 
369 2   8.799999950000000   3.519999980000001   5.279999970000000 
370 2   7.039999960000000   5.279999970000000   5.279999970000000 
371 2   7.039999960000000   0.000000000000000   7.039999960000000 
372 2   7.039999960000001   1.759999990000001   8.799999950000000 
373 2   7.039999960000000   3.519999980000000   3.519999980000000 
374 2   8.799999950000000   5.279999970000000   0.000000000000000 
375 2   8.799999950000000   5.279999970000000  10.559999939999999 
376 2   8.799999950000000   1.759999990000001   7.039999960000000 
377 2   7.039999960000001   3.519999980000001  14.079999920000001 
378 2   7.039999960000001   0.000000000000001  10.559999939999999 
379 2   7.039999960000000   7.039999960000000   3.519999980000000 
380 2   8.799999950000000   0.000000000000001  12.319999930000000 
381 2   7.039999960000001   8.799999950000000   1.759999990000000 
382 2   7.039999960000000   7.039999960000000   0.000000000000000 
383 2   7.039999960000000   5.279999970000000   1.759999990000000 
384 2   8.799999950000000   1.759999990000001  10.559999939999999 
385 2   8.799999950000000   5.279999970000000  14.079999920000001 
386 2   0.000000000000001   7.039999960000000   3.519999980000000 
387 2   7.039999960000000   3.519999980000000   0.000000000000000 
388 2   7.039999960000001   1.759999990000001  15.839999910000001 
389 2   1.759999990000001   7.039999960000000   1.759999990000000 
390 2   0.000000000000001   8.799999950000000   5.279999970000000 
391 2   3.519999980000002  15.839999910000003  15.839999910000001 
392 2   1.759999990000001   7.039999960000000   5.279999970000000 
393 2   0.000000000000000   0.000000000000000   0.000000000000000 
394 2   5.279999970000001  14.079999920000002  15.839999910000001 
395 2   5.279999970000001  15.839999910000001  10.559999939999999 
396 2   7.039999960000001   3.519999980000001  10.559999939999999 
397 2   5.279999970000001  15.839999910000001  14.079999920000001 
398 2   1.759999990000001   5.279999970000000  14.079999920000001 
399 2   0.000000000000001   5.279999970000000  15.839999910000001 
400 2   7.039999960000000   1.759999990000000   1.759999990000000 
401 2   7.039999960000000   7.039999960000000   7.039999960000000 
402 2   8.799999950000000   3.519999980000001  12.319999930000000 
403 2   8.799999950000000   8.799999950000000   7.039999960000000 
404 2   0.000000000000000   7.039999960000000   0.000000000000000 
405 2   8.799999950000000   0.000000000000000   1.759999990000000 
406 3   7.039999960000000   0.000000000000000   3.519999980000000 
407 3   5.279999970000000   8.799999950000000   7.039999960000000 
408 3   3.519999980000001  10.559999939999999   0.000000000000000 
409 3   5.279999970000000  12.319999930000000   0.000000000000000 
410 3   5.279999970000000  12.319999930000000   3.519999980000000 
411 3   5.279999970000000  12.319999930000000   7.039999960000000 
412 3   5.279999970000000  15.839999910000001   0.000000000000000 
413 3   5.279999970000000  14.079999920000001   5.279999970000000 
414 3   3.519999980000002  15.839999910000001  12.319999930000000 
415 3   3.519999980000002  14.079999920000001  14.079999920000001 
416 3   5.279999970000000   8.799999950000000   0.000000000000000 
417 3   7.039999960000001   0.000000000000001  14.079999920000001 
418 3   8.799999950000002   0.000000000000001  15.839999910000001 
419 3   8.799999950000000   1.759999990000001  14.079999920000001 
420 3   7.039999960000000   3.519999980000001   7.039999960000000 
421 3   7.039999960000001   5.279999970000000   8.799999950000000 
422 3   8.799999950000000   3.519999980000001   8.799999950000000 
423 3   8.799999950000000   8.799999950000000   3.519999980000000 
424 3   7.039999960000002   8.799999950000000   8.799999950000000 
425 3   5.279999970000000   1.759999990000000   3.519999980000000 
426 3   1.759999990000001  12.319999930000000  10.559999939999999 
427 3   0.000000000000001  15.839999910000001   1.759999990000000 
428 3   0.000000000000001  14.079999920000001   3.519999980000000 
429 3   0.000000000000002  15.839999910000001   8.799999950000000 
430 3   1.759999990000001  14.079999920000001   8.799999950000000 
431 3   0.000000000000002  14.079999920000001  10.559999939999999 
432 3   5.279999970000000   0.000000000000000   1.759999990000000 
433 3   5.279999970000000   0.000000000000000   5.279999970000000 
434 3   7.039999960000002   8.799999950000000  12.319999930000000 
435 3   3.519999980000001   0.000000000000001  14.079999920000001 
436 3   3.519999980000000   3.519999980000000   0.000000000000000 
437 3   5.279999970000000   3.519999980000000   1.759999990000000 
438 3   5.279999970000000   5.279999970000000   0.000000000000000 
439 3   3.519999980000000   3.519999980000000   3.519999980000000 
440 3   3.519999980000001   5.279999970000000   5.279999970000000 
441 3   3.519999980000001   3.519999980000001   7.039999960000000 
442 3   3.519999980000001   8.799999950000000   1.759999990000000 
443 3  15.839999910000001   8.799999950000000  14.079999920000001 
444 3  14.079999920000001   1.759999990000000   5.279999970000000 
445 3  15.839999910000001   0.000000000000001   8.799999950000000 
446 3  14.079999920000001   0.000000000000001  10.559999939999999 
447 3  15.839999910000001   1.759999990000001  10.559999939999999 
448 3  15.839999910000001   1.759999990000001  14.079999920000001 
449 3  15.839999910000001   3.519999980000001   8.799999950000000 
450 3  14.079999920000001   7.039999960000000   0.000000000000000 
451 3  14.079999920000001   8.799999950000000   8.799999950000000 
452 3  10.559999939999999  10.559999939999999   3.519999980000000 
453 3  14.079999920000001  12.319999930000000   1.759999990000000 
454 3  15.839999910000001  10.559999939999999   5.279999970000000 
455 3  15.839999910000001  12.319999930000000   7.039999960000000 
456 3  15.839999910000003  10.559999940000001  15.839999910000001 
457 3  15.839999910000003  15.839999910000001   0.000000000000000 
458 3  15.839999910000001  14.079999920000001   5.279999970000000 
459 3  14.079999920000004  15.839999910000003  15.839999910000001 
460 3  15.839999910000003  15.839999910000001  14.079999920000001 
461 3  12.319999930000000   3.519999980000000   1.759999990000000 
462 3   8.799999950000000   8.799999950000000  14.079999920000001 
463 3   7.039999960000001  10.559999939999999   3.519999980000000 
464 3   7.039999960000002  12.319999930000002  15.839999910000001 
465 3   8.799999950000000  14.079999920000001   8.799999950000000 
466 3  10.559999939999999   1.759999990000000   1.759999990000000 
467 3  10.559999939999999   1.759999990000000   5.279999970000000 
468 3  12.319999930000000   0.000000000000000   5.279999970000000 
469 3  10.559999939999999   0.000000000000000   7.039999960000000 
470 3   8.799999950000000   7.039999960000001   8.799999950000000 
471 3  10.559999939999999   3.519999980000000   3.519999980000000 
472 3  10.559999939999999   3.519999980000001   7.039999960000000 
473 3  10.559999939999999   5.279999970000000   8.799999950000000 
474 3  12.319999930000000   3.519999980000001  12.319999930000000 
475 3  10.559999940000001   5.279999970000000  15.839999910000001 
476 3  12.319999930000000   5.279999970000000  14.079999920000001 
477 3  10.559999940000001   8.799999950000002  15.839999910000001 
478 3  12.319999930000002   7.039999960000001  15.839999910000001 
479 3   0.000000000000000   3.519999980000000   3.519999980000000 
480 3   0.000000000000001   8.799999950000000   1.759999990000000 
481 3   0.000000000000001  12.319999930000000   5.279999970000000 
482 3   1.759999990000001   8.799999950000000  10.559999939999999 
483 3   1.759999990000000   3.519999980000000   1.759999990000000 
484 3   1.759999990000001   0.000000000000001  12.319999930000000 
485 3   1.759999990000000   0.000000000000000   5.279999970000000 
486 3   1.759999990000000   5.279999970000000   0.000000000000000 
487 3   0.000000000000001   3.519999980000001   7.039999960000000 
488 3   1.759999990000001   8.799999950000000   0.000000000000000 
489 3   0.000000000000000   1.759999990000000   5.279999970000000 
490 3   0.000000000000001   5.279999970000000   5.279999970000000 
491 3   0.000000000000000   3.519999980000000   0.000000000000000 
492 3   1.759999990000000   1.759999990000000   0.000000000000000 
493 3   1.759999990000001   1.759999990000001  14.079999920000001 
494 3   1.759999990000001   3.519999980000001   5.279999970000000 
495 3   1.759999990000000   0.000000000000000   1.759999990000000 
496 3   0.000000000000001  12.319999930000000   1.759999990000000 
497 3   1.759999990000001  12.319999930000000   7.039999960000000 
498 3   0.000000000000001  10.559999939999999   0.000000000000000 
499 3   1.759999990000001   8.799999950000000  14.079999920000001 
500 3   1.759999990000001   5.279999970000000  10.559999939999999 
