LAMMPS data file via write_data, version 29 Aug 2024, timestep = 31, units = metal

500 atoms
3 atom types

0 17.70323774393931 xlo xhi
0 17.70323774393931 ylo yhi
0 17.70323774393931 zlo zhi

Masses

1 54.5893
2 55.845
3 55.845

Atoms # atomic

1 2 0.002253618719949619 0.0022536187199504584 2.4996162238477855e-19 0 0 0
2 3 1.7680701556739793 1.7680701556739784 3.227087262426828e-16 0 0 0
3 1 1.7664247627571812 0.003899011636751128 1.7621542147685167 0 0 0
4 1 0.003899011636749578 1.7664247627571805 1.762154214768516 0 0 0
5 1 3.534816769645629 0.0038519579850901675 8.8252211271376e-16 0 0 0
8 1 3.538273278685495 1.7712079449100713 1.7677244979248308 0 0 0
21 1 0.0038519579850900885 3.5348167696456296 3.740622525114869e-19 0 0 0
23 1 1.7712079449100726 3.5382732786854953 1.767724497924831 0 0 0
25 1 3.5339088722902017 3.5339088722902017 0 0 0 0
52 1 1.7710043160586735 1.7710043160586721 3.5389233221282894 0 0 0
53 1 1.7699087717572048 0.0004150026367267902 5.310412000692145 0 0 0
54 1 0.0004150026367248593 1.7699087717572046 5.310412000692145 0 0 0
58 1 3.5401672328035305 1.769900069853999 5.310317286624713 0 0 0
73 1 1.769900069854 3.5401672328035305 5.310317286624713 0 0 0
75 1 3.5419415771309075 3.5419415771309075 3.542121354429583 0 0 0
6 1 5.308351229325648 1.7700338664583333 7.841037823983372e-17 0 0 0
9 1 7.081181482199015 0.0004187506244899968 0 0 0 0
12 1 7.080896257624787 1.7703182954003494 1.769910169458272 0 0 0
27 1 5.311641268698922 3.541417760952046 1.7707084862624005 0 0 0
29 1 7.0810449381261895 3.540097110438722 8.615696143912116e-20 0 0 0
56 1 5.30733826148234 1.7699230337098228 3.53727936474657 0 0 0
57 1 5.309751739661514 0.0004010037152268742 5.3094768261441905 0 0 0
59 1 7.080999077718314 0.00039753746310456153 3.5404063523300886 0 0 0
62 1 7.080056875526909 1.7701317466709452 5.309752968249305 0 0 0
77 1 5.311015635172369 3.540158127030137 5.3107575023264895 0 0 0
79 1 7.080727347405604 3.5401097532153347 3.540488354743518 0 0 0
11 1 8.851462272283214 4.08157803921976e-05 1.770262169617539 0 0 0
31 1 8.851465965260914 3.540532054670911 1.770303568148489 0 0 0
60 1 8.851606241692927 1.770336165290431 3.5403554955054495 0 0 0
61 1 8.851467922490755 0.00017712632583731814 5.310678734030468 0 0 0
81 1 8.851470763144631 3.5403138764461306 5.310715059282095 0 0 0
10 1 8.851750963642228 1.7703125134237037 4.8076197699837e-19 0 0 0
13 1 10.621810554691013 1.1260970226899094e-05 4.9057344591670403e-20 0 0 0
14 1 12.392380036134226 1.7699050237694416 4.370915263363208e-16 0 0 0
15 1 12.392665260708453 5.478993582096957e-06 1.7699101694582726 0 0 0
16 1 10.622099246050027 1.7702829586135385 1.770262169617539 0 0 0
33 1 10.621958256771467 3.5404166392541856 5.764237989521272e-20 0 0 0
35 1 12.39272262669878 3.5405671204000058 1.769874925186117 0 0 0
64 1 12.392562440614928 1.7699262369308235 3.5404063523300877 0 0 0
65 1 12.393504642806334 0.00019202772298657962 5.309752968249304 0 0 0
66 1 10.622093595842488 1.7701466480680932 5.310678734030468 0 0 0
83 1 10.622229917189465 3.540504121672883 3.540402775074239 0 0 0
85 1 12.392394198171335 3.5403580441428204 5.3108693363136386 0 0 0
71 1 17.70251829276793 3.537811158621979 3.537931072227355 -1 0 0
17 1 14.165210289007595 0.0002899079355966219 2.8803588682542053e-16 0 0 0
18 1 15.938744748687611 1.7664718164088398 0 0 0 0
20 1 14.161872483204027 1.7710249608542028 1.7706841624966896 0 0 0
37 1 14.166269262395167 3.5367883827736706 1.4851568222525282e-16 0 0 0
39 1 15.931394616449015 3.5421669018842263 1.7716352041270644 0 0 0
67 1 14.166223256850902 0.0004007406841082096 3.5372793647465692 0 0 0
68 1 15.935750359711262 1.7710432255653101 3.5379310722273556 0 0 0
69 1 15.933394285529712 0.00042370453992967617 5.310317286624713 0 0 0
70 1 14.163809778671727 1.769922770678704 5.309476826144191 0 0 0
87 1 14.162451944622557 3.540711656026057 3.5410427509699978 0 0 0
89 1 15.933406697780786 3.5401548205524564 5.310280119179955 0 0 0
22 1 1.7700338664583335 5.308351229325647 3.605714827487775e-19 0 0 0
28 1 3.5414177609520463 5.3116412686989225 1.7707084862624 0 0 0
41 1 0.00041875062448801627 7.081181482199015 2.9220701884286995e-16 0 0 0
42 1 1.7703182954003496 7.080896257624788 1.769910169458272 0 0 0
43 1 3.540097110438722 7.081044938126189 8.624120040916254e-16 0 0 0
72 1 1.769923033709824 5.30733826148234 3.53727936474657 0 0 0
74 1 0.00040100371522760396 5.309751739661515 5.3094768261441905 0 0 0
78 1 3.5401581270301374 5.311015635172367 5.31075750232649 0 0 0
91 1 0.0003975374631056608 7.080999077718315 3.5404063523300895 0 0 0
92 1 1.7701317466709448 7.0800568755269095 5.309752968249305 0 0 0
93 1 3.540109753215335 7.080727347405604 3.5404883547435175 0 0 0
252 1 4.081578039173536e-05 8.851462272283214 1.7702621696175391 0 0 0
254 1 3.5405320546709107 8.851465965260914 1.7703035681484889 0 0 0
301 1 1.7703361652904313 8.851606241692926 3.54035549550545 0 0 0
302 1 0.0001771263258372806 8.851467922490754 5.310678734030467 0 0 0
304 1 3.5403138764461306 8.851470763144631 5.310715059282095 0 0 0
26 1 5.306562647930654 5.306562647930654 0 0 0 0
32 1 7.080872071287277 5.310830905930306 1.7697694670042572 0 0 0
44 1 5.310830905930308 7.080872071287278 1.769769467004257 0 0 0
45 1 7.079859069714067 7.079859069714067 0 0 0 0
76 1 5.3115815989410695 5.311581598941069 3.541108142729483 0 0 0
82 1 7.0813810949650815 5.310823347801709 5.311010463365763 0 0 0
94 1 5.31082334780171 7.0813810949650815 5.311010463365763 0 0 0
95 1 7.0813841868499505 7.0813841868499505 3.5404366903737374 0 0 0
30 1 8.851612143730925 5.310620793010966 0 0 0 0
46 1 8.851480472573916 7.081078528560673 1.7699764835347538 0 0 0
80 1 8.85134307998678 5.310688177538333 3.5403651930679207 0 0 0
253 1 5.310620793010967 8.851612143730925 2.0538234671187243e-16 0 0 0
256 1 7.081078528560673 8.851480472573916 1.7699764835347533 0 0 0
303 1 5.310688177538333 8.85134307998678 3.540365193067921 0 0 0
255 1 8.851254695908848 8.851254695908848 2.8131592796530477e-16 0 0 0
34 1 12.393402019488342 5.309645727662347 4.8750972375690985e-17 0 0 0
36 1 10.622102699271055 5.310740084594995 1.7701548176748418 0 0 0
47 1 10.62233150863944 7.080754797400567 2.9831473388768403e-16 0 0 0
48 1 12.392586171133635 7.080975347199606 1.769963434403969 0 0 0
84 1 12.392520256252913 5.3108572402026715 3.5403845933807707 0 0 0
86 1 10.62196175559853 5.310741522422956 5.3107764704877685 0 0 0
96 1 8.851639179945701 7.081201534059824 5.31084058602823 0 0 0
97 1 10.621959557817076 7.0811486002102235 3.540355522842466 0 0 0
98 1 12.392351692850916 7.0812098254823255 5.310843587335094 0 0 0
257 1 12.392806720932674 8.8512300096938 4.088274142798911e-19 0 0 0
258 1 10.622040240656588 8.851521277676653 1.7699707232193043 0 0 0
307 1 12.39241291812302 8.851601960516165 3.540355522842466 0 0 0
308 1 10.621982393959676 8.851579124373565 5.310805576587735 0 0 0
100 1 15.933203474190423 7.0811673201619065 5.3108693363136386 0 0 0
99 1 14.162704278130569 7.081041262080328 3.5403845933807707 0 0 0
90 1 14.162656712550781 5.310904805782462 5.311067079558451 0 0 0
88 1 15.932849862307185 5.311109573710686 3.541042750969997 0 0 0
50 1 15.932994397933236 7.08083889163446 1.769874925186117 0 0 0
24 1 17.70253655747904 5.3116890351292145 1.7706841624966883 -1 0 0
38 1 15.936773135559571 5.307292255938075 2.9347759762169607e-16 0 0 0
40 1 14.162986152776861 5.310575365556381 1.7694869123782073 0 0 0
49 1 14.163915790670895 7.080159498844899 4.736838954724467e-16 0 0 0
259 1 15.933144879079055 8.851603261561776 5.088760440586584e-16 0 0 0
260 1 14.162821433738248 8.851458819062186 1.7701548176748423 0 0 0
309 1 15.933057396660358 8.851331601143777 3.5404027750742384 0 0 0
310 1 14.162819995910285 8.85159976273471 5.310776470487768 0 0 0
101 1 4.045843951471783e-05 4.045843951491009e-05 7.0812482533137935 0 0 0
102 1 1.7702833159544153 1.770283315954416 7.081248253313793 0 0 0
103 1 1.770290708354467 3.306603946306118e-05 8.851618871969656 0 0 0
104 1 3.306603946451919e-05 1.7702907083544668 8.851618871969654 0 0 0
105 1 3.540374304524218 4.970963256986163e-05 7.081089810627528 0 0 0
108 1 3.5405129244050055 1.770328982549249 8.851618871969656 0 0 0
121 1 4.97096325703202e-05 3.5403743045242178 7.081089810627529 0 0 0
123 1 1.7703289825492499 3.5405129244050064 8.851618871969656 0 0 0
125 1 3.540429693247523 3.540429693247523 7.0808037099485155 0 0 0
151 1 4.045843951520796e-05 4.04584395149414e-05 10.621989490625518 0 0 0
152 1 1.7702833159544162 1.7702833159544162 10.621989490625518 0 0 0
153 1 3.5403743045242186 4.970963256974116e-05 10.622147933311782 0 0 0
161 1 4.9709632570679114e-05 3.540374304524218 10.622147933311783 0 0 0
163 1 3.5404296932475217 3.5404296932475225 10.622434033990794 0 0 0
106 1 5.310582268166215 1.770127646599724 7.081081088776153 0 0 0
109 1 7.080729046772888 0.00018050061278066816 7.080736018743103 0 0 0
112 1 7.081001312143688 1.770126280123782 8.851618871969656 0 0 0
127 1 5.310706356058485 3.540478374462942 8.851618871969656 0 0 0
129 1 7.081149066838668 3.5402997139333836 7.081159279193758 0 0 0
154 1 5.310582268166215 1.7701276465997244 10.62215665516316 0 0 0
155 1 7.080729046772888 0.00018050061277996907 10.622501725196209 0 0 0
165 1 7.081149066838668 3.540299713933383 10.622078464745552 0 0 0
110 1 8.851241127221616 1.7701323179632413 7.080848529577014 0 0 0
111 1 8.85149403946266 0.00018746092299641898 8.851618871969656 0 0 0
131 1 8.851539891170338 3.540279264521659 8.851618871969656 0 0 0
156 1 8.851241127221616 1.7701323179632407 10.622389214362297 0 0 0
113 1 10.622320391111625 0.00019145643068860344 7.080848529577014 0 0 0
114 1 12.392832471560354 1.7701432737811493 7.080736018743103 0 0 0
115 1 12.392560206189554 0.00019749427014662918 8.851618871969656 0 0 0
116 1 10.622067478870582 1.770136313470933 8.851618871969656 0 0 0
133 1 10.621971544597548 3.540295979242887 7.081206982908375 0 0 0
135 1 12.392541969462874 3.5402914182647915 8.851618871969656 0 0 0
157 1 10.622320391111625 0.00019145643068811766 10.622389214362297 0 0 0
158 1 12.392832471560352 1.7701432737811489 10.622501725196209 0 0 0
167 1 10.621971544597548 3.5402959792428867 10.622030761030937 0 0 0
117 1 14.162979250167028 0.00019612779420505514 7.081081088776153 0 0 0
118 1 15.933187213809024 1.7702740647613593 7.081089810627528 0 0 0
120 1 14.162884436370938 1.770324002325081 8.851618871969656 0 0 0
137 1 14.162934024109164 3.5402838781728985 7.080816074775495 0 0 0
139 1 15.93302559742754 3.5405359209057043 8.851618871969656 0 0 0
159 1 14.162979250167028 0.00019612779420533752 10.622156655163158 0 0 0
160 1 15.933187213809024 1.7702740647613604 10.622147933311783 0 0 0
169 1 14.162934024109166 3.5402838781728985 10.622421669163819 0 0 0
122 1 1.770127646599725 5.310582268166215 7.081081088776154 0 0 0
128 1 3.540478374462941 5.310706356058485 8.851618871969656 0 0 0
141 1 0.00018050061278127589 7.0807290467728885 7.080736018743103 0 0 0
142 1 1.7701262801237827 7.081001312143688 8.851618871969656 0 0 0
143 1 3.5402997139333836 7.081149066838668 7.081159279193759 0 0 0
162 1 1.7701276465997247 5.310582268166214 10.622156655163158 0 0 0
171 1 0.00018050061277997707 7.0807290467728885 10.622501725196209 0 0 0
172 1 3.5402997139333836 7.081149066838668 10.622078464745552 0 0 0
351 1 1.7701323179632413 8.851241127221616 7.080848529577013 0 0 0
352 1 0.00018746092299593716 8.85149403946266 8.851618871969656 0 0 0
354 1 3.5402792645216596 8.851539891170338 8.851618871969658 0 0 0
401 1 1.7701323179632427 8.851241127221616 10.622389214362299 0 0 0
126 1 5.310743348446106 5.310743348446107 7.081030185363467 0 0 0
132 1 7.081124583596749 5.310714289355561 8.851618871969656 0 0 0
144 1 5.31071428935556 7.08112458359675 8.851618871969656 0 0 0
145 1 7.0812019077377135 7.081201907737714 7.081289167382428 0 0 0
164 1 5.310743348446107 5.310743348446108 10.622207558575845 0 0 0
173 1 7.0812019077377135 7.081201907737714 10.621948576556884 0 0 0
146 1 8.851600458079108 7.081152589538529 8.851618871969656 0 0 0
356 1 7.0811525895385286 8.85160045807911 8.851618871969656 0 0 0
355 1 8.851589583107216 8.851589583107216 7.081236003212241 0 0 0
403 1 8.851589583107216 8.851589583107216 10.62200174072707 0 0 0
130 1 8.851636048469981 5.310713380499137 7.081281546270055 0 0 0
134 1 12.392368033492183 5.310723857204114 7.08129316743069 0 0 0
136 1 10.622003851962942 5.310688126708343 8.851618871969656 0 0 0
147 1 10.621997116676692 7.0811531733881825 7.081241665792622 0 0 0
148 1 12.392419818529437 7.081141699803805 8.851618871969656 0 0 0
166 1 8.85163604846998 5.310713380499138 10.621956197669258 0 0 0
168 1 12.39236803349218 5.310723857204114 10.621944576508621 0 0 0
174 1 10.621997116676692 7.0811531733881825 10.621996078146688 0 0 0
357 1 12.392408344945062 8.851564401656548 7.081241665792622 0 0 0
358 1 10.621996031928866 8.851565486404375 8.851618871969656 0 0 0
404 1 12.39240834494506 8.851564401656548 10.621996078146688 0 0 0
175 1 14.162837661129128 7.08119348484106 10.621944576508621 0 0 0
170 1 15.933277640160343 5.310627494224078 10.622421669163817 0 0 0
124 1 17.70323751600816 5.310677081962304 8.851618871969656 -1 0 0
138 1 15.933277640160345 5.310627494224077 7.080816074775496 0 0 0
140 1 14.162919394964941 5.310642123368301 8.851618871969656 0 0 0
149 1 14.162837661129126 7.08119348484106 7.081293167430691 0 0 0
150 1 15.93327010006845 7.081019548870367 8.851618871969656 0 0 0
359 1 15.933265539090355 8.851589973735694 7.081206982908376 0 0 0
360 1 14.162873391624899 8.851557666370299 8.851618871969656 0 0 0
405 1 15.933265539090355 8.851589973735692 10.622030761030935 0 0 0
176 1 1.7699087717572037 0.0004150026367252047 12.392825743247167 0 0 0
177 1 0.0004150026367247874 1.7699087717572044 12.392825743247167 0 0 0
179 1 3.5401672328035305 1.7699000698539993 12.392920457314599 0 0 0
186 1 1.769900069853999 3.54016723280353 12.392920457314599 0 0 0
202 1 1.7710043160586726 1.7710043160586721 14.164314421811023 0 0 0
203 1 1.766424762757181 0.003899011636749246 15.941083529170793 0 0 0
204 1 0.0038990116367494166 1.7664247627571805 15.941083529170795 0 0 0
208 1 3.5382732786854953 1.7712079449100722 15.93551324601448 0 0 0
223 1 1.7712079449100726 3.5382732786854945 15.935513246014482 0 0 0
225 1 3.5419415771309075 3.5419415771309075 14.16111638950973 0 0 0
178 1 5.309751739661514 0.0004010037152265008 12.393760917795118 0 0 0
181 1 7.080056875526909 1.7701317466709456 12.393484775690006 0 0 0
188 1 5.311015635172368 3.540158127030137 12.392480241612821 0 0 0
206 1 5.3073382614823394 1.7699230337098233 14.165958379192741 0 0 0
209 1 7.080999077718315 0.0003975374631049591 14.162831391609222 0 0 0
212 1 7.080896257624787 1.7703182954003496 15.93332757448104 0 0 0
227 1 5.3116412686989225 3.541417760952046 15.932529257676912 0 0 0
229 1 7.080727347405604 3.5401097532153347 14.162749389195792 0 0 0
180 1 8.851467922490754 0.00017712632583683215 12.392559009908846 0 0 0
190 1 8.851470763144631 3.540313876446131 12.392522684657216 0 0 0
210 1 8.851606241692927 1.770336165290431 14.162882248433862 0 0 0
211 1 8.851462272283214 4.0815780392012975e-05 15.932975574321773 0 0 0
231 1 8.851465965260914 3.5405320546709103 15.932934175790823 0 0 0
182 1 12.393504642806334 0.00019202772298588464 12.393484775690007 0 0 0
183 1 10.622093595842488 1.7701466480680932 12.392559009908844 0 0 0
192 1 12.392394198171335 3.5403580441428213 12.392368407625675 0 0 0
214 1 12.392562440614926 1.7699262369308244 14.162831391609222 0 0 0
215 1 12.392665260708453 5.4789935815534216e-06 15.933327574481039 0 0 0
216 1 10.622099246050027 1.7702829586135391 15.932975574321771 0 0 0
233 1 10.622229917189467 3.5405041216728828 14.162834968865072 0 0 0
235 1 12.39272262669878 3.5405671204000067 15.933362818753196 0 0 0
221 1 17.70251829276793 3.5378111586219783 14.165306671711956 -1 0 0
184 1 15.933394285529712 0.0004237045399314924 12.3929204573146 0 0 0
185 1 14.163809778671729 1.7699227706787035 12.393760917795118 0 0 0
194 1 15.933406697780786 3.5401548205524564 12.392957624759356 0 0 0
217 1 14.166223256850902 0.00040074068410505154 14.165958379192741 0 0 0
218 1 15.935750359711264 1.7710432255653097 14.165306671711956 0 0 0
220 1 14.161872483204027 1.7710249608542024 15.932553581442622 0 0 0
237 1 14.162451944622557 3.540711656026058 14.162194992969315 0 0 0
239 1 15.931394616449015 3.542166901884226 15.931602539812246 0 0 0
187 1 0.0004010037152270056 5.309751739661515 12.39376091779512 0 0 0
189 1 3.5401581270301374 5.311015635172368 12.392480241612821 0 0 0
196 1 1.7701317466709452 7.080056875526909 12.393484775690007 0 0 0
222 1 1.769923033709824 5.30733826148234 14.165958379192741 0 0 0
228 1 3.5414177609520463 5.311641268698922 15.932529257676912 0 0 0
241 1 0.00039753746310468475 7.080999077718314 14.162831391609222 0 0 0
242 1 1.7703182954003502 7.080896257624787 15.93332757448104 0 0 0
243 1 3.540109753215335 7.080727347405605 14.162749389195794 0 0 0
426 1 0.00017712632583610793 8.851467922490754 12.392559009908846 0 0 0
427 1 3.5403138764461306 8.851470763144631 12.392522684657216 0 0 0
451 1 1.7703361652904317 8.851606241692927 14.162882248433862 0 0 0
452 1 4.0815780392585394e-05 8.851462272283214 15.932975574321773 0 0 0
454 1 3.5405320546709107 8.851465965260914 15.932934175790821 0 0 0
191 1 7.0813810949650815 5.310823347801709 12.392227280573548 0 0 0
197 1 5.310823347801709 7.0813810949650815 12.392227280573548 0 0 0
226 1 5.311581598941069 5.3115815989410695 14.162129601209829 0 0 0
232 1 7.080872071287277 5.310830905930307 15.933468276935054 0 0 0
244 1 5.310830905930308 7.080872071287277 15.933468276935054 0 0 0
245 1 7.0813841868499505 7.081384186849951 14.162801053565575 0 0 0
230 1 8.85134307998678 5.310688177538333 14.16287255087139 0 0 0
246 1 8.851480472573916 7.081078528560672 15.933261260404558 0 0 0
453 1 5.310688177538333 8.85134307998678 14.162872550871391 0 0 0
456 1 7.081078528560672 8.851480472573916 15.933261260404558 0 0 0
193 1 10.62196175559853 5.310741522422956 12.392461273451545 0 0 0
198 1 8.851639179945701 7.081201534059823 12.392397157911082 0 0 0
199 1 12.392351692850916 7.0812098254823255 12.392394156604219 0 0 0
234 1 12.392520256252913 5.310857240202671 14.16285315055854 0 0 0
236 1 10.622102699271055 5.310740084594995 15.93308292626447 0 0 0
247 1 10.621959557817076 7.081148600210222 14.162882221096844 0 0 0
248 1 12.392586171133635 7.080975347199606 15.933274309535344 0 0 0
429 1 10.621982393959676 8.851579124373565 12.392432167351576 0 0 0
457 1 12.39241291812302 8.851601960516167 14.162882221096844 0 0 0
458 1 10.622040240656588 8.851521277676655 15.933267020720006 0 0 0
250 1 15.932994397933236 7.08083889163446 15.933362818753194 0 0 0
249 1 14.16270427813057 7.081041262080329 14.162853150558542 0 0 0
240 1 14.162986152776861 5.31057536555638 15.933750831561104 0 0 0
238 1 15.932849862307185 5.311109573710686 14.162194992969317 0 0 0
200 1 15.933203474190423 7.0811673201619065 12.392368407625675 0 0 0
224 1 17.70253655747904 5.3116890351292145 15.932553581442624 -1 0 0
195 1 14.162656712550781 5.310904805782461 12.39217066438086 0 0 0
430 1 14.162819995910285 8.85159976273471 12.392461273451545 0 0 0
459 1 15.933057396660358 8.851331601143777 14.162834968865074 0 0 0
460 1 14.162821433738248 8.851458819062188 15.93308292626447 0 0 0
251 1 1.7703125134237023 8.85175096364223 2.1078696654280655e-16 0 0 0
261 1 1.1260970228333332e-05 10.621810554691013 5.405682290606758e-16 0 0 0
262 1 1.7699050237694414 12.392380036134227 1.8435781543635461e-16 0 0 0
263 1 1.770282958613539 10.622099246050027 1.7702621696175387 0 0 0
264 1 5.478993579419271e-06 12.392665260708453 1.769910169458272 0 0 0
265 1 3.540416639254186 10.621958256771467 3.1716628556255714e-16 0 0 0
268 1 3.5405671204000067 12.392722626698783 1.769874925186117 0 0 0
312 1 1.769926236930825 12.392562440614928 3.5404063523300886 0 0 0
313 1 1.770146648068094 10.622093595842488 5.310678734030468 0 0 0
314 1 0.00019202772298493965 12.393504642806333 5.309752968249305 0 0 0
315 1 3.540504121672883 10.622229917189465 3.5404027750742397 0 0 0
318 1 3.5403580441428213 12.392394198171335 5.310869336313638 0 0 0
266 1 5.309645727662346 12.393402019488342 8.857086890346863e-16 0 0 0
267 1 5.310740084594995 10.622102699271055 1.7701548176748416 0 0 0
269 1 7.080754797400568 10.62233150863944 2.929469278481529e-16 0 0 0
272 1 7.0809753471996055 12.392586171133635 1.7699634344039685 0 0 0
306 1 7.081201534059823 8.851639179945701 5.31084058602823 0 0 0
316 1 5.3108572402026715 12.392520256252913 3.5403845933807707 0 0 0
317 1 5.310741522422956 10.621961755598532 5.310776470487768 0 0 0
319 1 7.081148600210223 10.621959557817076 3.5403555228424652 0 0 0
322 1 7.0812098254823255 12.392351692850916 5.310843587335094 0 0 0
270 1 8.8512300096938 12.392806720932676 3.8558116288472186e-19 0 0 0
271 1 8.851521277676653 10.622040240656588 1.7699707232193038 0 0 0
320 1 8.851601960516167 12.39241291812302 3.540355522842466 0 0 0
321 1 8.851579124373565 10.621982393959678 5.310805576587735 0 0 0
273 1 10.622306822424394 10.622306822424394 8.413334597471475e-19 0 0 0
274 1 12.393702448619173 12.393702448619175 0 0 0 0
275 1 12.392482989772567 10.622081045759327 1.7699764835347531 0 0 0
276 1 10.622081045759327 12.392482989772569 1.7699764835347531 0 0 0
305 1 8.851626945969077 8.851626945969077 3.540348469834197 0 0 0
323 1 10.621934572364164 10.621934572364164 3.5403484698341967 0 0 0
324 1 12.39217733148329 12.39217733148329 3.540436690373736 0 0 0
325 1 12.39235998427342 10.621922338387542 5.31084058602823 0 0 0
326 1 10.62192233838754 12.39235998427342 5.310840586028229 0 0 0
311 1 17.70322535304281 10.621955276640316 3.5403554955054495 -1 0 0
277 1 14.162940725322276 10.621949374602316 1.340491940967394e-18 0 0 0
278 1 15.933464407894519 12.392516580207054 2.4646350199392796e-16 0 0 0
279 1 15.933029463662333 10.622095553072327 1.7703035681484902 0 0 0
280 1 14.162730612402934 12.392689447045965 1.7697694670042572 0 0 0
327 1 14.16287334079491 10.622218438346463 3.5403651930679216 0 0 0
328 1 15.933451765117907 12.392834170927635 3.540488354743519 0 0 0
329 1 15.933247641887112 10.622090755188612 5.310715059282094 0 0 0
330 1 14.162738170531533 12.39218042336816 5.311010463365764 0 0 0
281 1 0.0002899079355969657 14.165210289007595 1.003762728394599e-15 0 0 0
282 1 1.7664718164088409 15.938744748687611 1.9598409164372325e-18 0 0 0
283 1 1.7710249608542032 14.161872483204027 1.770684162496689 0 0 0
285 1 3.5367883827736697 14.166269262395165 8.462391942063145e-19 0 0 0
288 1 3.542166901884227 15.931394616449015 1.771635204127064 0 0 0
331 1 0.0004007406841065265 14.166223256850902 3.5372793647465692 0 0 0
332 1 1.7710432255653092 15.935750359711262 3.5379310722273543 0 0 0
333 1 1.769922770678703 14.163809778671727 5.309476826144191 0 0 0
334 1 0.00042370453992940696 15.933394285529712 5.310317286624713 0 0 0
335 1 3.540711656026057 14.162451944622557 3.541042750969997 0 0 0
338 1 3.5401548205524582 15.933406697780786 5.310280119179956 0 0 0
55 1 3.53781115862198 17.70251829276793 3.5379310722273547 0 -1 0
341 1 8.851599762734711 14.162819995910287 5.3107764704877685 0 0 0
340 1 8.851331601143775 15.933057396660358 3.540402775074239 0 0 0
286 1 5.307292255938075 15.93677313555957 0 0 0 0
287 1 5.31057536555638 14.162986152776861 1.7694869123782067 0 0 0
289 1 7.080159498844899 14.163915790670895 4.20257674604117e-16 0 0 0
292 1 7.08083889163446 15.932994397933236 1.7698749251861177 0 0 0
336 1 5.311109573710687 15.932849862307185 3.5410427509699978 0 0 0
337 1 5.310904805782463 14.162656712550781 5.31106707955845 0 0 0
339 1 7.081041262080328 14.16270427813057 3.540384593380771 0 0 0
342 1 7.081167320161906 15.933203474190421 5.310869336313638 0 0 0
290 1 8.851603261561776 15.933144879079055 0 0 0 0
291 1 8.851458819062188 14.162821433738248 1.7701548176748416 0 0 0
7 1 5.311689035129215 17.70253655747904 1.7706841624966876 0 -1 0
346 1 10.62209075518861 15.93324764188711 5.310715059282096 0 0 0
345 1 12.392180423368162 14.162738170531533 5.311010463365764 0 0 0
344 1 12.392834170927635 15.933451765117907 3.5404883547435184 0 0 0
343 1 10.622218438346462 14.162873340794908 3.5403651930679207 0 0 0
296 1 10.622095553072326 15.933029463662331 1.7703035681484882 0 0 0
295 1 12.392689447045965 14.162730612402934 1.7697694670042567 0 0 0
294 1 12.392516580207054 15.933464407894519 5.3963079050837447e-20 0 0 0
293 1 10.621949374602316 14.162940725322276 0 0 0 0
63 1 10.621955276640316 17.70322535304281 3.5403554955054504 0 -1 0
350 1 14.162545883160874 15.933403391303102 5.31075750232649 0 0 0
349 1 15.933403391303104 14.162545883160874 5.3107575023264895 0 0 0
348 1 15.931619941202335 15.931619941202333 3.5421213544295855 0 0 0
347 1 14.161979919392174 14.161979919392174 3.5411081427294833 0 0 0
300 1 14.16192024963432 15.932143757381196 1.770708486262399 0 0 0
299 1 15.932143757381196 14.16192024963432 1.7707084862623999 0 0 0
298 1 15.939652646043042 15.93965264604304 7.256958367622152e-17 0 0 0
297 1 14.166998870402587 14.166998870402587 0 0 0 0
284 1 17.70235357342317 15.935288239647747 1.7677244979248319 -1 0 0
51 1 17.70255720227457 17.702557202274566 3.5389233221282894 -1 -1 0
19 1 15.935288239647747 17.70235357342317 1.7677244979248303 0 -1 0
361 1 0.00019145643068894821 10.622320391111627 7.080848529577014 0 0 0
362 1 1.770143273781149 12.392832471560352 7.080736018743103 0 0 0
363 1 1.7701363134709334 10.622067478870584 8.851618871969656 0 0 0
364 1 0.00019749427014838797 12.392560206189554 8.851618871969656 0 0 0
365 1 3.5402959792428867 10.62197154459755 7.081206982908375 0 0 0
368 1 3.540291418264792 12.392541969462874 8.851618871969656 0 0 0
406 1 0.00019145643068936368 10.622320391111627 10.622389214362299 0 0 0
407 1 1.770143273781149 12.392832471560354 10.622501725196209 0 0 0
408 1 3.5402959792428863 10.621971544597548 10.622030761030937 0 0 0
353 1 5.310713380499138 8.85163604846998 7.081281546270056 0 0 0
366 1 5.310723857204115 12.39236803349218 7.08129316743069 0 0 0
367 1 5.310688126708344 10.622003851962942 8.851618871969656 0 0 0
369 1 7.0811531733881825 10.621997116676692 7.081241665792622 0 0 0
372 1 7.081141699803804 12.392419818529438 8.851618871969656 0 0 0
402 1 5.310713380499137 8.851636048469981 10.621956197669258 0 0 0
409 1 5.310723857204115 12.39236803349218 10.621944576508621 0 0 0
410 1 7.081153173388182 10.621997116676694 10.621996078146688 0 0 0
370 1 8.85156440165655 12.39240834494506 7.081241665792622 0 0 0
371 1 8.851565486404375 10.621996031928866 8.851618871969656 0 0 0
411 1 8.85156440165655 12.39240834494506 10.621996078146688 0 0 0
373 1 10.621971935226025 10.621971935226025 7.081236003212241 0 0 0
374 1 12.392359610595529 12.392359610595527 7.081289167382428 0 0 0
375 1 12.392408928794712 10.621961060254133 8.851618871969656 0 0 0
376 1 10.621961060254131 12.392408928794712 8.851618871969656 0 0 0
412 1 10.621971935226025 10.621971935226027 10.62200174072707 0 0 0
413 1 12.392359610595527 12.392359610595527 10.621948576556884 0 0 0
377 1 14.162848137834104 10.621925469863262 7.081281546270055 0 0 0
378 1 15.933261804399857 12.392412451494573 7.081159279193758 0 0 0
379 1 15.933282253811583 10.622021627162903 8.851618871969656 0 0 0
380 1 14.16284722897768 12.392436934736493 8.851618871969654 0 0 0
414 1 14.162848137834104 10.621925469863262 10.621956197669258 0 0 0
415 1 15.933261804399859 12.392412451494573 10.622078464745552 0 0 0
381 1 0.00019612779420561614 14.162979250167028 7.081081088776153 0 0 0
382 1 1.77027406476136 15.933187213809022 7.081089810627529 0 0 0
383 1 1.770324002325081 14.162884436370938 8.851618871969656 0 0 0
385 1 3.5402838781728985 14.162934024109166 7.080816074775495 0 0 0
388 1 3.540535920905703 15.93302559742754 8.851618871969656 0 0 0
416 1 0.00019612779420455267 14.162979250167027 10.62215665516316 0 0 0
417 1 1.7702740647613604 15.933187213809024 10.622147933311783 0 0 0
418 1 3.540283878172898 14.162934024109166 10.622421669163819 0 0 0
421 1 8.851589973735694 15.933265539090355 10.622030761030935 0 0 0
386 1 5.310627494224078 15.933277640160345 7.080816074775495 0 0 0
387 1 5.310642123368302 14.162919394964941 8.851618871969656 0 0 0
389 1 7.08119348484106 14.162837661129128 7.081293167430691 0 0 0
392 1 7.081019548870367 15.93327010006845 8.851618871969656 0 0 0
419 1 5.310627494224078 15.933277640160345 10.622421669163819 0 0 0
420 1 7.08119348484106 14.162837661129128 10.621944576508621 0 0 0
390 1 8.851589973735694 15.933265539090355 7.081206982908376 0 0 0
391 1 8.851557666370299 14.162873391624899 8.851618871969654 0 0 0
107 1 5.310677081962304 17.70323751600816 8.851618871969656 0 -1 0
423 1 12.392412451494573 15.933261804399857 10.622078464745552 0 0 0
422 1 10.62192546986326 14.162848137834104 10.621956197669258 0 0 0
396 1 10.622021627162903 15.933282253811582 8.851618871969656 0 0 0
395 1 12.392436934736493 14.16284722897768 8.851618871969656 0 0 0
394 1 12.392412451494573 15.933261804399857 7.081159279193759 0 0 0
393 1 10.62192546986326 14.162848137834105 7.081281546270055 0 0 0
425 1 15.933131825085718 15.933131825085718 10.622434033990794 0 0 0
424 1 14.162818169887135 14.162818169887135 10.622207558575843 0 0 0
400 1 14.162855162274758 15.933083143870302 8.851618871969658 0 0 0
399 1 15.9330831438703 14.162855162274758 8.851618871969656 0 0 0
398 1 15.93313182508572 15.93313182508572 7.0808037099485155 0 0 0
397 1 14.162818169887135 14.162818169887135 7.081030185363467 0 0 0
384 1 17.703232535783993 15.933048593928236 8.851618871969654 -1 0 0
119 1 15.933048593928234 17.703232535783993 8.851618871969656 0 -1 0
431 1 1.770146648068094 10.622093595842488 12.392559009908844 0 0 0
432 1 0.00019202772298474675 12.393504642806333 12.393484775690006 0 0 0
434 1 3.540358044142821 12.392394198171335 12.392368407625675 0 0 0
462 1 1.7699262369308244 12.392562440614926 14.162831391609222 0 0 0
463 1 1.7702829586135378 10.622099246050027 15.932975574321771 0 0 0
464 1 5.478993580921007e-06 12.392665260708453 15.933327574481039 0 0 0
465 1 3.5405041216728836 10.622229917189465 14.162834968865074 0 0 0
468 1 3.5405671204000053 12.392722626698783 15.933362818753196 0 0 0
428 1 7.081201534059823 8.851639179945701 12.39239715791108 0 0 0
433 1 5.310741522422957 10.62196175559853 12.392461273451543 0 0 0
436 1 7.081209825482325 12.392351692850916 12.392394156604219 0 0 0
466 1 5.310857240202671 12.392520256252913 14.16285315055854 0 0 0
467 1 5.310740084594995 10.622102699271053 15.93308292626447 0 0 0
469 1 7.0811486002102235 10.621959557817076 14.162882221096844 0 0 0
472 1 7.080975347199607 12.392586171133635 15.933274309535342 0 0 0
435 1 8.851579124373563 10.621982393959676 12.392432167351577 0 0 0
470 1 8.851601960516165 12.39241291812302 14.162882221096845 0 0 0
471 1 8.851521277676653 10.622040240656588 15.933267020720006 0 0 0
437 1 12.392359984273417 10.621922338387542 12.392397157911082 0 0 0
438 1 10.621922338387542 12.39235998427342 12.39239715791108 0 0 0
455 1 8.851626945969077 8.851626945969077 14.162889274105114 0 0 0
473 1 10.621934572364164 10.621934572364164 14.162889274105115 0 0 0
474 1 12.39217733148329 12.39217733148329 14.162801053565573 0 0 0
475 1 12.392482989772567 10.622081045759325 15.933261260404558 0 0 0
476 1 10.622081045759325 12.392482989772569 15.93326126040456 0 0 0
461 1 17.70322535304281 10.621955276640316 14.162882248433862 -1 0 0
439 1 15.933247641887112 10.622090755188612 12.392522684657216 0 0 0
440 1 14.162738170531531 12.39218042336816 12.392227280573548 0 0 0
477 1 14.162873340794908 10.622218438346462 14.16287255087139 0 0 0
478 1 15.933451765117907 12.392834170927635 14.162749389195794 0 0 0
479 1 15.933029463662331 10.622095553072327 15.932934175790823 0 0 0
480 1 14.162730612402934 12.392689447045965 15.933468276935054 0 0 0
441 1 1.7699227706787037 14.163809778671729 12.39376091779512 0 0 0
442 1 0.0004237045399307677 15.933394285529712 12.3929204573146 0 0 0
444 1 3.5401548205524573 15.933406697780786 12.392957624759354 0 0 0
481 1 0.0004007406841061214 14.166223256850902 14.165958379192741 0 0 0
482 1 1.7710432255653092 15.935750359711264 14.165306671711956 0 0 0
483 1 1.7710249608542044 14.161872483204027 15.932553581442624 0 0 0
485 1 3.5407116560260565 14.162451944622555 14.162194992969315 0 0 0
488 1 3.542166901884227 15.931394616449015 15.931602539812248 0 0 0
205 1 3.5378111586219787 17.702518292767934 14.165306671711956 0 -1 0
491 1 8.851458819062188 14.162821433738248 15.93308292626447 0 0 0
490 1 8.851331601143777 15.933057396660358 14.162834968865072 0 0 0
443 1 5.310904805782463 14.162656712550781 12.39217066438086 0 0 0
446 1 7.081167320161905 15.933203474190421 12.392368407625673 0 0 0
486 1 5.311109573710687 15.932849862307185 14.162194992969315 0 0 0
487 1 5.31057536555638 14.162986152776861 15.933750831561104 0 0 0
489 1 7.081041262080328 14.16270427813057 14.162853150558542 0 0 0
492 1 7.080838891634459 15.932994397933236 15.933362818753194 0 0 0
445 1 8.851599762734711 14.162819995910287 12.392461273451543 0 0 0
207 1 5.3116890351292145 17.70253655747904 15.932553581442622 0 -1 0
496 1 10.622095553072327 15.933029463662333 15.932934175790823 0 0 0
495 1 12.392689447045965 14.162730612402934 15.933468276935054 0 0 0
494 1 12.392834170927635 15.933451765117907 14.162749389195792 0 0 0
493 1 10.622218438346462 14.16287334079491 14.16287255087139 0 0 0
448 1 10.62209075518861 15.933247641887112 12.392522684657216 0 0 0
447 1 12.392180423368162 14.162738170531533 12.392227280573548 0 0 0
213 1 10.621955276640316 17.70322535304281 14.162882248433862 0 -1 0
500 1 14.16192024963432 15.932143757381196 15.932529257676912 0 0 0
499 1 15.932143757381196 14.16192024963432 15.932529257676912 0 0 0
498 1 15.931619941202333 15.931619941202333 14.161116389509727 0 0 0
497 1 14.161979919392174 14.161979919392172 14.162129601209829 0 0 0
450 1 14.162545883160872 15.933403391303104 12.392480241612821 0 0 0
449 1 15.933403391303106 14.162545883160872 12.392480241612821 0 0 0
484 1 17.70235357342317 15.935288239647747 15.935513246014482 -1 0 0
201 1 17.70255720227457 17.70255720227457 14.16431442181102 -1 -1 0
219 1 15.935288239647747 17.70235357342317 15.935513246014482 0 -1 0

Velocities

1 -5.03931617837095e-09 -5.0393195495559965e-09 2.4996162238477856e-16
2 5.0393201825523356e-09 5.039321372267755e-09 -1.2392431872367664e-15
3 4.812021961461474e-10 -4.812095663989554e-10 -7.78803910654255e-09
4 -4.812036206487909e-10 4.812036108373221e-10 -7.788036207253484e-09
5 -8.131075382722188e-09 5.150058532918554e-09 -2.143498751275627e-15
8 -9.96363054396667e-10 4.061381311366561e-09 -1.750877370535227e-09
21 5.150057389269208e-09 -8.131078079343098e-09 3.7406225251148685e-16
23 4.06137870887443e-09 -9.963659248645424e-10 -1.7508776642660777e-09
25 -4.912683524010972e-10 -4.912706157843332e-10 -2.55711408684082e-16
52 2.911831239013167e-09 2.9118367837195395e-09 -3.872963629549712e-09
53 1.8131002684218883e-09 -1.8131064189864665e-09 -2.8770827285189796e-09
54 -1.8130989291563809e-09 1.8131002193645437e-09 -2.8770843817514923e-09
58 -9.540408667205774e-09 5.476095779069286e-10 3.9315694270124233e-10
73 5.476065507621588e-10 -9.540410181851288e-09 3.9315696539026416e-10
75 6.063956975974137e-10 6.063947765457689e-10 6.711105035837671e-09
6 -5.341220995854329e-10 1.949630016487065e-09 -5.935938695592119e-16
9 -9.033240864375875e-11 -6.19975351419348e-09 -7.20836357093857e-16
12 -3.972427794300249e-09 -1.3604387063357116e-10 8.688693018884083e-10
27 4.3669269802476104e-09 -6.824944245461111e-09 -2.331942103560101e-09
29 3.450486811209802e-09 -2.139447006321746e-09 8.615696143912115e-17
56 8.523386345729822e-09 3.2137171130156173e-09 1.8697383684057187e-09
57 -7.469478825033295e-11 -3.1162754570054833e-09 1.9851695010008256e-09
59 2.401082968718174e-09 1.7452999030548183e-09 2.170114392167742e-09
62 -3.3122705433839302e-09 6.443677453553482e-10 3.84439781680763e-09
77 3.530896614322546e-09 -1.5361099492794612e-10 6.517660742522355e-09
79 -8.286564939954424e-10 -9.238783883860143e-10 1.398458758238371e-09
11 -6.515279542368356e-10 -3.3119150658932005e-09 -4.690092547461777e-09
31 -1.192164236344297e-09 -1.5928951114329466e-09 -1.0635623952395143e-09
60 5.713846991582471e-09 -3.935416550579779e-09 -1.4392409262858847e-09
61 -1.8711933896520767e-09 1.6990803639585388e-09 5.489861683883054e-10
81 -2.7373676950412844e-09 -2.9751115937176077e-09 -6.219589216493118e-09
10 4.791905011259033e-09 -2.1615776979715604e-09 4.807619769983699e-16
13 -4.791902633616259e-09 2.1615778794837354e-09 4.9057344591670403e-17
14 9.033620021467716e-11 6.1997477024970936e-09 -8.917547021618474e-16
15 3.972427593165136e-09 1.3603832224789784e-10 8.688662811824151e-10
16 6.515272646936987e-10 3.3119116367848133e-09 -4.690091681599645e-09
33 -8.11237224898034e-09 -1.194833442784229e-09 5.764237989521272e-17
35 6.1921215796978685e-09 -2.799747879359742e-09 1.3788616846602053e-09
64 -2.4010839351478623e-09 -1.7452930963482561e-09 2.170116177855085e-09
65 3.3122720984285637e-09 -6.443749625723024e-10 3.84440144403369e-09
66 1.871191068181519e-09 -1.6990830400366863e-09 5.48985726872204e-10
83 -6.058159395233053e-09 1.6157904560036541e-09 6.004895909752597e-10
85 5.312917014731277e-09 4.1778540438136187e-10 3.6105756959392284e-10
71 8.179687747457396e-10 -3.9165267845695025e-09 -2.4009472326424896e-10
17 5.34119042699648e-10 -1.9496279008890795e-09 -4.752430257318071e-16
18 8.131076052048333e-09 -5.15005594085111e-09 -2.1094658174418273e-16
20 -6.690016741699141e-09 -1.366917769159869e-09 -1.4098086835729957e-09
37 -6.41394085846153e-09 -9.5218143490533e-09 -2.685889616393955e-16
39 6.352140150535291e-09 -6.352141077105887e-09 -8.319190176828318e-09
67 -8.523385867004216e-09 -3.2137222295863586e-09 1.869741366715715e-09
68 3.916529525648632e-09 -8.179687882365095e-10 -2.4009606790438605e-10
69 9.540409522030003e-09 -5.476050962118917e-10 3.9315665387612604e-10
70 7.469862029277408e-11 3.1162725163882586e-09 1.985168249048405e-09
87 -1.527869416368472e-09 5.0620898843568795e-09 -2.3765004296183267e-09
89 2.592729785241788e-09 -2.5927264186815152e-09 -1.6678606672248909e-09
22 1.9496291273226944e-09 -5.34118855055305e-10 3.605714827487775e-16
28 -6.824943723155177e-09 4.366926143861935e-09 -2.3319400951532735e-09
41 -6.199745522752046e-09 -9.033226147172497e-11 -1.861113010446496e-16
42 -1.360458378330893e-10 -3.972429982257818e-09 8.688678182103428e-10
43 -2.1394467242420146e-09 3.4504903476311303e-09 -1.8663253533093608e-15
72 3.213714479752347e-09 8.52338661144942e-09 1.8697380716374905e-09
74 -3.1162755530378888e-09 -7.469783537526061e-11 1.9851699961030894e-09
78 -1.5361084903863103e-10 3.5309014550140073e-09 6.517658463316178e-09
91 1.745297229429538e-09 2.401079020828368e-09 2.170110747207039e-09
92 6.443714884307406e-10 -3.3122749947247348e-09 3.844399428954616e-09
93 -9.238775937336839e-10 -8.286582165214544e-10 1.3984603329791325e-09
252 -3.311910822432893e-09 -6.515274734748586e-10 -4.690092258023444e-09
254 -1.5928931949004671e-09 -1.1921638248758194e-09 -1.0635625558081496e-09
301 -3.935416034251228e-09 5.713852099065259e-09 -1.4392425713932749e-09
302 1.69908076132303e-09 -1.871186185581023e-09 5.48988675218614e-10
304 -2.975110213366574e-09 -2.7373675273264873e-09 -6.2195874265132575e-09
26 5.017348745826101e-09 5.017348011046145e-09 -1.4765803354576533e-17
32 -2.824177020742163e-09 7.434980669723321e-10 -3.3582762008329715e-10
44 7.434952687545637e-10 -2.8241791924518675e-09 -3.358267670987255e-10
45 3.8637831325182155e-09 3.863781486644304e-09 -4.531672206655554e-16
76 1.964540413608218e-09 1.9645419310369565e-09 1.9961499833199517e-09
82 1.3913487037463438e-09 -8.354550457551452e-09 1.1737371301508645e-09
94 -8.35455326792408e-09 1.3913468276095215e-09 1.1737366076901446e-09
95 3.725085507623977e-09 3.7250848918309322e-09 -3.561143416476451e-09
30 4.832157163624176e-09 4.9666553659299866e-09 -3.483071466008599e-16
46 -3.760530320941462e-09 -1.641162526460227e-09 2.64343433074568e-09
80 2.9784001597454847e-09 -6.940361730170181e-09 -1.973838078223885e-09
253 4.966653155283396e-09 4.8321569794839276e-09 -1.1001109524682088e-15
256 -1.6411613417708673e-09 -3.760529669318827e-09 2.643435325996558e-09
303 -6.940362187954009e-09 2.9784011575085347e-09 -1.9738394249151082e-09
255 4.320858200670039e-09 4.320856899912631e-09 -1.5600235580151189e-15
34 -9.462751703356885e-10 2.0732528542265465e-09 8.592123809969565e-16
36 -6.32378262484106e-10 -2.8778670336589337e-09 4.1998652625677095e-09
47 -4.1539480934923025e-09 2.8637857291352392e-09 -6.457172981878617e-16
48 6.081002528298836e-09 -6.081003355845435e-09 -1.4137097481435976e-09
84 2.6932749318197696e-09 5.425954493219777e-09 -4.331027118247913e-09
86 -2.9030344447321146e-09 -3.932687903153726e-09 -8.281025442216772e-09
96 2.7447893574936404e-10 -2.577761371466969e-09 -4.229101112038482e-09
97 -5.153761023413366e-10 1.0042285154486316e-09 -1.956539735083439e-09
98 -7.152739591645094e-09 7.152734614158409e-09 2.3381872692757453e-09
257 -2.863781123913901e-09 4.1539485012704275e-09 4.088274142798911e-16
258 7.056964690553157e-10 -7.056956753107683e-10 -8.639021558509177e-09
307 -1.0042300585001373e-09 5.153798989841446e-10 -1.956540778385622e-09
308 7.431257821218464e-09 -7.4312539886134176e-09 9.30807364860552e-10
100 -4.177875003564095e-10 -5.312917235795936e-09 3.6106056975715306e-10
99 -5.425953383594345e-09 -2.6932753636020105e-09 -4.33102732810557e-09
90 8.09155670620757e-10 -8.091548409384167e-10 -1.6701417826286384e-09
88 -5.06208901604188e-09 1.5278663907567444e-09 -2.3764979050047305e-09
50 2.7997491002744053e-09 -6.192118792014262e-09 1.378861569068837e-09
24 1.366921818388543e-09 6.690018488140609e-09 -1.4098034785887346e-09
38 9.521811731077446e-09 6.413938861827605e-09 -8.9897583964236e-16
40 -1.119208306011863e-10 1.1191839544059204e-10 -1.7496527498959263e-09
49 -2.073252852615841e-09 9.462767534647746e-10 -1.4438189730135996e-15
259 1.194836664625335e-09 8.112367663918565e-09 -1.09397878439425e-15
260 2.877863002754781e-09 6.323815604401644e-10 4.199865402859497e-09
309 -1.6157916912764904e-09 6.058160296472281e-09 6.004923579615356e-10
310 3.932693519264535e-09 2.90304042593235e-09 -8.28102365441191e-09
101 -5.021688635858826e-09 -5.021690338148683e-09 -4.618933826662987e-09
102 5.021690097767695e-09 5.021688103586637e-09 -4.6189313149269435e-09
103 -5.027124540399597e-09 5.027124601721278e-09 -1.0034407743779755e-15
104 5.027122137816146e-09 -5.0271249892743e-09 4.377141571191792e-15
105 2.5634194052653822e-09 -2.2298677430210503e-09 -3.865577993584791e-09
108 -1.3276671737761827e-08 -2.926955570519868e-09 -1.394294876978868e-15
121 -2.2298668596822393e-09 2.563421500013996e-09 -3.865580878156653e-09
123 -2.9269582122578744e-09 -1.3276674321244236e-08 -1.2080371105698837e-15
125 -1.203729232450304e-09 -1.2037314345693485e-09 8.32617961341398e-10
151 -5.0216918981722415e-09 -5.021691029857242e-09 4.618931597006675e-09
152 5.021685903364733e-09 5.0216860799711725e-09 4.618932205317748e-09
153 2.5634184400621274e-09 -2.2298670415010225e-09 3.865580614780034e-09
161 -2.2298687937680497e-09 2.5634199031974296e-09 3.865576862199781e-09
163 -1.2037256685574318e-09 -1.203728422823099e-09 -8.326166605087835e-10
106 1.8636663133908788e-09 -3.992303436330377e-09 8.188096311228106e-10
109 -6.154004092856856e-10 -3.0154367610195846e-09 -1.7919833136843531e-09
112 -2.3423442454745574e-09 -5.914374666556116e-09 -2.9127798351304304e-16
127 -9.818159569879484e-09 -4.663947133958977e-09 7.347051872384973e-16
129 3.1696075593021847e-09 3.005056232779176e-09 3.0966112550842955e-09
154 1.8636668535372744e-09 -3.9923042212478914e-09 -8.188129841923135e-10
155 -6.154002418774972e-10 -3.0154346000435552e-09 1.7919824600865573e-09
165 3.16960762156923e-09 3.005057092766119e-09 -3.0966096753075e-09
110 5.114450991527558e-09 -4.8135893816406195e-09 8.900082348682157e-09
111 -9.187883105298582e-10 9.448951232610662e-10 -1.2810099106499935e-15
131 2.63509715706247e-09 -5.0632192469774944e-09 -3.728358048612762e-16
156 5.114451402996036e-09 -4.813589023522004e-09 -8.900077678116343e-09
113 -5.114449544335893e-09 4.813590679207384e-09 8.900082090517881e-09
114 6.153999696092347e-10 3.0154371363082708e-09 -1.7919813924760955e-09
115 2.3423448073983467e-09 5.9143780105002114e-09 -9.003708854225156e-16
116 9.187880124402801e-10 -9.448949760890325e-10 -1.7219127951676313e-15
133 7.2600169062068485e-12 2.5135654552478963e-09 -8.829577329877603e-10
135 5.773312823232694e-09 -5.009701265445553e-10 9.46149860266791e-16
157 -5.114450925779219e-09 4.8135912360082454e-09 -8.900077083602648e-09
158 6.154047484788527e-10 3.015438118695899e-09 1.7919826274317733e-09
167 7.258169653561069e-12 2.5135678258591873e-09 8.829588254135584e-10
117 -1.863671391439261e-09 3.99230488996082e-09 8.18808114637646e-10
118 -2.5634216778468702e-09 2.2298682823452325e-09 -3.865577336216373e-09
120 3.290491159350555e-09 2.3411296996189635e-09 2.219844842773086e-16
137 -3.391689569593001e-09 3.6078564664263384e-09 -8.45184473443424e-11
139 1.6768426990895413e-09 -1.676848625216768e-09 1.8887077667793107e-16
159 -1.863671282286669e-09 3.992303162835682e-09 -8.188056047412533e-10
160 -2.563418848464521e-09 2.2298659853883763e-09 3.86557462089235e-09
169 -3.391695596914081e-09 3.607856639265373e-09 8.451603557448949e-11
122 -3.9923058352345284e-09 1.8636673230523524e-09 8.188070654236885e-10
128 -4.66394370485059e-09 -9.818158694709586e-09 2.876484054792528e-16
141 -3.0154393340773083e-09 -6.15403295697198e-10 -1.7919825287668397e-09
142 -5.914377217538035e-09 -2.342343416405434e-09 5.463761753897292e-16
143 3.0050562559838403e-09 3.1696082252351873e-09 3.0966087501346395e-09
162 -3.992305761648511e-09 1.8636705800540167e-09 -8.188076810933631e-10
171 -3.0154331577576244e-09 -6.154037715534405e-10 1.7919833578359633e-09
172 3.005055736943758e-09 3.1696068522887455e-09 -3.096607993253797e-09
351 -4.813588734083671e-09 5.1144532377407235e-09 8.900084911928412e-09
352 9.449017067567105e-10 -9.187852248228835e-10 -5.2736645436045683e-17
354 -5.063220409636561e-09 2.6350994069549366e-09 -5.158854143544181e-15
401 -4.8135948270058696e-09 5.1144510344527344e-09 -8.900081148616865e-09
126 1.1102090757153281e-10 1.1101974245959877e-10 1.0389333551119803e-08
132 -6.423370451962981e-09 -6.027317467792513e-09 -1.084167315475916e-15
144 -6.02731577991325e-09 -6.423371325796922e-09 5.764237989521273e-16
145 9.623455164267915e-10 9.623425674671646e-10 -1.470015741124456e-09
164 1.1101900754854234e-10 1.1101745425540606e-10 -1.038933552350013e-08
173 9.623441790009346e-10 9.623442899931767e-10 1.4700178726660785e-09
146 -8.609069475351805e-09 -4.5922420627399025e-09 -7.05199328505262e-16
356 -4.592240356770745e-09 -8.60907201161652e-09 3.3726924406773404e-16
355 -1.76318500684174e-09 -1.7631842225374432e-09 3.1034684807695505e-10
403 -1.7631852898412966e-09 -1.7631833309968575e-09 -3.1034685804172816e-10
130 2.902145474145326e-10 -2.8142429694774363e-09 -6.719393195786544e-09
134 -7.662761405349694e-09 3.92421293987761e-10 6.906840148516732e-09
136 3.927319104823106e-09 -7.95640583865317e-09 2.273101678260254e-16
147 -2.175776749397057e-09 3.5641270897045466e-09 -2.6473460272692885e-09
148 1.292846986958094e-10 -1.2928521355606464e-10 7.57622413326796e-16
166 2.902190236572864e-10 -2.814245032090684e-09 6.719393535449444e-09
168 -7.662757711564408e-09 3.9242104937167143e-10 -6.906840244031094e-09
174 -2.1757784446278007e-09 3.564125330385526e-09 2.6473465141634336e-09
357 -3.564132746629595e-09 2.1757834644277065e-09 -2.647346064062297e-09
358 2.995260546478793e-09 -2.995258915935302e-09 -4.9057344591670403e-17
404 -3.5641279761094415e-09 2.175783724431633e-09 2.647346140101181e-09
175 -3.9242231816423416e-10 7.662756837052678e-09 -6.906840578516882e-09
170 -3.6078556667035164e-09 3.3916915064513673e-09 8.452221802634165e-11
124 -2.3411209466240854e-09 -3.2904916646412044e-09 1.5109662134234485e-15
138 -3.607859607234721e-09 3.391694474420715e-09 -8.45224712848831e-11
140 6.527640221008884e-09 -6.527640053600696e-09 9.075608749459024e-16
149 -3.924161663732224e-10 7.662756332988463e-09 6.906839099437943e-09
150 5.009686898770773e-10 -5.77331413054292e-09 -2.6147564667360325e-15
359 -2.5135681417507294e-09 -7.258349325776638e-12 -8.829637390631282e-10
360 7.956404943385398e-09 -3.9273170020887364e-09 3.6823669284122597e-16
405 -2.5135700460955248e-09 -7.252733486254507e-12 8.829648015378992e-10
176 1.8131040311202185e-09 -1.8130983858462895e-09 2.8770817669950257e-09
177 -1.8130978449890654e-09 1.8131018971257288e-09 2.87708201964035e-09
179 -9.540411008670853e-09 5.476083740594057e-10 -3.9315582772619646e-10
186 5.476090649510692e-10 -9.540409345730172e-09 -3.9315382878629436e-10
202 2.9118345761390327e-09 2.9118380322289596e-09 3.872960960830167e-09
203 4.81202435913919e-10 -4.812031496982829e-10 7.788042609236953e-09
204 -4.812024064795123e-10 4.812029583746389e-10 7.788039234091646e-09
208 -9.96365200655493e-10 4.061380443051562e-09 1.7508827141064866e-09
223 4.0613780895254554e-09 -9.963640809216027e-10 1.750876653684779e-09
225 6.063948832454934e-10 6.063946109772309e-10 -6.711107919096866e-09
178 -7.469573993677765e-11 -3.1162711869342202e-09 -1.9851636799699734e-09
181 -3.3122706089981286e-09 6.443666808109706e-10 -3.844397181515018e-09
188 3.5308968789653993e-09 -1.5361032213208926e-10 -6.517659647131224e-09
206 8.52338895067482e-09 3.213715207137892e-09 -1.8697409365576302e-09
209 2.4010796647060157e-09 1.7452994664444513e-09 -2.1701142449957084e-09
212 -3.972427688826958e-09 -1.3604453290772315e-10 -8.688717811239606e-10
227 4.366926892557607e-09 -6.824943259408477e-09 2.3319413480769917e-09
229 -8.286571915295608e-10 -9.238781412596409e-10 -1.3984539659490213e-09
180 -1.871189181758344e-09 1.6990820171910516e-09 -5.489919338527284e-10
190 -2.737366558843572e-09 -2.9751137047645992e-09 6.219587067514649e-09
210 5.713847590082075e-09 -3.935415298391059e-09 1.439241075297569e-09
211 -6.515277383845195e-10 -3.3119113816866216e-09 4.690091446124391e-09
231 -1.1921645049332588e-09 -1.5928922980708864e-09 1.0635605678534283e-09
182 3.312270924191025e-09 -6.443711066892378e-10 -3.8444029096218854e-09
183 1.871187781414886e-09 -1.699084906668648e-09 -5.489874498581286e-10
192 5.312919066746107e-09 4.177828279643073e-10 -3.6106204550707826e-10
214 -2.401076648323184e-09 -1.7452956222865457e-09 -2.1701144483512854e-09
215 3.972428181853271e-09 1.360435419493624e-10 -8.688662958996184e-10
216 6.515276318303141e-10 3.3119104802579146e-09 4.6900942080528915e-09
233 -6.058165052668317e-09 1.6157923299942177e-09 -6.004869782121218e-10
235 6.192122008949634e-09 -2.7997508989926055e-09 -1.3788617521140541e-09
221 8.179685858749629e-10 -3.9165231831471924e-09 2.4009390982436897e-10
184 9.540410638084593e-09 -5.476124744365183e-10 -3.9316047789613697e-10
185 7.469349380026426e-11 3.116274227876368e-09 -1.985164297479298e-09
194 2.592730997571416e-09 -2.592725677302395e-09 1.6678635156169613e-09
217 -8.523386830061211e-09 -3.213712534628634e-09 -1.8697399900862724e-09
218 3.91652334687608e-09 -8.179674833111433e-10 2.400946052122286e-10
220 -6.690018150258148e-09 -1.3669179595053002e-09 1.409806982509572e-09
237 -1.527868703810542e-09 5.062085860485678e-09 2.3764978899809187e-09
239 6.3521407039634605e-09 -6.352140830631057e-09 8.3191923543612e-09
187 -3.1162761760661654e-09 -7.469775427733785e-11 -1.9851695177939796e-09
189 -1.5361196248704905e-10 3.53089768499615e-09 -6.517659117311903e-09
196 6.443684321581725e-10 -3.312271599036664e-09 -3.844401218934478e-09
222 3.2137140738028204e-09 8.523385004821384e-09 -1.8697383782458945e-09
228 -6.824943414093906e-09 4.366927755089097e-09 2.3319416631486502e-09
241 1.7453003298537162e-09 2.401081917664566e-09 -2.1701103694654857e-09
242 -1.3604609047841393e-10 -3.972427352784147e-09 -8.688696262800994e-10
243 -9.238778541975229e-10 -8.286591532101276e-10 -1.3984574744689848e-09
426 1.6990860864977855e-09 -1.871186568228311e-09 -5.489900463713953e-10
427 -2.975110105678307e-09 -2.7373671424759663e-09 6.219589017358693e-09
451 -3.935418398815237e-09 5.713847273662202e-09 1.439240874775673e-09
452 -3.3119151615550224e-09 -6.515286876441373e-10 4.690089917988107e-09
454 -1.5928944795896787e-09 -1.1921657638673644e-09 1.0635680555520765e-09
191 1.391346702513293e-09 -8.354549477017777e-09 -1.1737363869320938e-09
197 -8.354550487318289e-09 1.3913485452567283e-09 -1.1737360018050188e-09
226 1.964542007545597e-09 1.9645405054089883e-09 -1.9961516642071853e-09
232 -2.8241768444368595e-09 7.434948572937586e-10 3.3582751338358756e-10
244 7.434934609990882e-10 -2.824177265724666e-09 3.358290855181626e-10
245 3.7250851997535963e-09 3.7250835180065023e-09 3.561141741179212e-09
230 2.9783999848736066e-09 -6.9403640755214235e-09 1.973841183468591e-09
246 -3.760528907703552e-09 -1.6411593132041562e-09 -2.6434349657316838e-09
453 -6.9403616859005046e-09 2.9784008524926875e-09 1.9738350249801385e-09
456 -1.6411582497685205e-09 -3.760529367539506e-09 -2.6434342718768662e-09
193 -2.9030352683190873e-09 -3.932688827619393e-09 8.281019933718932e-09
198 2.7447842156707104e-10 -2.5777588695423947e-09 4.229098396714459e-09
199 -7.152737688287063e-09 7.152734588476102e-09 -2.3381862847603998e-09
234 2.6932775827316507e-09 5.425958249810322e-09 4.331028972762514e-09
236 -6.323790338065747e-10 -2.877867794300235e-09 -4.199865838609347e-09
247 -5.153749426626673e-10 1.0042346665211001e-09 1.956543262110843e-09
248 6.081002544294423e-09 -6.08100208342056e-09 1.4137058542168708e-09
429 7.43125647843889e-09 -7.431254485009822e-09 -9.308050941136942e-10
457 -1.00423146513512e-09 5.153722475534613e-10 1.9565424331379202e-09
458 7.0569587713575e-10 -7.057018470313264e-10 8.639021862971322e-09
250 2.799749885191919e-09 -6.1921170234969895e-09 -1.3788570637649532e-09
249 -5.425959270398071e-09 -2.693277773918515e-09 4.331025417383156e-09
240 -1.1192121409164723e-10 1.1192100069219825e-10 1.7496542029131514e-09
238 -5.06208965562701e-09 1.5278653455286963e-09 2.3764942404210897e-09
200 -4.177884658662728e-10 -5.31291886572621e-09 -3.6105955702959566e-10
224 1.3669219017860288e-09 6.690017305245387e-09 1.409803782744271e-09
195 8.0915555288313e-10 -8.091519490079529e-10 1.6701452833995536e-09
430 3.932693646003024e-09 2.9030405234338225e-09 8.281020408961957e-09
459 -1.6157896784447423e-09 6.0581624058284544e-09 -6.004903780434485e-10
460 2.877862740911204e-09 6.323760581208522e-10 -4.1998645578467364e-09
251 -2.1615738616872134e-09 4.7918999522203715e-09 -1.0430051372794675e-15
261 2.16157502434628e-09 -4.791901317240985e-09 -8.168047874513122e-16
262 6.199747087681339e-09 9.033052944085249e-11 4.586861719321183e-16
263 3.311911300742003e-09 6.515297350184442e-10 -4.690090072518742e-09
264 1.360474469139919e-10 3.972428206381943e-09 8.688689891478365e-10
265 -1.1948349856377164e-09 -8.112371009166161e-09 -1.3012460680262995e-15
268 -2.7997502880753615e-09 6.192116417638784e-09 1.3788624990121256e-09
312 -1.7452974698105265e-09 -2.4010826253167615e-09 2.170113466516971e-09
313 -1.6990856498874185e-09 1.87118916336184e-09 5.489845249672615e-10
314 -6.443675638431733e-10 3.3122765694654964e-09 3.844398525073043e-09
315 1.6157908729910832e-09 -6.058160640765916e-09 6.004866481340276e-10
318 4.177839486046611e-10 5.31292011423563e-09 3.610606724709683e-10
266 2.0732553527007647e-09 -9.46276229777621e-10 -3.1662683328877022e-15
267 -2.877868309735563e-09 -6.32379373632961e-10 4.199866332631048e-09
269 2.863783224144581e-09 -4.153946312404085e-09 -1.6900255211830454e-15
272 -6.081000153627267e-09 6.081004280576381e-09 -1.4137072180110503e-09
306 -2.5777595778078074e-09 2.7448129326138003e-10 -4.229101281286322e-09
316 5.425955245071752e-09 2.693276717663708e-09 -4.331029164448567e-09
317 -3.932687386211958e-09 -2.9030395114359653e-09 -8.281022747435513e-09
319 1.0042316568530095e-09 -5.153761298504064e-10 -1.9565383060926052e-09
322 7.152737113630156e-09 -7.152736155858262e-09 2.338186904722592e-09
270 4.153947750961311e-09 -2.8637847737434536e-09 3.855811628847219e-16
271 -7.056952001563715e-10 7.056981558494063e-10 -8.639020556512914e-09
320 5.153725338877623e-10 -1.004228802328771e-09 -1.956542554458647e-09
321 -7.431255844207477e-09 7.431252477647204e-09 9.308059372918243e-10
273 -4.320859558820708e-09 -4.320857525393774e-09 8.413334597471475e-16
274 -3.863779143749971e-09 -3.863783691091528e-09 -9.717580387342092e-16
275 1.6411662219250645e-09 3.760525051529227e-09 2.6434358524035388e-09
276 3.760525287578129e-09 1.6411615361150832e-09 2.6434344098506482e-09
305 1.7915038175209864e-09 1.7915055589225782e-09 -6.011353403491031e-09
323 -1.7915038958785967e-09 -1.7915049211770986e-09 -6.011353132449202e-09
324 -3.7250829624320744e-09 -3.725082428933452e-09 -3.561139111782194e-09
325 2.5777573279184193e-09 -2.7448374282736685e-10 -4.229101393025246e-09
326 -2.7447725553531173e-10 2.5777594974764054e-09 -4.2290982581274615e-09
311 3.935420061859218e-09 -5.7138513331574675e-09 -1.43924137086807e-09
277 -4.96665811191485e-09 -4.83215479121975e-09 1.3404919409673938e-15
278 2.1394467892429962e-09 -3.4504907983454837e-09 -7.751060445483924e-16
279 1.592890921705762e-09 1.1921662599597615e-09 -1.0635645099176747e-09
280 -7.434940877402568e-10 2.82417545673271e-09 -3.358278847073349e-10
327 6.940358358049543e-09 -2.978404395046184e-09 -1.9738415180263032e-09
328 9.238771861744633e-10 8.286627551690022e-10 1.3984559438798336e-09
329 2.9751096124141032e-09 2.7373601261062306e-09 -6.219585861890573e-09
330 8.35454951871652e-09 -1.3913422432006694e-09 1.1737335793189411e-09
281 -1.9496278886247435e-09 5.341196638882739e-10 -1.2813165190536914e-15
282 -5.150058825422971e-09 8.131078585860182e-09 1.9598409164372325e-15
283 -1.366920152891694e-09 -6.690017410718678e-09 -1.4098063349526235e-09
285 -9.521811962413486e-09 -6.4139367167952125e-09 8.462391942063145e-16
288 -6.352141648623952e-09 6.35214135703936e-09 -8.319189243512336e-09
331 -3.21371474220914e-09 -8.523389162431337e-09 1.869741849053024e-09
332 -8.179641118451362e-10 3.916528654880765e-09 -2.400921511185654e-10
333 3.116274292264133e-09 7.469778754434964e-11 1.9851672872944947e-09
334 -5.476023465477274e-10 9.54041043327018e-09 3.9315854503676006e-10
335 5.0620904313462715e-09 -1.5278672284109032e-09 -2.3764979255474934e-09
338 -2.5927322736755923e-09 2.592730017037741e-09 -1.6678644556783271e-09
55 -3.916527592789254e-09 8.179651966256685e-10 -2.4009423850857776e-10
341 2.903033795229688e-09 3.93268818990539e-09 -8.281024935383446e-09
340 6.0581650260975955e-09 -1.6157892547849828e-09 6.004901912724079e-10
286 6.413939852082473e-09 9.52181630814994e-09 -6.536398804346106e-16
287 1.1192096890111572e-10 -1.119205110303963e-10 -1.7496508295598001e-09
289 9.462764486887317e-10 -2.0732536797836285e-09 -1.5793398880328982e-15
292 -6.19211766676142e-09 2.7997503730058893e-09 1.378857615046863e-09
336 1.5278632742336601e-09 -5.062088898509176e-09 -2.3765008462695706e-09
337 -8.091571459795081e-10 8.091535528841574e-10 -1.67014010577671e-09
339 -2.6932735373293425e-09 -5.425960211750171e-09 -4.3310299080363455e-09
342 -5.312913632840584e-09 -4.1778184649744535e-10 3.610625124279989e-10
290 8.112364628495368e-09 1.1948387029580028e-09 -7.8737038069631e-16
291 6.323747870084885e-10 2.877862675704089e-09 4.1998667875737935e-09
7 6.690016763924236e-09 1.3669196231172637e-09 -1.409804148813956e-09
346 2.7373677870238053e-09 2.9751151313653695e-09 -6.219591394332609e-09
345 -1.3913486248482764e-09 8.354547350588946e-09 1.1737341149937691e-09
344 8.286603863603666e-10 9.23878841099292e-10 1.398456846090669e-09
343 -2.978399113970703e-09 6.9403643563164835e-09 -1.9738385250235534e-09
296 1.1921704635597786e-09 1.5928974570638869e-09 -1.0635601971638682e-09
295 2.8241759292310905e-09 -7.434935709965981e-10 -3.3582616607279586e-10
294 -3.4504911310156016e-09 2.139448444928376e-09 5.3963079050837443e-17
293 -4.832154332284477e-09 -4.966655849959503e-09 -6.616475898360453e-16
63 -5.713851465999019e-09 3.935416681500552e-09 -1.4392430830344084e-09
350 -3.5309039308768675e-09 1.5361567459499262e-10 6.517659022876515e-09
349 1.5361176196515302e-10 -3.530904746455221e-09 6.51766283647184e-09
348 -6.063975157852476e-10 -6.063895913377498e-10 6.711096862036098e-09
347 -1.9645436834917533e-09 -1.9645445919724534e-09 1.996149164117186e-09
300 -4.366926324147677e-09 6.82494457920584e-09 -2.33193633372644e-09
299 6.824941979166577e-09 -4.366926289194319e-09 -2.331938855842106e-09
298 4.912669720500637e-10 4.912700185111629e-10 -4.586861719321183e-16
297 -5.017347693702209e-09 -5.017348034804057e-09 -1.0344967540768497e-15
284 -4.061379691247756e-09 9.963654416496983e-10 -1.7508792003741801e-09
51 -2.91183735456091e-09 -2.911828333775255e-09 -3.872963129513924e-09
19 9.963651672351769e-10 -4.061381805619308e-09 -1.7508748844009855e-09
361 4.813590784680675e-09 -5.1144558144777486e-09 8.900081168239803e-09
362 3.015439029921772e-09 6.154059546052749e-10 -1.7919831787766554e-09
363 -9.448959474244554e-10 9.187828614853078e-10 3.004762356239812e-17
364 5.914371992930836e-09 2.3423467621163353e-09 -1.2006785088811332e-15
365 2.513568767231873e-09 7.253948630868443e-12 -8.829574907671214e-10
368 -5.009696973922919e-10 5.7733149614516945e-09 8.162880641004916e-16
406 4.813591942434007e-09 -5.114457367142705e-09 -8.900081350978411e-09
407 3.015439564646828e-09 6.154024396465349e-10 1.7919838079371e-09
408 2.5135688569449978e-09 7.2612871018085456e-12 8.829584652668689e-10
353 -2.814246730949333e-09 2.9022100377793984e-10 -6.719395249909544e-09
366 3.9241972425713886e-10 -7.662756179071044e-09 6.906840301036277e-09
367 -7.956409012692132e-09 3.927319694110521e-09 -5.817894460168412e-16
369 3.564127734195411e-09 -2.1757769220175887e-09 -2.6473465803908487e-09
372 -1.2928152724140796e-10 1.292816983288972e-10 -3.642155897803351e-16
402 -2.8142440573240524e-09 2.9021561728150363e-10 6.719393736030551e-09
409 3.9241740169848084e-10 -7.662756874458903e-09 -6.906840245233547e-09
410 3.5641298534726975e-09 -2.175780146311562e-09 2.6473455967910895e-09
370 2.1757772727776023e-09 -3.5641275870233773e-09 -2.6473459898630632e-09
371 -2.995260686905442e-09 2.9952601055759086e-09 2.091069313219951e-16
411 2.1757765090160687e-09 -3.5641270424868526e-09 2.647346166776112e-09
373 1.7631864525003634e-09 1.7631840621812482e-09 3.103453788094845e-10
374 -9.623495204259354e-10 -9.6234140634114e-10 -1.4700166454659427e-09
375 4.592243000844806e-09 8.609066593514847e-09 -3.479660391375784e-16
376 8.609071870377146e-09 4.592244654194131e-09 -1.8184599432728987e-15
412 1.7631841510976852e-09 1.7631802847657146e-09 -3.103461085374853e-10
413 -9.623427063760515e-10 -9.623411708658859e-10 1.4700167803736404e-09
377 2.8142453518247328e-09 -2.9022197695301315e-10 -6.719392934249575e-09
378 -3.0050528860988205e-09 -3.169602525124344e-09 3.0966121990012704e-09
379 5.063215614281127e-09 -2.6350965027601365e-09 -1.0056755641292433e-16
380 6.027319641649651e-09 6.423368986543839e-09 3.717933503241221e-15
414 2.8142449213465342e-09 -2.9022069195719327e-10 6.719393156540668e-09
415 -3.005060495352879e-09 -3.1696046223258253e-09 -3.0966116964700967e-09
381 3.992301287618685e-09 -1.863672837404493e-09 8.188082808194007e-10
382 2.2298678579992017e-09 -2.5634149625096127e-09 -3.865581692508573e-09
383 2.341127191624052e-09 3.2904916548297355e-09 1.1448757688815439e-15
385 3.60785841268838e-09 -3.3916963622086567e-09 -8.451860158022003e-11
388 -1.6768433809866312e-09 1.676842565646131e-09 7.134037305918436e-16
416 3.9923083175361646e-09 -1.8636652408746826e-09 -8.18811441338826e-10
417 2.2298639518081387e-09 -2.563420654694627e-09 3.86557578109855e-09
418 3.607859356429047e-09 -3.3916955343659667e-09 8.45163277722982e-11
421 -7.259523327258442e-12 -2.5135670420996893e-09 8.829625350885791e-10
386 3.39169134380709e-09 -3.6078591170261697e-09 -8.451941484850767e-11
387 -6.527643926345627e-09 6.527642640362195e-09 9.406745952841555e-16
389 7.662759398392444e-09 -3.924214408075198e-10 6.906837932359493e-09
392 -5.773312736701117e-09 5.009703872612002e-10 -2.3915455488439324e-16
419 3.3916902483916027e-09 -3.6078609531505977e-09 8.45145520228761e-11
420 7.662760963876575e-09 -3.924217961103449e-10 -6.9068417493018664e-09
390 -7.260667285308595e-12 -2.5135658148995535e-09 -8.829611050669842e-10
391 -3.9273196140996644e-09 7.956404701671363e-09 3.5337751816084283e-15
107 -3.2904926884720507e-09 -2.3411224142047043e-09 8.683150225459942e-16
423 -3.1696053015138174e-09 -3.0050533314475266e-09 -3.09660800613135e-09
422 -2.9021568536493266e-10 2.8142443777772177e-09 6.7193920170833084e-09
396 -2.635097295726121e-09 5.0632193831116255e-09 -6.549155502987999e-16
395 6.42336867174096e-09 6.027317588778399e-09 -6.246472314708464e-16
394 -3.169604004509892e-09 -3.0050536618180816e-09 3.096609250961469e-09
393 -2.902145314747827e-10 2.8142382093462813e-09 -6.719392534890976e-09
425 1.2037331975101807e-09 1.2037342467241382e-09 -8.326153441320641e-10
424 -1.1101805197416497e-10 -1.1102155873113017e-10 -1.038933083579578e-08
400 9.818156632627568e-09 4.663942623136142e-09 -4.943753901225585e-15
399 4.663946976975475e-09 9.818156567626585e-09 -1.6532325127392927e-15
398 1.2037289798049795e-09 1.2037276718135293e-09 8.326196771220251e-10
397 -1.1101747968957947e-10 -1.1101682569385439e-10 1.0389334349834696e-08
384 2.9269551455606206e-09 1.3276674766746247e-08 6.282406191770791e-15
119 1.3276680636150919e-08 2.926956554119627e-09 1.4030400553217736e-15
431 -1.6990850979922919e-09 1.8711889751042803e-09 -5.489859197288899e-10
432 -6.443658676854839e-10 3.312274997177602e-09 -3.84439518917361e-09
434 4.1778531736737905e-10 5.312917337078719e-09 -3.6106156923885875e-10
462 -1.7452971901836623e-09 -2.4010784652539406e-09 -2.170114164970915e-09
463 3.3119145360738786e-09 6.515289133079224e-10 4.69009498806467e-09
464 1.3604437347135322e-10 3.972429364135276e-09 -8.688658592892516e-10
465 1.6157910888433994e-09 -6.05815942795841e-09 -6.004908541404265e-10
468 -2.7997471937833513e-09 6.192115242408772e-09 -1.3788622552584447e-09
428 -2.5777598163491453e-09 2.7447854114434847e-10 4.229101800680958e-09
433 -3.9326912323491035e-09 -2.9030355968499918e-09 8.281025641540975e-09
436 7.152738598300805e-09 -7.1527350882478e-09 -2.3381859729396533e-09
466 5.425957334608023e-09 2.6932751380172124e-09 4.331028752060259e-09
467 -2.877866234825471e-09 -6.323732414649092e-10 -4.199864225004886e-09
469 1.0042276660380269e-09 -5.153769215133048e-10 1.9565424919105325e-09
472 -6.081006268318662e-09 6.081002401680083e-09 1.4137115844213274e-09
435 -7.431251090550786e-09 7.4312578580114725e-09 -9.308085042173801e-10
470 5.153791689529039e-10 -1.0042289173069223e-09 1.9565368196550643e-09
471 -7.056969665154084e-10 7.05696491578991e-10 8.639022972587135e-09
437 2.5777604773999423e-09 -2.744842971753607e-10 4.2290973531529195e-09
438 -2.744848603435487e-10 2.5777585261409827e-09 4.229104045054473e-09
455 1.7915047298534547e-09 1.791503420022354e-09 6.011355522768317e-09
473 -1.7915057085474792e-09 -1.7915021788715359e-09 6.011351080625764e-09
474 -3.725086062458564e-09 -3.7250836105782293e-09 3.5611479284025032e-09
475 1.6411653567234861e-09 3.760531826332711e-09 -2.6434346836123226e-09
476 3.760529969795062e-09 1.6411619040451675e-09 -2.6434394152328386e-09
461 3.935416269726481e-09 -5.713851535519014e-09 1.4392405234024424e-09
439 2.9751081554109688e-09 2.737360805550453e-09 6.219587661068686e-09
440 8.354553780573332e-09 -1.391343372132812e-09 -1.1737375572352615e-09
477 6.94036275289775e-09 -2.9783995760819033e-09 1.9738401753881036e-09
478 9.238769847327421e-10 8.28659562838955e-10 -1.3984580576381688e-09
479 1.5928952117705467e-09 1.1921663310929112e-09 1.0635623906403882e-09
480 -7.434960573926421e-10 2.8241739604836997e-09 3.3582836240322784e-10
441 3.116272123929502e-09 7.46938286166411e-11 -1.9851680331960888e-09
442 -5.476095579773823e-10 9.540411599608547e-09 -3.931601835520694e-10
444 -2.5927294001416326e-09 2.5927304153939186e-09 1.667868792347589e-09
481 -3.2137124610426168e-09 -8.523388279399136e-09 -1.8697388074976596e-09
482 -8.179631582930007e-10 3.916524602744102e-09 2.400950062560206e-10
483 -1.3669228363284434e-09 -6.6900169839197804e-09 1.4098027825876582e-09
485 5.062090502479421e-09 -1.527862490391241e-09 2.376497701110142e-09
488 -6.352141138427569e-09 6.352141127696274e-09 8.31918563565125e-09
205 -3.916523810467986e-09 8.179586440974731e-10 2.400916372428808e-10
491 6.323760090988593e-10 2.8778659968044914e-09 -4.19986453961046e-09
490 6.058159703712546e-09 -1.6157904768530256e-09 -6.004882170674192e-10
443 -8.09158019879514e-10 8.091541073116899e-10 1.670145318354981e-09
446 -5.312910639696933e-09 -4.177838151873694e-10 -3.61056648594125e-10
486 1.527860211732421e-09 -5.062089266916299e-09 2.376496827703856e-09
487 1.119206050728383e-10 -1.119219198724505e-10 1.7496531847392953e-09
489 -2.6932742658110473e-09 -5.425958181093399e-09 4.331024143038817e-09
492 -6.192115938971565e-09 2.7997498782165778e-09 -1.3788566204092015e-09
445 2.903034030704942e-09 3.932687861221182e-09 8.281025153995245e-09
207 6.690017877814405e-09 1.366920733346277e-09 1.4098082481793852e-09
496 1.1921671717281183e-09 1.5928916736628722e-09 1.0635617111961656e-09
495 2.8241748606280252e-09 -7.434938085657822e-10 3.3582655412835835e-10
494 8.286607938522241e-10 9.238768388279542e-10 -1.398453703195416e-09
493 -2.9783994821007055e-09 6.940358913164152e-09 1.973840444026016e-09
448 2.7373667598585265e-09 2.975112571985456e-09 6.2195860646089e-09
447 -1.391348124645036e-09 8.354549097715585e-09 -1.1737379630622608e-09
213 -5.713851336726581e-09 3.935417605312688e-09 1.4392416921936772e-09
500 -4.3669267442011894e-09 6.824942549458207e-09 2.3319408941747737e-09
499 6.8249433454136235e-09 -4.366926919581197e-09 2.3319415889494165e-09
498 -6.063912861157013e-10 -6.063910494140136e-10 -6.711101774209334e-09
497 -1.964542645928915e-09 -1.9645402341472118e-09 -1.9961529525706222e-09
450 -3.5308974970061243e-09 1.536105067103483e-10 -6.517661547581734e-09
449 1.5360371656064e-10 -3.530900566769462e-09 -6.517660097845578e-09
484 -4.061380798717311e-09 9.963655103299808e-10 1.7508744461042725e-09
201 -2.911839373947334e-09 -2.911838501953034e-09 3.87296668214298e-09
219 9.963654744567975e-10 -4.061381354291738e-09 1.7508752874377321e-09
