LAMMPS data file via write_data, version 29 Aug 2024, timestep = 27, units = metal

500 atoms
3 atom types

0 17.650362089405025 xlo xhi
0 17.650362089405025 ylo yhi
0 17.650362089405025 zlo zhi

Masses

1 55.1551
2 58.71
3 58.71

Atoms # atomic

1 2 0.005029671706249906 0.0050296717062514994 0 0 0 0
2 3 1.7600065372342515 1.7600065372342513 3.1886202459931886e-16 0 0 0
3 1 1.7595173703245721 0.005518838615929865 1.7537347344624088 0 0 0
4 1 0.005518838615930857 1.7595173703245717 1.7537347344624088 0 0 0
5 1 3.5242342271255978 0.005459526550540552 7.232449651430596e-20 0 0 0
8 1 3.5237378759901072 1.7644047278177664 1.7589266025296062 0 0 0
11 1 0.0054595265505405985 3.524234227125597 3.280596653996308e-16 0 0 0
13 1 1.7644047278177666 3.5237378759901077 1.7589266025296064 0 0 0
15 1 3.5230089499290984 3.5230089499290975 3.6690808804801925e-20 0 0 0
51 1 0.0006353473961118866 0.0006353473961125718 3.5286300284551797 0 0 0
52 1 1.7644008615443905 1.7644008615443905 3.5286300284551806 0 0 0
53 1 1.764817549399249 0.00021865954125318524 5.2951043773054 0 0 0
54 1 0.00021865954125331743 1.7648175493992495 5.2951043773054 0 0 0
55 1 3.527731868931861 0.0005910693841961119 3.527465841787326 0 0 0
58 1 3.529430533995419 1.7647578741335483 5.294607625763878 0 0 0
61 1 0.00059106938419615 3.527731868931861 3.527465841787327 0 0 0
63 1 1.7647578741335483 3.5294305339954186 5.294607625763878 0 0 0
65 1 3.5291131649955902 3.52911316499559 3.52888248115627 0 0 0
6 1 5.294577592058265 1.7648552749920492 4.351660985343284e-19 0 0 0
7 1 5.294377299452641 0.0005759862475436525 1.7642464217378775 0 0 0
9 1 7.060318846962866 0.00022053869871952307 0 0 0 0
10 1 7.060173203136696 1.7650147249744552 1.7647876313634845 0 0 0
17 1 5.293877756017654 3.5291107190000863 1.7642199640507972 0 0 0
19 1 7.0601054732272 3.529757177642457 3.9273219818854375e-16 0 0 0
56 1 5.292894444295665 1.7647636373408417 3.5279144062021435 0 0 0
57 1 5.293989807385493 0.00027217315449950006 5.293909070632744 0 0 0
59 1 7.0596281554231535 0.0002685457667166264 3.5295632779161683 0 0 0
60 1 7.059210461739974 1.7649178086209911 5.294190839833649 0 0 0
67 1 5.294457468974175 3.5295859944567125 5.294383183463757 0 0 0
69 1 7.059454724511695 3.5296408550054523 3.529524246416447 0 0 0
301 1 8.825125347142272 1.765018995863979 3.52991777543919 0 0 0
302 1 8.824955148148774 0.00011667813159484304 5.294796749175481 0 0 0
312 1 8.824955686278035 3.52982243750989 5.2947691377042725 0 0 0
12 1 1.7648552749920496 5.294577592058265 2.0274473821488281e-16 0 0 0
14 1 0.0005759862475439797 5.29437729945264 1.7642464217378773 0 0 0
18 1 3.5291107190000868 5.293877756017654 1.7642199640507965 0 0 0
21 1 0.00022053869872063012 7.060318846962866 6.217869667741731e-16 0 0 0
23 1 1.7650147249744548 7.060173203136694 1.7647876313634843 0 0 0
25 1 3.5297571776424572 7.060105473227199 1.3191086884931707e-16 0 0 0
62 1 1.764763637340842 5.292894444295665 3.527914406202143 0 0 0
64 1 0.0002721731544996025 5.2939898073854925 5.293909070632744 0 0 0
68 1 3.5295859944567134 5.294457468974174 5.294383183463757 0 0 0
71 1 0.00026854576671680064 7.0596281554231535 3.5295632779161683 0 0 0
73 1 1.7649178086209905 7.059210461739974 5.294190839833648 0 0 0
75 1 3.5296408550054523 7.059454724511694 3.529524246416448 0 0 0
72 1 1.7650189958639786 8.825125347142272 3.529917775439191 0 0 0
74 1 0.00011667813159438397 8.824955148148774 5.294796749175481 0 0 0
78 1 3.5298224375098903 8.824955686278033 5.294769137704273 0 0 0
16 1 5.2927220010831535 5.2927220010831535 0 0 0 0
20 1 7.059463005444934 5.294512716459536 1.764666320440124 0 0 0
27 1 5.294512716459536 7.059463005444934 1.7646663204401245 0 0 0
29 1 7.059210976486055 7.059210976486054 7.929076208469827e-16 0 0 0
66 1 5.294515453800797 5.2945154538007975 3.5295212856156177 0 0 0
70 1 7.059795445062571 5.294758610794785 5.294742882948046 0 0 0
77 1 5.294758610794786 7.059795445062571 5.2947428829480465 0 0 0
79 1 7.059806716427533 7.059806716427532 3.529746996692957 0 0 0
26 1 5.294898247570474 8.82512378529122 1.8283110412477562e-16 0 0 0
30 1 7.059823295672785 8.824958989897784 1.7648317726373415 0 0 0
76 1 5.2948097548549695 8.824950654994293 3.5297935772046185 0 0 0
80 1 7.059930257669532 8.82507339766685 5.294875737455931 0 0 0
261 1 8.825123785291222 5.294898247570474 1.2092850872339471e-17 0 0 0
272 1 8.824958989897784 7.0598232956727855 1.7648317726373413 0 0 0
311 1 8.824950654994293 5.2948097548549695 3.5297935772046194 0 0 0
322 1 8.82507339766685 7.0599302576695315 5.294875737455931 0 0 0
271 1 8.82493246629596 8.82493246629596 5.147966478070017e-17 0 0 0
321 1 8.825079494210664 8.825079494210664 3.5298288068438626 0 0 0
22 1 1.7650539227614945 8.825338337641169 3.792583524857632e-17 0 0 0
24 1 2.7767298011026948e-05 8.82518516196172 1.7650191135929623 0 0 0
28 1 3.5300091345874725 8.825185346535068 1.7649919783882182 0 0 0
32 1 1.7648156702417819 12.355079451382661 0 0 0 0
33 1 1.7650084416424912 10.590213136383806 1.7650191135929623 0 0 0
34 1 2.1483966048501544e-05 12.355225095208832 1.7647876313634843 0 0 0
35 1 3.5299763805137925 10.590274445290119 6.560780357690567e-17 0 0 0
38 1 3.5296577540254233 12.355701215677469 1.7647434930985253 0 0 0
81 1 1.7213076524772073e-05 10.590272951203255 3.5299177754391904 0 0 0
82 1 1.764767663173786 12.355770142922374 3.529563277916168 0 0 0
83 1 1.7649195308089074 10.590443150196753 5.294796749175481 0 0 0
84 1 0.00011840031951229363 12.356187836605555 5.294190839833649 0 0 0
85 1 3.5298932842442916 10.590445021346468 3.5298748127931496 0 0 0
88 1 3.5297449048799723 12.355728477401323 5.294652365523667 0 0 0
36 1 5.294317046336959 12.35599196309107 6.4831929764943e-19 0 0 0
37 1 5.29486469899488 10.590436346987222 1.7649107982165158 0 0 0
39 1 7.0597961736756565 10.59046565671633 3.8327390686810097e-19 0 0 0
40 1 7.059712591026766 12.35568570731876 1.7648166187706293 0 0 0
86 1 5.294706020571876 12.355724638120174 3.5297081759275546 0 0 0
87 1 5.29483505779314 10.59032837512183 5.294843473206096 0 0 0
89 1 7.059904773821845 10.590320197408637 3.5298222334350813 0 0 0
90 1 7.059894091927675 12.355504206417853 5.294843323510491 0 0 0
281 1 8.824932641629198 12.355602124669872 0 0 0 0
282 1 8.825065404465127 10.590332893880401 1.764846122058079 0 0 0
331 1 8.82507810093689 12.355493524523684 3.529822233435081 0 0 0
332 1 8.825105870112811 10.590292428232717 5.294902554438395 0 0 0
41 1 0.00018093394845333877 14.120820706287262 6.257409310863216e-19 0 0 0
42 1 1.7595766823899617 15.891164071219931 3.3967506176793726e-16 0 0 0
43 1 1.7644602226929595 14.121020998892886 1.7642464217378768 0 0 0
44 1 0.000631481122736451 15.89166042235542 1.7589266025296064 0 0 0
45 1 3.5281649195945555 14.121952800809865 6.998797821105963e-17 0 0 0
48 1 3.528675819468404 15.886722478877124 1.7638145516926742 0 0 0
91 1 0.00027257159966127115 14.122503854049864 3.527914406202143 0 0 0
92 1 1.7644451395563063 15.887666429413667 3.527465841787326 0 0 0
93 1 1.7647640357860024 14.121408490960036 5.293909070632744 0 0 0
94 1 0.0002783348069544973 15.885967764350108 5.294607625763878 0 0 0
95 1 3.5294414921720807 14.121127622803026 3.529294520699461 0 0 0
98 1 3.5293929506075297 15.886005347737996 5.294137619717967 0 0 0
100 1 7.0596698209442055 15.885653393465555 5.294652365523667 0 0 0
46 1 5.293445497535663 15.887233378750972 0 0 0 0
47 1 5.294247068466768 14.12115122987876 1.764502432233873 0 0 0
49 1 7.059406335254456 14.121081252008569 1.9937201575664063e-16 0 0 0
50 1 7.059697082668058 15.885740544320104 1.7647434930985244 0 0 0
96 1 5.294270675542503 15.885956806173448 3.5292945206994615 0 0 0
97 1 5.294653231265242 14.120745067080286 5.2946231832812245 0 0 0
99 1 7.059673660225353 14.12069227777365 3.5297081759275546 0 0 0
342 1 8.825069923223698 14.120563240552388 5.294843473206096 0 0 0
341 1 8.824953276999059 15.885505014101236 3.5298748127931496 0 0 0
291 1 8.825123853055407 15.885421917831735 2.2924138704923867e-17 0 0 0
292 1 8.824961951358306 14.120533599350647 1.7649107982165164 0 0 0
101 1 3.4728093924151514e-05 3.472809392373926e-05 7.06028433676306 0 0 0
102 1 1.765001480846579 1.7650014808465788 7.06028433676306 0 0 0
105 1 3.529915674721493 3.3754557613146604e-05 7.060072024153492 0 0 0
108 1 3.5300303237782935 1.765014175792516 8.825181044702513 0 0 0
111 1 3.3754557612508755e-05 3.5299156747214933 7.0600720241534916 0 0 0
113 1 1.7650141757925155 3.530030323778293 8.825181044702513 0 0 0
115 1 3.5298643324014307 3.5298643324014307 7.059894490521578 0 0 0
151 1 3.472809392450933e-05 3.47280939246859e-05 10.590077752641964 0 0 0
152 1 1.7650014808465788 1.7650014808465788 10.590077752641964 0 0 0
153 1 3.5299156747214933 3.37545576123777e-05 10.590290065251533 0 0 0
156 1 3.375455761197118e-05 3.5299156747214933 10.590290065251533 0 0 0
158 1 3.5298643324014303 3.5298643324014303 10.590467598883446 0 0 0
106 1 5.294758882250952 1.764916103388553 7.0598421588338285 0 0 0
107 1 5.2949437892209605 2.25381758397586e-05 8.825181044702513 0 0 0
109 1 7.059660148435265 0.00011836697245337099 7.059656513584452 0 0 0
110 1 7.059901573814343 1.764929883638067 8.825181044702513 0 0 0
117 1 5.294909022009849 3.529911072273257 8.825181044702513 0 0 0
119 1 7.05981551805525 3.529810889965669 7.059814832252109 0 0 0
154 1 5.294758882250952 1.7649161033885528 10.590519930571196 0 0 0
155 1 7.059660148435265 0.00011836697245370525 10.590705575820573 0 0 0
160 1 7.059815518055251 3.5298108899656686 10.590547257152915 0 0 0
351 1 8.824919829943427 1.764930808454817 7.059776635775976 0 0 0
352 1 8.825054408590342 0.00010543812312247003 8.825181044702513 0 0 0
362 1 8.825058140849208 3.5298340096361343 8.825181044702513 0 0 0
401 1 8.824919829943427 1.7649308084548165 10.590585453629048 0 0 0
112 1 1.764916103388553 5.294758882250951 7.0598421588338285 0 0 0
114 1 2.2538175839033438e-05 5.29494378922096 8.825181044702513 0 0 0
118 1 3.529911072273257 5.294909022009849 8.825181044702513 0 0 0
121 1 0.00011836697245314482 7.059660148435266 7.059656513584452 0 0 0
123 1 1.7649298836380667 7.059901573814343 8.825181044702513 0 0 0
125 1 3.5298108899656695 7.05981551805525 7.05981483225211 0 0 0
157 1 1.7649161033885528 5.294758882250951 10.590519930571196 0 0 0
161 1 0.00011836697245509654 7.059660148435265 10.590705575820573 0 0 0
163 1 3.529810889965668 7.05981551805525 10.590547257152915 0 0 0
122 1 1.7649308084548163 8.824919829943427 7.059776635775976 0 0 0
124 1 0.00010543812312264964 8.82505440859034 8.825181044702513 0 0 0
128 1 3.5298340096361347 8.825058140849208 8.825181044702513 0 0 0
162 1 1.764930808454816 8.824919829943425 10.590585453629046 0 0 0
116 1 5.29479238223043 5.294792382230431 7.059800626892608 0 0 0
120 1 7.059920196796629 5.294853125663371 8.825181044702513 0 0 0
127 1 5.29485312566337 7.059920196796629 8.825181044702513 0 0 0
129 1 7.059929848618126 7.059929848618127 7.059976839890006 0 0 0
159 1 5.29479238223043 5.29479238223043 10.590561462512417 0 0 0
165 1 7.059929848618127 7.059929848618127 10.59038524951502 0 0 0
126 1 5.294850608126109 8.82507631843867 7.059977037719102 0 0 0
130 1 7.059962743137152 8.825105014212125 8.825181044702513 0 0 0
164 1 5.294850608126109 8.82507631843867 10.590385051685924 0 0 0
361 1 8.82507631843867 5.294850608126109 7.059977037719102 0 0 0
372 1 8.825105014212125 7.0599627431371506 8.825181044702513 0 0 0
406 1 8.82507631843867 5.294850608126108 10.590385051685924 0 0 0
371 1 8.82510948570308 8.82510948570308 7.060024721511864 0 0 0
411 1 8.82510948570308 8.82510948570308 10.590337367893161 0 0 0
131 1 0.00010540048568557754 10.590478468402102 7.059776635775977 0 0 0
132 1 1.7649178419680485 12.355738149910263 7.059656513584452 0 0 0
133 1 1.7649307708173798 10.590343889755188 8.825181044702513 0 0 0
134 1 0.00010632530243567008 12.355496724531184 8.825181044702513 0 0 0
135 1 3.5298257642199187 10.590327611382415 7.059928651808831 0 0 0
138 1 3.5298297365462084 12.355526128875196 8.825181044702513 0 0 0
166 1 0.00010540048568585139 10.590478468402102 10.590585453629048 0 0 0
167 1 1.764917841968048 12.355738149910263 10.590705575820575 0 0 0
168 1 3.5298257642199187 10.590327611382415 10.590433437596195 0 0 0
136 1 5.294822922672884 12.355505944026463 7.05993621831367 0 0 0
137 1 5.294858561340057 10.590297365238866 8.825181044702513 0 0 0
139 1 7.059956020384198 10.5902909081274 7.060011042858981 0 0 0
140 1 7.059948810404779 12.35544948794075 8.825181044702513 0 0 0
169 1 5.294822922672884 12.355505944026463 10.590425871091355 0 0 0
170 1 7.059956020384199 10.5902909081274 10.590351046546044 0 0 0
381 1 8.825107390218129 12.35544227796133 7.06001104285898 0 0 0
382 1 8.825115674423012 10.590282623922517 8.825181044702513 0 0 0
416 1 8.825107390218129 12.35544227796133 10.590351046546045 0 0 0
103 1 1.7650446858276234 17.650353612517904 8.825181044702513 0 -1 0
141 1 0.00012010555194995063 14.120639416094576 7.0598421588338285 0 0 0
142 1 1.7650024543828906 15.885482623624034 7.0600720241534916 0 0 0
143 1 1.765013670764664 14.120454509124567 8.825181044702513 0 0 0
144 1 2.2033147986962454e-05 15.885367974567234 8.825181044702513 0 0 0
145 1 3.529782738427665 14.120682218059164 7.059674669903635 0 0 0
148 1 3.5300012777961634 15.885397020549362 8.825181044702513 0 0 0
171 1 0.000120105551949246 14.120639416094576 10.590519930571196 0 0 0
172 1 1.7650024543828897 15.885482623624034 10.590290065251533 0 0 0
173 1 3.5297827384276657 14.120682218059162 10.59068741950139 0 0 0
175 1 7.059892354319064 14.120575375672642 10.590425871091355 0 0 0
146 1 5.294716080286364 15.885615559917861 7.059674669903635 0 0 0
147 1 5.294824662435682 14.120573635909846 8.825181044702513 0 0 0
149 1 7.059892354319064 14.120575375672644 7.059936218313671 0 0 0
150 1 7.059872169470331 15.88556856179932 8.825181044702513 0 0 0
174 1 5.294716080286364 15.885615559917861 10.59068741950139 0 0 0
421 1 8.825070686963112 15.88557253412561 10.590433437596195 0 0 0
391 1 8.825070686963112 15.88557253412561 7.059928651808831 0 0 0
392 1 8.825100933106661 14.12053973700547 8.825181044702513 0 0 0
176 1 1.7648175493992486 0.00021865954125391827 12.355257712099624 0 0 0
177 1 0.0002186595412538303 1.7648175493992493 12.355257712099624 0 0 0
179 1 3.5294305339954186 1.7647578741335481 12.355754463641146 0 0 0
181 1 1.764757874133548 3.5294305339954186 12.355754463641146 0 0 0
201 1 0.0006353473961132652 0.0006353473961123414 14.121732060949844 0 0 0
202 1 1.7644008615443896 1.76440086154439 14.121732060949844 0 0 0
203 1 1.7595173703245721 0.005518838615930805 15.896627354942616 0 0 0
204 1 0.005518838615930193 1.7595173703245715 15.896627354942616 0 0 0
205 1 3.5277318689318613 0.0005910693841957372 14.122896247617698 0 0 0
208 1 3.523737875990108 1.7644047278177664 15.89143548687542 0 0 0
211 1 0.0005910693841957385 3.5277318689318613 14.1228962476177 0 0 0
213 1 1.7644047278177661 3.5237378759901077 15.89143548687542 0 0 0
215 1 3.5291131649955902 3.52911316499559 14.121479608248755 0 0 0
178 1 5.293989807385493 0.0002721731545000471 12.356453018772282 0 0 0
180 1 7.059210461739974 1.7649178086209907 12.356171249571377 0 0 0
183 1 5.294457468974174 3.529585994456713 12.355978905941269 0 0 0
206 1 5.292894444295665 1.7647636373408422 14.122447683202882 0 0 0
207 1 5.294377299452641 0.0005759862475434187 15.886115667667147 0 0 0
209 1 7.059628155423154 0.0002685457667172276 14.120798811488857 0 0 0
210 1 7.060173203136695 1.7650147249744552 15.885574458041539 0 0 0
217 1 5.293877756017654 3.5291107190000868 15.886142125354228 0 0 0
219 1 7.059454724511695 3.5296408550054523 14.120837842988578 0 0 0
426 1 8.824955148148774 0.00011667813159537577 12.355565340229544 0 0 0
431 1 8.824955686278035 3.5298224375098903 12.355592951700753 0 0 0
451 1 8.825125347142272 1.7650189958639777 14.120444313965836 0 0 0
182 1 0.0002721731545011023 5.2939898073854925 12.356453018772282 0 0 0
184 1 3.529585994456713 5.294457468974174 12.355978905941267 0 0 0
186 1 1.7649178086209905 7.059210461739973 12.356171249571377 0 0 0
212 1 1.764763637340842 5.292894444295664 14.122447683202882 0 0 0
214 1 0.0005759862475432674 5.294377299452641 15.886115667667147 0 0 0
218 1 3.5291107190000868 5.293877756017654 15.886142125354226 0 0 0
221 1 0.0002685457667166108 7.0596281554231535 14.120798811488855 0 0 0
223 1 1.7650147249744557 7.060173203136695 15.88557445804154 0 0 0
225 1 3.5296408550054528 7.059454724511694 14.120837842988577 0 0 0
187 1 0.00011667813159541651 8.824955148148774 12.355565340229544 0 0 0
189 1 3.5298224375098908 8.824955686278033 12.355592951700752 0 0 0
222 1 1.7650189958639777 8.825125347142272 14.120444313965834 0 0 0
185 1 7.059795445062571 5.294758610794786 12.355619206456979 0 0 0
188 1 5.294758610794785 7.059795445062571 12.355619206456979 0 0 0
216 1 5.2945154538007975 5.2945154538007975 14.120840803789408 0 0 0
220 1 7.059463005444934 5.294512716459536 15.885695768964899 0 0 0
227 1 5.294512716459535 7.059463005444934 15.885695768964899 0 0 0
229 1 7.059806716427533 7.059806716427533 14.120615092712068 0 0 0
190 1 7.059930257669532 8.82507339766685 12.355486351949095 0 0 0
226 1 5.294809754854969 8.824950654994293 14.120568512200407 0 0 0
230 1 7.0598232956727855 8.824958989897786 15.885530316767683 0 0 0
436 1 8.825073397666849 7.0599302576695315 12.355486351949095 0 0 0
461 1 8.824950654994293 5.2948097548549695 14.120568512200407 0 0 0
472 1 8.824958989897784 7.059823295672785 15.885530316767683 0 0 0
471 1 8.825079494210666 8.825079494210664 14.120533282561164 0 0 0
191 1 1.7649195308089072 10.590443150196753 12.355565340229543 0 0 0
192 1 0.00011840031951230182 12.356187836605555 12.356171249571375 0 0 0
194 1 3.5297449048799714 12.355728477401323 12.355709723881358 0 0 0
224 1 2.7767298011357948e-05 8.82518516196172 15.885342975812062 0 0 0
228 1 3.530009134587472 8.825185346535068 15.885370111016806 0 0 0
231 1 1.7213076524997913e-05 10.590272951203255 14.120444313965834 0 0 0
232 1 1.764767663173786 12.355770142922374 14.120798811488857 0 0 0
233 1 1.7650084416424914 10.590213136383808 15.885342975812062 0 0 0
234 1 2.1483966047467313e-05 12.355225095208832 15.88557445804154 0 0 0
235 1 3.529893284244291 10.590445021346468 14.120487276611877 0 0 0
238 1 3.5296577540254237 12.35570121567747 15.8856185963065 0 0 0
193 1 5.29483505779314 10.59032837512183 12.355518616198928 0 0 0
195 1 7.059894091927676 12.355504206417852 12.355518765894534 0 0 0
236 1 5.294706020571876 12.355724638120174 14.12065391347747 0 0 0
237 1 5.29486469899488 10.590436346987222 15.885451291188508 0 0 0
239 1 7.059904773821844 10.590320197408635 14.120539855969945 0 0 0
240 1 7.0597125910267655 12.35568570731876 15.885545470634396 0 0 0
441 1 8.825105870112811 10.590292428232717 12.355459534966629 0 0 0
481 1 8.825078100936892 12.355493524523682 14.120539855969943 0 0 0
482 1 8.825065404465127 10.5903328938804 15.885515967346945 0 0 0
196 1 1.7647640357860015 14.121408490960034 12.356453018772282 0 0 0
197 1 0.0002783348069540671 15.885967764350108 12.355754463641146 0 0 0
199 1 3.5293929506075306 15.886005347737997 12.356224469687058 0 0 0
241 1 0.0002725715996620924 14.122503854049864 14.12244768320288 0 0 0
242 1 1.7644451395563059 15.887666429413667 14.122896247617698 0 0 0
243 1 1.7644602226929582 14.121020998892888 15.886115667667147 0 0 0
244 1 0.0006314811227362783 15.89166042235542 15.891435486875418 0 0 0
245 1 3.5294414921720807 14.121127622803026 14.121067568705564 0 0 0
248 1 3.528675819468404 15.886722478877124 15.886547537712351 0 0 0
198 1 5.294653231265242 14.120745067080286 12.3557389061238 0 0 0
200 1 7.059669820944205 15.885653393465553 12.355709723881358 0 0 0
246 1 5.294270675542502 15.885956806173448 14.121067568705563 0 0 0
247 1 5.294247068466768 14.121151229878759 15.885859657171151 0 0 0
249 1 7.059673660225353 14.120692277773651 14.12065391347747 0 0 0
250 1 7.059697082668058 15.885740544320104 15.8856185963065 0 0 0
446 1 8.825069923223698 14.120563240552388 12.35551861619893 0 0 0
492 1 8.824961951358306 14.120533599350647 15.885451291188508 0 0 0
491 1 8.824953276999059 15.885505014101236 14.120487276611877 0 0 0
251 1 8.825338337641169 1.765053922761495 3.2479829302413307e-16 0 0 0
252 1 8.82518516196172 2.776729801026638e-05 1.7650191135929625 0 0 0
254 1 12.355079451382661 1.7648156702417823 4.99153797585633e-19 0 0 0
255 1 12.355225095208832 2.148396604591988e-05 1.7647876313634838 0 0 0
256 1 10.590213136383808 1.7650084416424914 1.7650191135929625 0 0 0
262 1 8.825185346535068 3.5300091345874707 1.7649919783882186 0 0 0
263 1 10.59027444529012 3.529976380513791 0 0 0 0
265 1 12.35570121567747 3.5296577540254237 1.7647434930985249 0 0 0
303 1 10.590272951203255 1.721307652441952e-05 3.52991777543919 0 0 0
304 1 12.355770142922374 1.7647676631737856 3.5295632779161674 0 0 0
305 1 12.356187836605555 0.0001184003195119395 5.294190839833649 0 0 0
306 1 10.590443150196753 1.7649195308089074 5.29479674917548 0 0 0
313 1 10.590445021346468 3.5298932842442916 3.5298748127931496 0 0 0
315 1 12.355728477401323 3.529744904879972 5.294652365523666 0 0 0
257 1 14.120820706287262 0.00018093394845313342 3.999643594284719e-19 0 0 0
258 1 15.891164071219931 1.7595766823899608 5.17101138007319e-19 0 0 0
259 1 15.89166042235542 0.0006314811227356214 1.758926602529606 0 0 0
260 1 14.121020998892888 1.7644602226929593 1.7642464217378773 0 0 0
267 1 14.121952800809865 3.528164919594555 6.486729996170332e-17 0 0 0
269 1 15.886722478877124 3.528675819468404 1.7638145516926742 0 0 0
307 1 14.122503854049864 0.00027257159966063776 3.527914406202144 0 0 0
308 1 15.887666429413667 1.7644451395563063 3.527465841787327 0 0 0
309 1 15.885967764350108 0.0002783348069546807 5.294607625763877 0 0 0
310 1 14.121408490960034 1.7647640357860022 5.293909070632743 0 0 0
317 1 14.121127622803026 3.5294414921720803 3.529294520699461 0 0 0
319 1 15.886005347737997 3.5293929506075292 5.294137619717967 0 0 0
264 1 12.355991963091071 5.2943170463369595 0 0 0 0
266 1 10.590436346987222 5.294864698994881 1.7649107982165162 0 0 0
273 1 10.59046565671633 7.0597961736756565 0 0 0 0
275 1 12.35568570731876 7.059712591026766 1.764816618770629 0 0 0
314 1 12.355724638120174 5.294706020571877 3.529708175927555 0 0 0
316 1 10.59032837512183 5.294835057793141 5.294843473206096 0 0 0
323 1 10.590320197408635 7.059904773821845 3.5298222334350813 0 0 0
325 1 12.355504206417853 7.059894091927675 5.2948433235104915 0 0 0
274 1 12.355602124669872 8.824932641629198 0 0 0 0
276 1 10.590332893880401 8.825065404465127 1.764846122058079 0 0 0
324 1 12.355493524523684 8.82507810093689 3.5298222334350813 0 0 0
326 1 10.590292428232717 8.825105870112811 5.294902554438394 0 0 0
268 1 15.88723337875097 5.293445497535663 3.61728026117796e-19 0 0 0
270 1 14.121151229878759 5.294247068466768 1.7645024322338727 0 0 0
277 1 14.121081252008569 7.059406335254456 0 0 0 0
279 1 15.885740544320104 7.059697082668057 1.7647434930985249 0 0 0
318 1 15.885956806173448 5.294270675542502 3.5292945206994615 0 0 0
320 1 14.120745067080286 5.294653231265242 5.294623183281225 0 0 0
327 1 14.120692277773651 7.059673660225352 3.5297081759275546 0 0 0
329 1 15.885653393465555 7.059669820944205 5.294652365523667 0 0 0
278 1 15.885421917831735 8.825123853055407 0 0 0 0
280 1 14.12053359935065 8.824961951358306 1.7649107982165158 0 0 0
328 1 15.885505014101234 8.824953276999059 3.5298748127931496 0 0 0
330 1 14.120563240552388 8.825069923223698 5.294843473206097 0 0 0
283 1 10.590465832049567 10.590465832049567 0 0 0 0
284 1 12.356187321859473 12.356187321859473 2.5477770371683307e-16 0 0 0
285 1 12.355575002672742 10.590439308447744 1.7648317726373408 0 0 0
286 1 10.590439308447744 12.355575002672742 1.764831772637341 0 0 0
333 1 10.590318804134862 10.590318804134862 3.529828806843863 0 0 0
334 1 12.355591581917995 12.355591581917995 3.529746996692957 0 0 0
335 1 12.355468040675996 10.590324900678677 5.29487573745593 0 0 0
336 1 10.590324900678677 12.355468040675996 5.294875737455931 0 0 0
287 1 14.120500050775053 10.590274513054306 0 0 0 0
288 1 15.88564112070307 12.35529282511833 0 0 0 0
289 1 15.885389163758056 10.590212951810459 1.7649919783882184 0 0 0
290 1 14.120885581885991 12.355935292900591 1.7646663204401243 0 0 0
337 1 14.120588543490557 10.590447643351235 3.5297935772046185 0 0 0
338 1 15.885757443340076 12.355943573833834 3.529524246416447 0 0 0
339 1 15.885575860835637 10.590442612067495 5.294769137704273 0 0 0
340 1 14.120639687550742 12.355602853282956 5.294742882948046 0 0 0
31 1 17.650344375584034 10.590059960704359 0 -1 0 0
253 1 10.590059960704359 17.650344375584034 0 0 -1 0
346 1 10.590442612067493 15.885575860835637 5.2947691377042725 0 0 0
345 1 12.355602853282956 14.120639687550742 5.2947428829480465 0 0 0
344 1 12.355943573833834 15.885757443340076 3.529524246416447 0 0 0
343 1 10.590447643351235 14.120588543490557 3.529793577204619 0 0 0
296 1 10.590212951810459 15.885389163758056 1.764991978388219 0 0 0
295 1 12.355935292900593 14.12088558188599 1.7646663204401243 0 0 0
294 1 12.35529282511833 15.88564112070307 5.42255338403707e-16 0 0 0
293 1 10.590274513054306 14.120500050775052 1.3243041201335278e-16 0 0 0
350 1 14.120940829371355 15.885812303888814 5.294383183463757 0 0 0
349 1 15.885812303888814 14.120940829371355 5.294383183463757 0 0 0
348 1 15.886285133349938 15.886285133349938 3.52888248115627 0 0 0
347 1 14.12088284454473 14.12088284454473 3.5295212856156177 0 0 0
300 1 14.121520542327874 15.88628757934544 1.7642199640507972 0 0 0
299 1 15.88628757934544 14.121520542327872 1.764219964050797 0 0 0
298 1 15.89238934841643 15.89238934841643 2.02932871834853e-16 0 0 0
297 1 14.122676297262373 14.122676297262373 1.393925275305016e-17 0 0 0
353 1 10.5904784684021 0.00010540048568628318 7.059776635775977 0 0 0
354 1 12.355738149910263 1.7649178419680485 7.059656513584452 0 0 0
355 1 12.355496724531186 0.00010632530243654033 8.825181044702513 0 0 0
356 1 10.590343889755186 1.7649307708173807 8.825181044702513 0 0 0
363 1 10.590327611382415 3.5298257642199182 7.059928651808831 0 0 0
365 1 12.355526128875196 3.529829736546208 8.825181044702513 0 0 0
402 1 10.5904784684021 0.00010540048568521977 10.590585453629048 0 0 0
403 1 12.355738149910263 1.7649178419680482 10.590705575820573 0 0 0
407 1 10.590327611382415 3.5298257642199182 10.590433437596195 0 0 0
357 1 14.120639416094576 0.0001201055519483986 7.0598421588338285 0 0 0
358 1 15.885482623624034 1.7650024543828904 7.0600720241534916 0 0 0
359 1 15.885367974567234 2.2033147987010054e-05 8.825181044702513 0 0 0
360 1 14.120454509124567 1.7650136707646635 8.825181044702513 0 0 0
367 1 14.120682218059162 3.529782738427665 7.059674669903635 0 0 0
369 1 15.885397020549364 3.5300012777961634 8.825181044702513 0 0 0
404 1 14.120639416094576 0.00012010555194956757 10.590519930571196 0 0 0
405 1 15.885482623624036 1.76500245438289 10.590290065251533 0 0 0
409 1 14.120682218059162 3.5297827384276657 10.59068741950139 0 0 0
104 1 17.650353612517904 1.7650446858276234 8.825181044702513 -1 0 0
364 1 12.355505944026463 5.294822922672885 7.05993621831367 0 0 0
366 1 10.590297365238866 5.294858561340058 8.825181044702513 0 0 0
373 1 10.590290908127399 7.059956020384199 7.060011042858981 0 0 0
375 1 12.35544948794075 7.059948810404778 8.825181044702513 0 0 0
408 1 12.355505944026463 5.294822922672884 10.590425871091355 0 0 0
412 1 10.5902909081274 7.059956020384198 10.590351046546044 0 0 0
374 1 12.35544227796133 8.825107390218129 7.06001104285898 0 0 0
376 1 10.590282623922517 8.82511567442301 8.825181044702513 0 0 0
413 1 12.35544227796133 8.825107390218129 10.590351046546045 0 0 0
368 1 15.885615559917863 5.294716080286364 7.059674669903634 0 0 0
370 1 14.120573635909846 5.2948246624356825 8.825181044702513 0 0 0
377 1 14.120575375672642 7.059892354319064 7.05993621831367 0 0 0
379 1 15.88556856179932 7.059872169470331 8.825181044702513 0 0 0
410 1 15.885615559917861 5.2947160802863635 10.59068741950139 0 0 0
414 1 14.120575375672644 7.059892354319064 10.590425871091355 0 0 0
378 1 15.88557253412561 8.825070686963112 7.05992865180883 0 0 0
380 1 14.12053973700547 8.825100933106661 8.825181044702513 0 0 0
415 1 15.88557253412561 8.825070686963112 10.590433437596195 0 0 0
383 1 10.590288812642447 10.590288812642447 7.060024721511863 0 0 0
384 1 12.355468449727399 12.3554684497274 7.059976839890005 0 0 0
385 1 12.355435555208377 10.590293284133402 8.825181044702513 0 0 0
386 1 10.590293284133404 12.355435555208377 8.825181044702513 0 0 0
417 1 10.590288812642447 10.590288812642447 10.590337367893163 0 0 0
418 1 12.355468449727399 12.3554684497274 10.59038524951502 0 0 0
387 1 14.12054769021942 10.590321979906857 7.059977037719102 0 0 0
388 1 15.885587408379857 12.355582780290277 7.059814832252109 0 0 0
389 1 15.885564288709395 10.59034015749632 8.825181044702513 0 0 0
390 1 14.120545172682156 12.355478101548899 8.825181044702513 0 0 0
419 1 14.12054769021942 10.590321979906857 10.590385051685924 0 0 0
420 1 15.885587408379859 12.355582780290279 10.590547257152915 0 0 0
423 1 12.355582780290277 15.885587408379857 10.590547257152915 0 0 0
422 1 10.590321979906857 14.12054769021942 10.590385051685924 0 0 0
396 1 10.59034015749632 15.885564288709393 8.825181044702513 0 0 0
395 1 12.355478101548899 14.120545172682155 8.825181044702513 0 0 0
394 1 12.355582780290279 15.885587408379857 7.059814832252108 0 0 0
393 1 10.590321979906857 14.12054769021942 7.059977037719101 0 0 0
425 1 15.885533965944099 15.885533965944097 10.590467598883448 0 0 0
424 1 14.120605916115098 14.120605916115098 10.590561462512417 0 0 0
400 1 14.120489276335679 15.88548722607227 8.825181044702513 0 0 0
399 1 15.885487226072271 14.120489276335679 8.825181044702513 0 0 0
398 1 15.885533965944097 15.885533965944099 7.059894490521578 0 0 0
397 1 14.120605916115096 14.120605916115098 7.059800626892607 0 0 0
427 1 12.356187836605555 0.00011840031951195414 12.356171249571375 0 0 0
428 1 10.590443150196752 1.764919530808907 12.355565340229544 0 0 0
432 1 12.355728477401323 3.5297449048799714 12.35570972388136 0 0 0
452 1 8.82518516196172 2.7767298010240983e-05 15.885342975812064 0 0 0
453 1 10.590272951203255 1.721307652377768e-05 14.120444313965834 0 0 0
454 1 12.355770142922374 1.7647676631737854 14.120798811488857 0 0 0
455 1 12.355225095208834 2.14839660465341e-05 15.88557445804154 0 0 0
456 1 10.590213136383808 1.765008441642491 15.885342975812062 0 0 0
462 1 8.825185346535068 3.530009134587471 15.885370111016806 0 0 0
463 1 10.590445021346468 3.529893284244291 14.120487276611877 0 0 0
465 1 12.35570121567747 3.529657754025423 15.8856185963065 0 0 0
429 1 15.88596776435011 0.00027833480695364885 12.355754463641146 0 0 0
430 1 14.121408490960036 1.7647640357860026 12.35645301877228 0 0 0
434 1 15.886005347737996 3.5293929506075297 12.356224469687058 0 0 0
457 1 14.122503854049864 0.0002725715996605259 14.12244768320288 0 0 0
458 1 15.887666429413668 1.7644451395563072 14.122896247617698 0 0 0
459 1 15.89166042235542 0.000631481122736605 15.89143548687542 0 0 0
460 1 14.121020998892886 1.7644602226929587 15.886115667667147 0 0 0
467 1 14.121127622803026 3.52944149217208 14.121067568705564 0 0 0
469 1 15.886722478877124 3.528675819468404 15.886547537712351 0 0 0
433 1 10.59032837512183 5.29483505779314 12.355518616198928 0 0 0
437 1 12.355504206417852 7.059894091927675 12.355518765894534 0 0 0
464 1 12.355724638120174 5.294706020571876 14.12065391347747 0 0 0
466 1 10.590436346987222 5.29486469899488 15.885451291188508 0 0 0
473 1 10.590320197408637 7.059904773821844 14.120539855969945 0 0 0
475 1 12.355685707318761 7.059712591026766 15.885545470634396 0 0 0
438 1 10.590292428232718 8.825105870112811 12.355459534966629 0 0 0
474 1 12.355493524523684 8.82507810093689 14.120539855969945 0 0 0
476 1 10.590332893880401 8.825065404465127 15.885515967346945 0 0 0
435 1 14.120745067080286 5.294653231265241 12.3557389061238 0 0 0
439 1 15.885653393465555 7.0596698209442055 12.355709723881358 0 0 0
468 1 15.885956806173448 5.294270675542502 14.121067568705564 0 0 0
470 1 14.12115122987876 5.294247068466769 15.885859657171151 0 0 0
477 1 14.120692277773651 7.059673660225353 14.120653913477472 0 0 0
479 1 15.885740544320104 7.059697082668057 15.8856185963065 0 0 0
440 1 14.120563240552388 8.825069923223698 12.355518616198928 0 0 0
478 1 15.885505014101236 8.824953276999059 14.120487276611877 0 0 0
480 1 14.12053359935065 8.824961951358306 15.885451291188508 0 0 0
442 1 12.355468040675996 10.590324900678677 12.355486351949095 0 0 0
443 1 10.590324900678677 12.355468040675996 12.355486351949095 0 0 0
483 1 10.590318804134863 10.590318804134862 14.120533282561164 0 0 0
484 1 12.355591581917995 12.355591581917995 14.120615092712068 0 0 0
485 1 12.355575002672742 10.590439308447744 15.885530316767683 0 0 0
486 1 10.590439308447744 12.355575002672742 15.885530316767683 0 0 0
444 1 15.885575860835635 10.590442612067495 12.355592951700753 0 0 0
445 1 14.120639687550742 12.355602853282958 12.355619206456979 0 0 0
487 1 14.120588543490557 10.590447643351236 14.120568512200407 0 0 0
488 1 15.885757443340074 12.355943573833835 14.120837842988577 0 0 0
489 1 15.885389163758056 10.590212951810459 15.885370111016806 0 0 0
490 1 14.120885581885991 12.355935292900593 15.885695768964899 0 0 0
496 1 10.590212951810459 15.885389163758054 15.885370111016806 0 0 0
495 1 12.355935292900593 14.12088558188599 15.8856957689649 0 0 0
494 1 12.355943573833835 15.885757443340077 14.120837842988578 0 0 0
493 1 10.590447643351235 14.120588543490557 14.120568512200407 0 0 0
448 1 10.590442612067493 15.885575860835637 12.355592951700752 0 0 0
447 1 12.355602853282958 14.120639687550742 12.355619206456979 0 0 0
500 1 14.121520542327872 15.88628757934544 15.886142125354226 0 0 0
499 1 15.88628757934544 14.121520542327872 15.886142125354228 0 0 0
498 1 15.886285133349938 15.886285133349938 14.121479608248755 0 0 0
497 1 14.120882844544731 14.12088284454473 14.12084080378941 0 0 0
450 1 14.120940829371355 15.885812303888814 12.355978905941267 0 0 0
449 1 15.885812303888814 14.120940829371355 12.355978905941267 0 0 0

Velocities

1 7.716535571283104e-11 7.715856376753286e-11 -1.8160129092277857e-16
2 -7.716195859982847e-11 -7.716184912589486e-11 -2.3620095102676104e-16
3 -9.360378255366027e-10 9.360393720604729e-10 2.1372990661356837e-09
4 9.360340965819174e-10 -9.3603641686085e-10 2.1373003415911315e-09
5 -1.2999162870454114e-09 -5.314660292636835e-10 7.232449651430596e-17
8 -3.5261650206019846e-09 -1.7951341814212106e-09 -6.872817383923463e-10
11 -5.314668970893464e-10 -1.2999143097746242e-09 -6.833989218265743e-16
13 -1.7951332789248876e-09 -3.526165903869297e-09 -6.872821796128895e-10
15 2.6803276601292237e-09 2.680329998903403e-09 3.669080880480193e-17
51 2.396348870190262e-09 2.396348103035522e-09 -6.853250132264651e-09
52 -2.3963468649060367e-09 -2.3963471362020564e-09 -6.853252371651699e-09
53 -1.8447289831662417e-09 1.8447280239193536e-09 9.293231589232478e-09
54 1.844729075419027e-09 -1.8447310448946053e-09 9.293232272024473e-09
55 1.38755906613896e-09 3.829759277699962e-11 -1.7928530708081403e-09
58 -4.94664240248655e-10 -2.2522505009148747e-09 4.285817312835818e-09
61 3.829845972783529e-11 1.3875587430266147e-09 -1.7928554969660628e-09
63 -2.25224910691519e-09 -4.946639169158246e-10 4.285816395655318e-09
65 5.556321150385468e-10 5.556325198097329e-10 -1.266270057215653e-09
6 -2.1446244428488654e-09 -4.002204993239073e-09 4.351660985343284e-16
7 -6.957157307695744e-10 -8.77574581544461e-10 -3.1375826513748526e-09
9 5.261425137545107e-09 1.5287432964405155e-09 -4.539808113022003e-16
10 4.435588886475762e-09 -2.6328392722294098e-09 -4.141343716883146e-09
17 -5.278176271431312e-09 4.6306155078731147e-10 8.264979948637023e-11
19 -9.353382192570422e-11 -1.0623673211480737e-09 -1.2065693220170778e-15
56 -6.867231670331446e-10 -2.3338542747054103e-09 2.1668775918291094e-09
57 -2.2632792140675685e-11 8.817316275666346e-10 -1.7851237394510294e-09
59 -2.4137800327370028e-09 -2.4607909826629785e-10 9.906699622487694e-10
60 -1.0523564042172301e-10 -5.726913668697151e-09 -2.5741103031258696e-09
67 -8.11662951932704e-11 1.0436300366961532e-09 -1.824278714093647e-09
69 8.582148234231273e-09 -1.399363985299346e-09 6.627814221352315e-10
301 -3.880759237391116e-09 -1.6425266714760804e-09 1.0513177592412973e-09
302 4.3908213215721143e-10 3.37015977341537e-09 -2.370224845439281e-09
312 -2.2991436981604423e-11 -4.6920933603213255e-09 5.2103387909514e-10
12 -4.002204706324482e-09 -2.1446269821878593e-09 -1.0361084036690446e-15
14 -8.775762741941159e-10 -6.957151125772881e-10 -3.1375825123887488e-09
18 4.6306144931698254e-10 -5.278177047061052e-09 8.265092315506813e-11
21 1.5287406890854815e-09 5.261424592089135e-09 -1.5330956274724039e-15
23 -2.6328362048243024e-09 4.435593524605923e-09 -4.141342465401284e-09
25 -1.0623683655116224e-09 -9.353266392622331e-11 -5.29239069672303e-16
62 -2.3338544058014733e-09 -6.867247364352881e-10 2.166879024222401e-09
64 8.817328205387942e-10 -2.2630181751010695e-11 -1.7851251202081761e-09
68 1.0436278743010154e-09 -8.11645588859075e-11 -1.8242783247893e-09
71 -2.460810125115904e-10 -2.4137803675516443e-09 9.906697768328097e-10
73 -5.726912092509762e-09 -1.0523760079340819e-10 -2.574106850322614e-09
75 -1.3993642973803181e-09 8.582150073345404e-09 6.627794249650881e-10
72 -1.6425242012863719e-09 -3.88075988951437e-09 1.0513154541355203e-09
74 3.370158875164567e-09 4.390831882088313e-10 -2.3702250214478847e-09
78 -4.692094409390923e-09 -2.2988754466404235e-11 5.210326577758513e-10
16 -1.446389941568516e-10 -1.4463927091520714e-10 -7.744378545743417e-16
20 -5.496829256969447e-10 -1.1598220439035359e-10 -5.890935641247013e-09
27 -1.1598155983470974e-10 -5.496841237692997e-10 -5.890936099368732e-09
29 -2.0231160332199873e-09 -2.0231141159400634e-09 -2.4450022704958745e-15
66 1.164498628909118e-10 1.1644734687827378e-10 4.786345974071278e-09
70 -9.139841575380368e-10 6.725200360162501e-09 1.607977391946356e-09
77 6.725199728522413e-09 -9.139841589399209e-10 1.6079754082871371e-09
79 -2.1469874187374924e-09 -2.1469859435464194e-09 9.284076598535917e-09
26 -1.000147099809293e-09 -5.531682856984713e-09 -1.842328980966042e-15
30 -6.096330376348561e-10 2.7283637862845246e-10 -2.979710183330426e-09
76 1.871663761187873e-09 7.998209885571188e-09 2.395098839187585e-09
80 -2.2006222476115297e-09 -6.178017283141086e-10 3.673909901928258e-09
261 -5.531684811194037e-09 -1.0001497774296688e-09 -4.0785441870999815e-16
272 2.7283605513262917e-10 -6.096344881885179e-10 -2.9797097991461298e-09
311 7.99820962491327e-09 1.8716627421729492e-09 2.3950959754038532e-09
322 -6.178023580000601e-10 -2.200620547611192e-09 3.673910830221909e-09
271 -5.678555566522283e-10 -5.678561724334053e-10 1.0694039966771083e-15
321 -1.2988341133774075e-09 -1.2988327229799726e-09 5.34585777839046e-09
22 1.3355853761925394e-09 8.064891159180108e-10 -1.196118811195407e-15
24 1.665373298289699e-09 -2.424401835131417e-10 -8.094672130462191e-10
28 -1.144134282988177e-09 -7.523906855417215e-10 -4.987295392492345e-09
32 -1.5287406162543354e-09 -5.261424787955606e-09 -8.788291641251151e-16
33 -1.6653714459508806e-09 2.424417336027033e-10 -8.094672858773654e-10
34 2.6328361441316807e-09 -4.4355894035769e-09 -4.14134344012479e-09
35 2.8635393917908855e-09 4.025413920904546e-09 -1.4475003605958725e-15
38 3.991336767429934e-10 -6.840979463673546e-10 -2.961034801400641e-09
81 1.642521882828218e-09 3.880758632458744e-09 1.0513166679879569e-09
82 2.460791286126088e-10 2.413779779990166e-09 9.906716443447835e-10
83 -3.3701592733081663e-09 -4.390825315146631e-10 -2.3702244509372394e-09
84 5.726912257593693e-09 1.0523615084667262e-10 -2.5741102521440674e-09
85 -7.379615263400025e-10 -8.956797482374573e-09 1.2975238744196388e-09
88 -7.699282983169721e-10 -1.6809347622936176e-09 -4.482242672395585e-10
36 1.5969536846110577e-09 3.203486815396422e-09 6.4831929764943e-16
37 1.7022525916287045e-09 -1.1785121955327534e-09 -8.21428991493287e-09
39 -1.0671050178201088e-09 -4.796548794661695e-10 3.8327390686810097e-16
40 1.7720871287585542e-09 -1.7720863476445113e-09 -8.865920429958453e-09
86 1.2153537210628232e-09 -1.0382380212370926e-08 6.464238683609993e-09
87 4.380113620650418e-09 -1.4392398609678663e-09 3.8817249491849356e-09
89 -1.3794656381325176e-09 -9.080700208408447e-10 6.836835111690446e-09
90 2.307182658189831e-09 -2.3071845638053914e-09 4.6773315691269115e-09
281 4.796537150782196e-10 1.0671034413908976e-09 -8.67904492195383e-16
282 -1.9820148926072668e-10 1.9820087747909862e-10 7.092376052535003e-09
331 9.080706362640302e-10 1.37946396856384e-09 6.836835763529205e-09
332 -3.55012164163254e-10 3.550121617355491e-10 1.9355172359642045e-09
41 4.00220303120812e-09 2.144626293973831e-09 6.257409310863215e-16
42 5.3146682911361e-10 1.2999146921381419e-09 -8.387720337160974e-16
43 8.775749923659428e-10 6.957171594655944e-10 -3.137582647126369e-09
44 1.7951327302635862e-09 3.5261647926063574e-09 -6.872835664392983e-10
45 2.3657904415956685e-09 -4.626258138539539e-09 -1.3830509010347195e-16
48 -3.0480095689917426e-09 3.0480088236561187e-09 -1.1916827697735812e-10
91 2.333851953819551e-09 6.8672326125844e-10 2.166877209351793e-09
92 -3.829679189458735e-11 -1.3875586480426614e-09 -1.7928533478403238e-09
93 -8.817305676286718e-10 2.262912691324326e-11 -1.7851253059275988e-09
94 2.252251350114493e-09 4.946665594725792e-10 4.285817208329524e-09
95 5.2667599743097e-10 -7.273525543756229e-10 1.8283101074930124e-09
98 -6.170810164360946e-10 6.170860429599164e-10 -1.4842569250940737e-09
100 1.680936431761536e-09 7.699255462882717e-10 -4.482246550719317e-10
46 4.62626025367741e-09 -2.365792141899469e-09 -5.84469948240667e-16
47 4.851975821287079e-10 -4.851997574290291e-10 -6.347962975810454e-10
49 -3.2034854986966627e-09 -1.596954585812921e-09 -5.034452980951539e-16
50 6.840985414585117e-10 -3.9913389280872714e-10 -2.9610317315678287e-09
96 7.273515564770379e-10 -5.2667584195295e-10 1.8283100418071777e-09
97 5.6221619027421155e-09 -5.6221616799106955e-09 9.077327610108418e-11
99 1.038238188705106e-08 -1.2153500513576488e-09 6.464238294857154e-09
342 1.439239304375924e-09 -4.380112365786602e-09 3.881724428495583e-09
341 8.956795186432997e-09 7.379596553097532e-10 1.2975233075505509e-09
291 -4.025409515501252e-09 -2.86354151117724e-09 -3.204570432721414e-16
292 1.1785111666429038e-09 -1.7022502639830863e-09 -8.214291314724917e-09
101 2.532528231750049e-09 2.5325288568840537e-09 4.191488200169547e-09
102 -2.532530780840166e-09 -2.5325293612397413e-09 4.191489725507898e-09
105 2.95200735954428e-10 1.1561172741774242e-09 -2.3335919701676483e-09
108 3.6628407848966606e-09 -1.577314625454349e-09 1.9999463566501576e-16
111 1.156122330923386e-09 2.951986725309384e-10 -2.33358827836556e-09
113 -1.577314162063551e-09 3.662840675649941e-09 -5.559444159796999e-16
115 -7.069037876336012e-10 -7.06904416561784e-10 8.487420614162118e-09
151 2.5325279355700546e-09 2.532527192692363e-09 -4.191490534407782e-09
152 -2.5325291979765883e-09 -2.5325292950847835e-09 -4.191491107346132e-09
153 2.951995094821935e-10 1.1561230079495825e-09 2.333590307623371e-09
156 1.1561227970427216e-09 2.9519945425190765e-10 2.333591400394027e-09
158 -7.069028885779097e-10 -7.069038878819281e-10 -8.487418343013092e-09
106 5.367814970751093e-10 -4.880926060931585e-09 -2.7931296668450085e-09
107 1.390739127165632e-09 6.31212609355631e-10 -2.42964893381685e-16
109 3.3616883057570483e-10 3.564968529639078e-09 1.029059390202448e-09
110 -9.19854565201199e-10 4.126282927138318e-09 -2.59157495221978e-16
117 1.7587660265601153e-09 -1.4029219756832669e-09 -1.158743061852476e-16
119 -1.8116808649306237e-09 -2.9264934330299275e-09 -1.0878413888773875e-09
154 5.367814062353242e-10 -4.880924997350818e-09 2.793130787049441e-09
155 3.361687735246403e-10 3.5649684150438216e-09 -1.0290562481454158e-09
160 -1.8116831445454996e-09 -2.926493841054986e-09 1.087842577238923e-09
351 -4.573481007782947e-10 3.684860841928182e-09 -2.2426250001847584e-09
352 -6.694153417565172e-10 -4.439355072443047e-09 6.093539231917234e-16
362 -1.5130850649133826e-09 1.6775631563523314e-09 4.636916307952955e-16
401 -4.5734773263961036e-10 3.684861005191335e-09 2.2426244575927194e-09
112 -4.88092654647256e-09 5.367841433967031e-10 -2.7931296962619635e-09
114 6.312141868677076e-10 1.390741990927434e-09 -7.792932643208894e-16
118 -1.4029231014857637e-09 1.7587647717401589e-09 4.128574111014298e-16
121 3.564969958039933e-09 3.3616599501641285e-10 1.0290590363644629e-09
123 4.126284270266039e-09 -9.198577958694591e-10 -2.4665481512461795e-15
125 -2.926496592017845e-09 -1.8116813769441726e-09 -1.087843835693028e-09
157 -4.8809253714634015e-09 5.367823945388049e-10 2.793128878258186e-09
161 3.5649616868494295e-09 3.361669381797561e-10 -1.0290559938433304e-09
163 -2.926493253589361e-09 -1.8116826006159163e-09 1.0878406069495656e-09
122 3.6848614664552608e-09 -4.573474886932035e-10 -2.2426242694455918e-09
124 -4.4393554754420566e-09 -6.694103382567733e-10 -3.61728026117796e-16
128 1.6775610990075873e-09 -1.5130843081223228e-09 6.50624906037378e-16
162 3.6848624521034392e-09 -4.573429748122199e-10 2.242627901292082e-09
116 2.305698757783727e-09 2.305696219292889e-09 7.00357769896825e-09
120 -4.267065187398447e-09 2.2941832683287816e-09 5.850768744589855e-16
127 2.2941856445379806e-09 -4.2670641258227085e-09 2.0564927359426993e-15
129 2.393840808285683e-09 2.393838695575517e-09 2.80829100677715e-09
159 2.3056986285137768e-09 2.3056976510499152e-09 -7.0035797304688424e-09
165 2.3938384946829385e-09 2.39383895351916e-09 -2.808293364685508e-09
126 6.519160328999117e-09 -1.4386432421369136e-09 -2.5952559791555204e-09
130 7.208735594486884e-09 -1.8967162435415637e-09 2.1727958615800497e-16
164 6.5191608131732875e-09 -1.4386437027693162e-09 2.595253815024953e-09
361 -1.4386444875495135e-09 6.519158609241672e-09 -2.5952569380989454e-09
372 -1.8967173689965155e-09 7.208738410321074e-09 1.2332740756230898e-15
406 -1.4386433271065841e-09 6.519161053940479e-09 2.5952544636607533e-09
371 3.933408356350827e-09 3.93340896617417e-09 1.1666801105525011e-08
411 3.933409521279321e-09 3.9334079425682096e-09 -1.1666800591458505e-08
131 -3.684861332931493e-09 4.573433798027055e-10 -2.2426267736231686e-09
132 -3.564965911055909e-09 -3.361673782012644e-10 1.0290580722621651e-09
133 4.4393551816897665e-09 6.694115011274077e-10 1.1355589544738192e-15
134 -4.1262819760849336e-09 9.198595517070087e-10 -2.2699040565110015e-16
135 5.039866015021828e-09 3.578072745414002e-10 -1.383484334170125e-09
138 3.624399106268922e-09 -5.907087170808191e-10 1.972522063562663e-16
166 -3.684862724006385e-09 4.5734240811382997e-10 2.2426250256756595e-09
167 -3.5649657119841094e-09 -3.361677304176187e-10 -1.0290616334017509e-09
168 5.0398645068457374e-09 3.5780699130062355e-10 1.3834811105739778e-09
136 8.336752481967755e-09 -5.897074872312349e-10 -1.0377838350263109e-09
137 3.377665856724864e-09 1.309392744698024e-10 8.526163526687168e-16
139 3.2814974478156297e-09 -5.062986112232223e-09 1.5517138333108658e-09
140 -1.6849528416494381e-09 1.6849531647617836e-09 1.3428242580295698e-17
169 8.336752454037174e-09 -5.897086954722712e-10 1.037783813418789e-09
170 3.2814959449335484e-09 -5.0629870617682915e-09 -1.5517142781877838e-09
381 5.062983646290998e-09 -3.2814967692721176e-09 1.5517156358817342e-09
382 1.0521766819537731e-08 -1.0521766676303143e-08 3.8114966510398636e-16
416 5.062985308054984e-09 -3.281496691585562e-09 -1.5517179767961583e-09
103 2.0218185621305478e-09 -2.021817748849415e-09 -1.2017139122705303e-16
141 4.880924803380461e-09 -5.36783256374035e-10 -2.7931282449306775e-09
142 -1.1561225081458417e-09 -2.951954506631085e-10 -2.333589014567063e-09
143 -6.312179692319002e-10 -1.3907415921769085e-09 4.27882983914507e-16
144 1.577312460242435e-09 -3.662841008245509e-09 -3.37450977385058e-16
145 -3.6631915314202687e-09 -5.257150938999756e-10 8.845653145163951e-09
148 7.228687835514109e-12 -7.2243301194914164e-12 -5.22249045887402e-16
171 4.880927939975158e-09 -5.367827732607652e-10 2.793128220653629e-09
172 -1.1561212117514393e-09 -2.951987161727268e-10 2.3335925966456035e-09
173 -3.6631933072413383e-09 -5.25710536430384e-10 -8.845652301939841e-09
175 5.897085626096616e-10 -8.336749998444636e-09 1.0377834253511135e-09
146 5.257100911066282e-10 3.6631946571732713e-09 8.845653528469567e-09
147 3.4662622473206626e-09 -3.466260844018933e-09 4.207554534082682e-16
149 5.897083563495795e-10 -8.336753264314617e-09 -1.0377856979863378e-09
150 5.907085191686398e-10 -3.6243994086106402e-09 5.407712605217386e-16
174 5.257123978624861e-10 3.6631924121911227e-09 -8.845654356316929e-09
421 -3.578085849076602e-10 -5.03986710148377e-09 1.3834818727420247e-09
391 -3.5780721386133303e-10 -5.039866733079555e-09 -1.3834839302219048e-09
392 -1.3093890810951861e-10 -3.3776650133202764e-09 8.788291641251151e-16
176 -1.8447274828446301e-09 1.8447265144938488e-09 -9.293231547961496e-09
177 1.844726584593827e-09 -1.8447280586563964e-09 -9.293230791124501e-09
179 -4.946633348735813e-10 -2.252249490500228e-09 -4.285817527572715e-09
181 -2.2522486650729033e-09 -4.94664268326105e-10 -4.285816745851746e-09
201 2.3963436700464235e-09 2.396348558230186e-09 6.8532528986343535e-09
202 -2.3963443595146075e-09 -2.396345280828607e-09 6.853253674286061e-09
203 -9.360368398884243e-10 9.360346555609646e-10 -2.1372992381992667e-09
204 9.360394957975557e-10 -9.360361334263061e-10 -2.1372983639220494e-09
205 1.387556082963832e-09 3.8298536978755716e-11 1.7928554209802634e-09
208 -3.526167053866457e-09 -1.7951335511295185e-09 6.872799548353384e-10
211 3.8298379613574475e-11 1.3875576287100777e-09 1.7928516745447398e-09
213 -1.7951326525770303e-09 -3.5261665969980046e-09 6.872817092450703e-10
215 5.556311692412386e-10 5.55631820743639e-10 1.2662711463693305e-09
178 -2.2629993362653554e-11 8.817323981150345e-10 1.7851221722081312e-09
180 -1.0523625463105595e-10 -5.726911903755708e-09 2.5741089094247917e-09
183 -8.11639627856115e-11 1.0436280965450685e-09 1.824276432235989e-09
206 -6.867239324708286e-10 -2.3338546575718037e-09 -2.166879310112803e-09
207 -6.957155424001836e-10 -8.775760035702197e-10 3.1375833798184988e-09
209 -2.4137827984997797e-09 -2.460820973922057e-10 -9.906725432025129e-10
210 4.435591119964246e-09 -2.632838212536233e-09 4.141347025237962e-09
217 -5.278176418061856e-09 4.630617919315744e-10 -8.265136404525437e-11
219 8.58214835005668e-09 -1.399364102498769e-09 -6.627833535724204e-10
426 4.3908004918643014e-10 3.3701577147216373e-09 2.3702228717152193e-09
431 -2.299251441314866e-11 -4.692095057720296e-09 -5.210322049330267e-10
451 -3.8807590273756774e-09 -1.6425231828641775e-09 -1.0513188832686536e-09
182 8.817294800168886e-10 -2.263134340779256e-11 1.785122390254046e-09
184 1.043627997443026e-09 -8.116579596546867e-11 1.8242803069978823e-09
186 -5.7269116652337045e-09 -1.052358552736043e-10 2.574108340810124e-09
212 -2.3338534541411627e-09 -6.867222835394205e-10 -2.1668786665816434e-09
214 -8.775754633406882e-10 -6.957154872404292e-10 3.1375854353454163e-09
218 4.6306112541752965e-10 -5.2781776161187265e-09 -8.264804046067988e-11
221 -2.4608004628505086e-10 -2.41378141005174e-09 -9.906681599813642e-10
223 -2.632838438312786e-09 4.435591715965792e-09 4.141340727733587e-09
225 -1.3993668514918011e-09 8.582149809532277e-09 -6.627804066506736e-10
187 3.3701578033328654e-09 4.3908321248588e-10 2.3702212014542663e-09
189 -4.6920977882357146e-09 -2.2987995385738898e-11 -5.210303370713591e-10
222 -1.6425207830779103e-09 -3.880759974787504e-09 -1.0513165827148232e-09
185 -9.139848330469178e-10 6.725197497291529e-09 -1.6079750382864814e-09
188 6.725201308750248e-09 -9.139844397587284e-10 -1.6079757225957927e-09
216 1.1644831219442402e-10 1.1644742547521904e-10 -4.786346450811822e-09
220 -5.496836224482433e-10 -1.1598108279070214e-10 5.890939489159237e-09
227 -1.1597786486789261e-10 -5.496833226266915e-10 5.8909388402740575e-09
229 -2.1469880022970512e-09 -2.1469855633071437e-09 -9.284074189342293e-09
190 -2.2006226846603444e-09 -6.178002653184594e-10 -3.673910728258304e-09
226 1.871664841095103e-09 7.998209654033314e-09 -2.3950997735270863e-09
230 -6.096352152861275e-10 2.728297949192481e-10 2.9797092735480247e-09
436 -6.177953473953123e-10 -2.2006204255052236e-09 -3.6739114210645826e-09
461 7.998210030339983e-09 1.8716633151112993e-09 -2.3950988449510134e-09
472 2.7283557503502406e-10 -6.096324974705219e-10 2.9797096935409678e-09
471 -1.2988344909240409e-09 -1.2988333853522202e-09 -5.3458591228908786e-09
191 -3.370158224539661e-09 -4.390836943852974e-10 2.3702265056764683e-09
192 5.726911372695267e-09 1.0523489572325313e-10 2.5741134421482707e-09
194 -7.699262878193454e-10 -1.6809357212684556e-09 4.482254249003476e-10
224 1.6653739780470635e-09 -2.424400239958617e-10 8.094718596733466e-10
228 -1.1441343754590764e-09 -7.523898775451145e-10 4.987298441031175e-09
231 1.6425200353448093e-09 3.880761993914863e-09 -1.051317594157366e-09
232 2.46078453710654e-10 2.413779616385617e-09 -9.906722282078055e-10
233 -1.6653725311349591e-09 2.4243859640108084e-10 8.094713246868516e-10
234 2.632835805466851e-09 -4.4355894715526365e-09 4.14133990295879e-09
235 -7.379604355300025e-10 -8.956796919623747e-09 -1.2975272455821315e-09
238 3.991321142315962e-10 -6.841004907250473e-10 2.9610349465303913e-09
193 4.3801137498794716e-09 -1.4392393609113385e-09 -3.881721806187626e-09
195 2.3071810363502107e-09 -2.307181927317899e-09 -4.677327372661524e-09
236 1.2153546066465294e-09 -1.038238039468147e-08 -6.464240633517534e-09
237 1.7022508870627882e-09 -1.1785121325493846e-09 8.214293739697543e-09
239 -1.379463564161314e-09 -9.08066610218961e-10 -6.8368387201702774e-09
240 1.7720905627470975e-09 -1.772086427758772e-09 8.865918208608494e-09
441 -3.5501063228147896e-10 3.5500933588707664e-10 -1.9355156725222663e-09
481 9.080652358345395e-10 1.37946545451837e-09 -6.836832609333648e-09
482 -1.9820046719697504e-10 1.9820578629835238e-10 -7.092375668350707e-09
196 -8.817282564536324e-10 2.263427668220569e-11 1.7851220805794263e-09
197 2.2522526465088954e-09 4.946650955665405e-10 -4.285817982767379e-09
199 -6.17085456585026e-10 6.170790256573467e-10 1.4842579241888685e-09
241 2.3338485356110896e-09 6.867223241643589e-10 -2.1668754334856787e-09
242 -3.829360189038387e-11 -1.3875572299595523e-09 1.7928545474299944e-09
243 8.775768519878758e-10 6.95713597423917e-10 3.137584331346625e-09
244 1.795133533226973e-09 3.5261666109573077e-09 6.872858096386012e-10
245 5.266750494833412e-10 -7.273509650942193e-10 -1.8283115411392743e-09
248 -3.04801018780518e-09 3.0480101741016274e-09 1.19166247477725e-10
198 5.622161364573406e-09 -5.622163479984809e-09 -9.077313458310942e-11
200 1.6809382944180999e-09 7.699313035903787e-10 4.482247937179362e-10
246 7.273532796385253e-10 -5.266762943855111e-10 -1.8283058385553592e-09
247 4.851980554926325e-10 -4.851947108388574e-10 6.347964529539929e-10
249 1.038238210157577e-08 -1.2153563033046237e-09 -6.46423808364683e-09
250 6.840968141464943e-10 -3.991344712094132e-10 2.961033708933448e-09
446 1.4392390883101903e-09 -4.380112829478233e-09 -3.881724557163942e-09
492 1.1785099260857135e-09 -1.7022520944725608e-09 8.21429201875933e-09
491 8.956794918475072e-09 7.379590239832043e-10 -1.2975257613532515e-09
251 8.064894727906272e-10 1.3355831766919244e-09 -1.3640666756707155e-15
252 -2.4243917844332416e-10 1.6653756131062956e-09 -8.094688274699599e-10
254 -5.2614236080910375e-09 -1.5287436332845666e-09 4.99153797585633e-16
255 -4.435588214001512e-09 2.6328426018266437e-09 -4.141342193801801e-09
256 2.4243953774364543e-10 -1.6653738202462468e-09 -8.094674873768698e-10
262 -7.52388081828245e-10 -1.1441288886279488e-09 -4.987297620215029e-09
263 4.025411472231379e-09 2.863543468514294e-09 -6.251340048680031e-16
265 -6.841011736975205e-10 3.9913376990616793e-10 -2.961033005809424e-09
303 3.880758954544531e-09 1.6425232799723725e-09 1.0513174836967942e-09
304 2.413780014529216e-09 2.4607843853749853e-10 9.906699473861895e-10
305 1.0523380568376503e-10 5.7269121410849e-09 -2.5741098000456755e-09
306 -4.39081297026735e-10 -3.3701604810913407e-09 -2.370223535085576e-09
313 -8.956795361531211e-09 -7.379599841404816e-10 1.2975222323807551e-09
315 -1.6809363480057177e-09 -7.699264518221895e-10 -4.482228236720679e-10
257 2.1446257992370944e-09 4.002206552701318e-09 3.999643594284719e-16
258 1.2999131930303824e-09 5.314708330058722e-10 5.171011380073191e-16
259 3.5261656568692923e-09 1.7951353303355054e-09 -6.872808134219721e-10
260 6.957139688183099e-10 8.775726061504785e-10 -3.1375833268437265e-09
267 -4.626257093412591e-09 2.3657905286895805e-09 -8.617641058459893e-16
269 3.048009855593683e-09 -3.0480106860015145e-09 -1.1916837828247155e-10
307 6.867232744187815e-10 2.333852711017945e-09 2.1668746877432242e-09
308 -1.3875576450970856e-09 -3.8297598063303275e-11 -1.7928565569627031e-09
309 4.946659161307878e-10 2.252251995883989e-09 4.285818951421623e-09
310 2.263303408375188e-11 -8.817311645870235e-10 -1.785122121059301e-09
317 -7.273522219273415e-10 5.266774945940761e-10 1.8283111698361133e-09
319 6.170787259392212e-10 -6.170811438953421e-10 -1.4842571838597931e-09
264 3.203482349963442e-09 1.5969516105278338e-09 -1.3455723180014776e-15
266 -1.1785118245509243e-09 1.7022493414552344e-09 -8.214291643375464e-09
273 -4.796545720580399e-10 -1.0671044952566347e-09 -9.334525237737756e-16
275 -1.772085629650795e-09 1.7720886692599855e-09 -8.86591870021873e-09
314 -1.038238046955117e-08 1.215352815299647e-09 6.464238340983547e-09
316 -1.439239153858222e-09 4.380112073855091e-09 3.881725855986049e-09
323 -9.080663440818142e-10 -1.3794648739080933e-09 6.836835095303438e-09
325 -2.3071860143590532e-09 2.3071834276395107e-09 4.677328342716618e-09
274 1.0671051883663761e-09 4.796544716117508e-10 -3.5049989107890464e-16
276 1.9820121250237114e-10 -1.9820133874302453e-10 7.092376266173032e-09
324 1.3794646074674835e-09 9.080687156460123e-10 6.836834310547838e-09
326 3.550115620924454e-10 -3.5501248704800216e-10 1.9355189292883537e-09
268 -2.3657877899350207e-09 4.6262591763833726e-09 3.61728026117796e-16
270 -4.851959047855661e-10 4.85197591390556e-10 -6.347952070321766e-10
277 -1.5969536603950572e-09 -3.2034838157692924e-09 -1.202191036885517e-16
279 -3.991330576687675e-10 6.840988151822361e-10 -2.9610331038280085e-09
318 -5.266758894976771e-10 7.273516105955738e-10 1.828309637028879e-09
320 -5.622160992331451e-09 5.622159617808601e-09 9.077155430741309e-11
327 -1.2153543898511801e-09 1.0382383090294438e-08 6.464238670743927e-09
329 7.699266205476781e-10 1.680937697202701e-09 -4.4822479345110946e-10
278 -2.863538556660409e-09 -4.0254110740095434e-09 -1.6896825917985638e-15
280 -1.7022547736250695e-09 1.178510394273577e-09 -8.214290108765484e-09
328 7.37963926462924e-10 8.956795803141753e-09 1.2975245736833984e-09
330 -4.380112293460437e-09 1.4392399151905599e-09 3.881722512057592e-09
283 5.678544884620841e-10 5.678546656466069e-10 -5.098180233874977e-17
284 2.0231174995537307e-09 2.023114968064474e-09 -5.604963626170883e-16
285 6.096343862249132e-10 -2.7283691968006075e-10 -2.979707806000429e-09
286 -2.7283643717371717e-10 6.096336190701733e-10 -2.979708081544932e-09
333 1.2988355154154974e-09 1.2988361512845096e-09 5.345856833565183e-09
334 2.1469864212542527e-09 2.1469866139533268e-09 9.28407649141344e-09
335 2.2006206028414783e-09 6.17801818442652e-10 3.6739108617820724e-09
336 6.178012849545061e-10 2.2006201512883717e-09 3.6739084243663798e-09
287 1.000148269085251e-09 5.531686180626547e-09 -1.7938273375731454e-15
288 1.0623690092754171e-09 9.353160171373183e-11 -3.544449114979746e-16
289 1.1441335401104858e-09 7.523892119248635e-10 -4.987296725605784e-09
290 1.1597931523900237e-10 5.49684157856149e-10 -5.890936942647074e-09
337 -1.8716633992132553e-09 -7.998210266241357e-09 2.3950978312485003e-09
338 1.3993659324111005e-09 -8.582148259017748e-09 6.627817965956687e-10
339 4.692095034223836e-09 2.2987995709946555e-11 5.210314028361693e-10
340 -6.725201228752156e-09 9.139867757309119e-10 1.6079770953200573e-09
31 -1.335586820676939e-09 -8.064912790030529e-10 -1.3935025972591604e-15
253 -8.064904013877412e-10 -1.3355871702664408e-09 -1.5018389272290036e-15
346 2.299142605693249e-11 4.692095493060057e-09 5.210333140468308e-10
345 9.139861324759512e-10 -6.7252005710693615e-09 1.6079737962119756e-09
344 -8.582148131563243e-09 1.3993644773054922e-09 6.627825133779034e-10
343 -7.998209586069991e-09 -1.871663151772281e-09 2.3950966272426114e-09
296 7.523880211356231e-10 1.1441300721340744e-09 -4.987298615645152e-09
295 5.496819084886028e-10 1.1598243259461168e-10 -5.890936795620679e-09
294 9.3530627066091e-11 1.0623652550858777e-09 -8.100381669182758e-16
293 5.531685690023201e-09 1.0001517863554513e-09 5.000218548949515e-16
350 8.11647216019135e-11 -1.0436309220417725e-09 -1.824280409553003e-09
349 -1.0436306417565474e-09 8.11640222545828e-11 -1.824278883426062e-09
348 -5.556358868573964e-10 -5.556364948552187e-10 -1.2662708597356994e-09
347 -1.164474423600961e-10 -1.1644767818029147e-10 4.7863472686629785e-09
300 5.278176290506813e-09 -4.6306188884373333e-10 8.26517138415163e-11
299 -4.6305928165154416e-10 5.278178214202137e-09 8.265083641981422e-11
298 -2.6803275502044543e-09 -2.680330463450302e-09 -1.6848271820520163e-15
297 1.4463936074977067e-10 1.4463934439587997e-10 -4.4305465761900557e-17
353 4.573492178259995e-10 -3.6848629303612993e-09 -2.242625905718676e-09
354 -3.3616912979033044e-10 -3.564967133405313e-09 1.0290581513427546e-09
355 9.198536718058057e-10 -4.1262883285943675e-09 -3.9531819171424273e-16
356 6.694151281184883e-10 4.4393532953630805e-09 1.0299537924864091e-15
363 3.578083460821933e-10 5.039868037363999e-09 -1.3834851246527025e-09
365 -5.907094022462875e-10 3.624401073409257e-09 -4.1270982845654575e-16
402 4.5734755242045643e-10 -3.6848608534597804e-09 2.2426231023264736e-09
403 -3.361700426073628e-10 -3.564966194490453e-09 -1.029055823297063e-09
407 3.578082805341617e-10 5.039866524903863e-09 1.383482190164437e-09
357 -5.36782935547146e-10 4.8809280158009275e-09 -2.793129684556704e-09
358 -2.9519825769686823e-10 -1.1561234625373201e-09 -2.3335903261346206e-09
359 -3.662841248588291e-09 1.5773114964436003e-09 6.846127742632112e-16
360 -1.390738609983294e-09 -6.312155437860023e-10 1.2927528450182977e-16
367 -5.257098193483016e-10 -3.663190725547607e-09 8.845652962199997e-09
369 -7.229061770817954e-12 7.228392938125368e-12 -1.2988221072014823e-15
404 -5.367810237058503e-10 4.880924767699245e-09 2.7931287016058746e-09
405 -2.952008447198738e-10 -1.156121641455202e-09 2.3335913202797662e-09
409 -5.257109715526817e-10 -3.663193096407676e-09 -8.845654579910563e-09
104 -2.021816895511152e-09 2.0218181615592438e-09 -1.5513034140219572e-15
364 -5.897103628476573e-10 8.336749712987795e-09 -1.037783875927448e-09
366 1.3093967526425858e-10 3.377662314606251e-09 1.3959303021324341e-16
373 -5.0629824096788285e-09 3.281496338961429e-09 1.5517131669058783e-09
375 1.6849536120664066e-09 -1.6849501562285194e-09 8.98468620870321e-16
408 -5.897080808050764e-10 8.336751494476275e-09 1.037784611284944e-09
412 -5.062987869587088e-09 3.281497642638946e-09 -1.5517130133535449e-09
374 -3.281498112399839e-09 5.062983985259291e-09 1.5517156644072665e-09
376 -1.0521766855953304e-08 1.0521768841815891e-08 8.946092458013948e-16
413 -3.2814965489579005e-09 5.062983460059482e-09 -1.551718481758772e-09
368 3.6631888886430295e-09 5.257110006234992e-10 8.845655917331162e-09
370 -3.4662598625060324e-09 3.4662593076955327e-09 -1.174706584607437e-15
377 -8.336747938930605e-09 5.897086618016227e-10 -1.0377831750669506e-09
379 -3.624398353772873e-09 5.907077614212562e-10 6.069262183184496e-18
410 3.663194392249977e-09 5.257143921272072e-10 -8.845654117491463e-09
414 -8.336753730704224e-09 5.897080084049608e-10 1.0377840789327102e-09
378 -5.039866033691921e-09 -3.578068951966187e-10 -1.3834817798823132e-09
380 -3.377663872360627e-09 -1.3093986431762667e-10 3.853981486322155e-16
415 -5.039863688799286e-09 -3.5780736270524643e-10 1.3834818381472302e-09
383 -3.93340744910993e-09 -3.9334087297242505e-09 1.1666802702347892e-08
384 -2.393836229634292e-09 -2.3938421465579943e-09 2.8082915733427748e-09
385 -7.208739463034599e-09 1.896717912195481e-09 9.945283270510726e-16
386 1.8967132528229027e-09 -7.208739261535095e-09 7.404499863485085e-16
417 -3.933407580205993e-09 -3.933407973494182e-09 -1.166680480534724e-08
418 -2.3938365743683837e-09 -2.393841595943149e-09 -2.8082915942817295e-09
387 -6.519161714987446e-09 1.4386444732758374e-09 -2.595256403065923e-09
388 2.926494287706288e-09 1.8116855491871766e-09 -1.0878414744539844e-09
389 -1.6775636978538002e-09 1.5130833303182508e-09 1.3595147290333271e-15
390 -2.294184998884061e-09 4.267064777799115e-09 7.168551369099937e-16
419 -6.519160640856063e-09 1.4386461416407408e-09 2.5952543623538616e-09
420 2.9264910408027515e-09 1.8116800995966623e-09 1.0878417730616838e-09
423 1.8116832052381213e-09 2.926496514784113e-09 1.0878393641715232e-09
422 1.4386431426010138e-09 -6.519161394426088e-09 2.5952554711582757e-09
396 1.5130869937249045e-09 -1.6775589225583144e-09 -2.1121032397482048e-16
395 4.2670652056062335e-09 -2.2941813668289396e-09 1.011030022663683e-17
394 1.811678883923447e-09 2.9264970058253567e-09 -1.0878387068704288e-09
393 1.4386432372815039e-09 -6.519159994854228e-09 -2.5952550238536526e-09
425 7.06902366924825e-10 7.069064330270247e-10 -8.487425242246878e-09
424 -2.305697610445425e-09 -2.3056982385943422e-09 -7.003580131695447e-09
400 -1.7587650920596954e-09 1.4029252283407484e-09 1.5516059880790388e-15
399 1.4029224126245059e-09 -1.7587643371809864e-09 -1.8887543914070152e-15
398 7.069052707633166e-10 7.069016034116423e-10 8.487422454634757e-09
397 -2.3056932359938862e-09 -2.3056995013522516e-09 7.003578404646293e-09
427 1.0523398533392565e-10 5.726913539892175e-09 2.5741108802510622e-09
428 -4.390776846018836e-10 -3.3701593208523006e-09 2.3702240649321645e-09
432 -1.6809368675345606e-09 -7.699278274204633e-10 4.482213154604154e-10
452 -2.4243808112072144e-10 1.6653751967549099e-09 8.094691940533957e-10
453 3.8807606393717134e-09 1.6425253058920893e-09 -1.0513154055814227e-09
454 2.4137801699023282e-09 2.4607721982965215e-10 -9.906734286604493e-10
455 -4.435593701524915e-09 2.6328383557708202e-09 4.141342179814048e-09
456 2.4243974167085476e-10 -1.6653738933903393e-09 8.094706409655002e-10
462 -7.523884957519258e-10 -1.1441309667433203e-09 4.987299794224744e-09
463 -8.956796206979434e-09 -7.3796020748933e-10 -1.2975251155837552e-09
465 -6.841000837765727e-10 3.991360710669247e-10 2.9610347622539e-09
429 4.946628499395328e-10 2.252252983959873e-09 -4.285817080268092e-09
430 2.2630856904270854e-11 -8.817329393915591e-10 1.78512581088473e-09
434 6.170847944059992e-10 -6.170818219563952e-10 1.4842590886088242e-09
457 6.867263146141537e-10 2.333854038869381e-09 -2.1668772730800834e-09
458 -1.3875617121096746e-09 -3.829971545818099e-11 1.7928542418426434e-09
459 3.526164387179644e-09 1.7951324000957235e-09 6.872786369845532e-10
460 6.9571923453211e-10 8.77574906401223e-10 3.1375842491756905e-09
467 -7.273510945447026e-10 5.26676868478854e-10 -1.8283094893588108e-09
469 3.048008202118033e-09 -3.0480104753269926e-09 1.1916835097079173e-10
433 -1.4392401443618103e-09 4.380113449453364e-09 -3.8817216645535855e-09
437 -2.3071796877601537e-09 2.307181866018351e-09 -4.677327606875478e-09
464 -1.0382379245987914e-08 1.2153544491450267e-09 -6.464238826221058e-09
466 -1.1785104164820977e-09 1.7022511622338893e-09 8.214294047106752e-09
473 -9.080695972063443e-10 -1.3794642378494166e-09 -6.836838083808137e-09
475 -1.7720892129431878e-09 1.7720874538500222e-09 8.865920405155085e-09
438 3.5500714002801875e-10 -3.5501328576290547e-10 -1.935515849744722e-09
474 1.3794659087172955e-09 9.080693750713485e-10 -6.83683712759588e-09
476 1.982023219634982e-10 -1.9820268854693407e-10 -7.092374834434083e-09
435 -5.622162515019242e-09 5.622164275102575e-09 -9.077188861766584e-11
439 7.699281278489413e-10 1.6809350717347129e-09 4.4822459984164583e-10
468 -5.26675928340955e-10 7.273515766077056e-10 -1.8283119057190832e-09
470 -4.851996707034807e-10 4.851944236009486e-10 6.347962166948372e-10
477 -1.2153542236482285e-09 1.0382381484992668e-08 -6.464244537116235e-09
479 -3.99131701805079e-10 6.84099627581429e-10 2.961034395367001e-09
440 -4.380113614802826e-09 1.4392386565144883e-09 -3.881719781588404e-09
478 7.379593966359024e-10 8.956796428308356e-09 -1.2975264629599599e-09
480 -1.7022533720712167e-09 1.1785123152155062e-09 8.214292828433874e-09
442 2.200622156572597e-09 6.178028010561995e-10 -3.6739101853343523e-09
443 6.178027609990691e-10 2.200620699949673e-09 -3.673910575312897e-09
483 1.298832993030134e-09 1.2988350183429246e-09 -5.345858830352441e-09
484 2.1469875088660356e-09 2.146988359169668e-09 -9.284075166190043e-09
485 6.096359642330809e-10 -2.728357525609429e-10 2.979709954566658e-09
486 -2.728366459563363e-10 6.096330825473963e-10 2.979708493040908e-09
444 4.692098590811475e-09 2.2988600208460002e-11 -5.210328813084371e-10
445 -6.725201249885517e-09 9.139838099643124e-10 -1.6079768093223762e-09
487 -1.871664279500465e-09 -7.998213407305805e-09 -2.395098474759804e-09
488 1.399372355511269e-09 -8.582151282117242e-09 -6.627797724991014e-10
489 1.1441335346481498e-09 7.523904797937335e-10 4.987298290261575e-09
490 1.1597825555767921e-10 5.496802703236154e-10 5.890941055481407e-09
496 7.523905058915609e-10 1.144134766101447e-09 4.987300276124161e-09
495 5.496816268748374e-10 1.1598199742851314e-10 5.890934825865346e-09
494 -8.582151700289406e-09 1.3993604394253617e-09 -6.627840185549248e-10
493 -7.99820743269577e-09 -1.8716619240364073e-09 -2.3950990379535506e-09
448 2.2992611990763086e-11 4.692093541185338e-09 -5.210288998724449e-10
447 9.13982573460607e-10 -6.725198548791202e-09 -1.6079728005779642e-09
500 5.278180154040275e-09 -4.6306050228744815e-10 -8.264866658390336e-11
499 -4.6305802652812467e-10 5.278179916023253e-09 -8.265120269978698e-11
498 -5.556347500845894e-10 -5.556347282352456e-10 1.2662711270866985e-09
497 -1.1645146990351443e-10 -1.1644587142018885e-10 -4.786350607086865e-09
450 8.11657905032994e-11 -1.0436296933587618e-09 1.824281282999253e-09
449 -1.043629175422804e-09 8.116520454685608e-11 1.824281352401918e-09
