LAMMPS data file via write_data, version 29 Aug 2024, timestep = 28, units = metal

500 atoms
3 atom types

0 17.6594924985362 xlo xhi
0 17.6594924985362 ylo yhi
0 17.6594924985362 zlo zhi

Masses

1 55.1641
2 58.71
3 58.71

Atoms # atomic

1 2 0.00526278614788846 0.005262786147890162 2.791813065317003e-16 0 0 0
2 3 1.7606864637057313 1.760686463705732 3.9038025046038366e-16 0 0 0
3 1 1.760371135111073 0.005578114742548203 1.7545404683421484 0 0 0
4 1 0.005578114742547343 1.7603711351110731 1.7545404683421475 0 0 0
5 1 3.5260822307210895 0.0055210431732352445 6.363670183566957e-16 0 0 0
8 1 3.525598614262777 1.765387748947778 1.759841868845743 0 0 0
11 1 0.005521043173235377 3.5260822307210886 4.760475889128722e-16 0 0 0
13 1 1.7653877489477778 3.5255986142627775 1.759841868845743 0 0 0
15 1 3.524561535436321 3.5245615354363204 1.927658125072323e-16 0 0 0
51 1 0.0005505278865511119 0.0005505278865508429 3.5306978138308374 0 0 0
52 1 1.76539872196707 1.765398721967069 3.530697813830838 0 0 0
53 1 1.7657543834314446 0.00019486642217745923 5.2979507614250485 0 0 0
54 1 0.00019486642217740103 1.7657543834314446 5.297950761425049 0 0 0
55 1 3.529491389312231 0.0005028138477944211 3.5292731764920933 0 0 0
58 1 3.531307361783918 1.7656678427140657 5.297418759792429 0 0 0
61 1 0.0005028138477945603 3.5294913893122315 3.5292731764920937 0 0 0
63 1 1.7656678427140653 3.531307361783918 5.29741875979243 0 0 0
65 1 3.5310956989073667 3.531095698907367 3.530910636955047 0 0 0
6 1 5.297464081691227 1.765782085723324 6.449178097333277e-16 0 0 0
7 1 5.297295878384425 0.0004874383199784297 1.7652682832769777 0 0 0
9 1 7.064041375632959 0.00019682519155663923 2.546858153334187e-16 0 0 0
10 1 7.063889483199796 1.7659378958118492 1.7657339782178338 0 0 0
17 1 5.296751853700331 3.531040530523571 1.7652101819214419 0 0 0
19 1 7.063828160057505 3.5316151175239097 3.786601719002209e-19 0 0 0
56 1 5.295485173047979 1.7656713877130583 3.5296052996298033 0 0 0
57 1 5.296701055068593 0.0002749280869244615 5.2966094220817626 0 0 0
59 1 7.063319320830941 0.0002714431280655677 3.5314324180869514 0 0 0
60 1 7.062803844213748 1.7658281548130252 5.296878177471734 0 0 0
67 1 5.297252160517561 3.5314237284291385 5.297166550898059 0 0 0
69 1 7.063114405204369 3.5314677636839624 3.5313812478933255 0 0 0
301 1 8.829712546429558 1.765941605807772 3.5317694316104165 0 0 0
302 1 8.829522569770194 0.00011960499859023303 5.297554325849205 0 0 0
312 1 8.82952116686085 3.531645839448513 5.297519636724483 0 0 0
12 1 1.7657820857233242 5.297464081691225 2.1108342186905053e-16 0 0 0
14 1 0.0004874383199792825 5.297295878384425 1.7652682832769784 0 0 0
18 1 3.5310405305235717 5.296751853700331 1.7652101819214419 0 0 0
21 1 0.00019682519155826318 7.064041375632959 1.0983572293900637e-18 0 0 0
23 1 1.7659378958118497 7.063889483199796 1.7657339782178338 0 0 0
25 1 3.5316151175239097 7.063828160057504 4.948760202834209e-16 0 0 0
62 1 1.765671387713058 5.295485173047978 3.529605299629803 0 0 0
64 1 0.00027492808692425574 5.296701055068593 5.2966094220817626 0 0 0
68 1 3.5314237284291385 5.297252160517561 5.297166550898059 0 0 0
71 1 0.00027144312806585426 7.063319320830941 3.5314324180869514 0 0 0
73 1 1.7658281548130266 7.062803844213748 5.296878177471735 0 0 0
75 1 3.531467763683962 7.063114405204369 3.531381247893326 0 0 0
72 1 1.765941605807773 8.829712546429558 3.5317694316104165 0 0 0
74 1 0.00011960499858860272 8.829522569770196 5.297554325849206 0 0 0
78 1 3.531645839448512 8.829521166860848 5.297519636724482 0 0 0
16 1 5.295229209661346 5.295229209661346 2.7569438514171782e-16 0 0 0
20 1 7.063127935028657 5.297283467389904 1.7655705695341395 0 0 0
27 1 5.297283467389904 7.063127935028656 1.7655705695341397 0 0 0
29 1 7.062776985567289 7.062776985567288 3.044047929374635e-16 0 0 0
66 1 5.297356555317996 5.297356555317996 3.531436016399444 0 0 0
70 1 7.063487733911377 5.2975224576683395 5.2975191129762225 0 0 0
77 1 5.2975224576683395 7.063487733911377 5.2975191129762225 0 0 0
79 1 7.063497473557751 7.06349747355775 3.5315874081824052 0 0 0
26 1 5.297659381482018 8.829709760357176 2.4034376558710944e-17 0 0 0
30 1 7.0634857385875085 8.82952342133886 1.7657330838365906 0 0 0
76 1 5.2975578212447 8.829508081238691 3.531624110210755 0 0 0
80 1 7.063597889276114 8.829649298825233 5.297627788194022 0 0 0
261 1 8.829709760357174 5.297659381482019 2.718585849540047e-19 0 0 0
272 1 8.82952342133886 7.063485738587509 1.7657330838365908 0 0 0
311 1 8.829508081238691 5.297557821244701 3.5316241102107546 0 0 0
322 1 8.829649298825235 7.063597889276114 5.2976277881940215 0 0 0
271 1 8.829474416733023 8.829474416733023 6.124282152631936e-16 0 0 0
321 1 8.829655384306726 8.829655384306726 3.531653155516573 0 0 0
22 1 1.7659731614100678 8.829923225727347 0 0 0 0
24 1 1.5199607690377785e-05 8.829764909871344 1.7659517103464923 0 0 0
28 1 3.5318582134718306 8.829764498803213 1.765926261972714 0 0 0
32 1 1.765752424662063 12.361400372756862 6.394237918328373e-16 0 0 0
33 1 1.7659340502459306 10.595676838518477 1.7659517103464923 0 0 0
34 1 1.1354041771451946e-05 12.361552265190022 1.7657339782178338 0 0 0
35 1 3.5318238240414344 10.59573022575404 1.9756715993238718e-18 0 0 0
38 1 3.531525123668285 12.36206083109422 1.7656664411306189 0 0 0
81 1 7.64404584824477e-06 10.59572920196026 3.531769431610416 0 0 0
82 1 1.7656778067255543 12.362122427558878 3.531432418086952 0 0 0
83 1 1.7658296448550317 10.595919178619624 5.297554325849205 0 0 0
84 1 0.00012109504059482597 12.362637904176072 5.296878177471735 0 0 0
85 1 3.5317354931318614 10.595928160439874 3.531718941453571 0 0 0
88 1 3.5315853857852555 12.36208579625206 5.297431828707042 0 0 0
36 1 5.297013054738366 12.362417997549946 4.4245445313603474e-16 0 0 0
37 1 5.297624698542686 10.595911886555596 1.7658303892395038 0 0 0
39 1 7.0634364364812505 10.595964304034375 2.1883664109415282e-16 0 0 0
40 1 7.063376865872706 12.362064882517116 1.765723765937502 0 0 0
86 1 5.297482948060582 12.362089500233878 3.531557378825851 0 0 0
87 1 5.297585261438175 10.595792213054125 5.297595942445295 0 0 0
89 1 7.063572947645532 10.595785187019072 3.5316487940671966 0 0 0
90 1 7.0635705925670935 12.361871155822726 5.29760236480833 0 0 0
281 1 8.829477444355446 12.36200531190857 6.290578620964453e-16 0 0 0
282 1 8.829634412745301 10.595807335644519 1.7657433580233366 0 0 0
331 1 8.829656561370749 12.361868800744286 3.5316487940671966 0 0 0
332 1 8.829677798429076 10.595763949960745 5.297649991066684 0 0 0
41 1 0.0001671641302976024 14.127977666698595 7.176937328761684e-16 0 0 0
42 1 1.7604282066803851 15.899359517668731 1.2970931369178239e-18 0 0 0
43 1 1.7654618115336416 14.128145870005394 1.765268283276978 0 0 0
44 1 0.0005615009058435662 15.899843134127043 1.7598418688457436 0 0 0
45 1 3.5298568599416122 14.129363615662188 9.087437655146911e-17 0 0 0
48 1 3.530724879408215 15.894716868981606 1.7649072052382802 0 0 0
91 1 0.00027786214056176045 14.129956575341843 3.529605299629803 0 0 0
92 1 1.7654464360058257 15.89595035907759 3.5292731764920933 0 0 0
93 1 1.7656743217666964 14.128740693321225 5.296609422081763 0 0 0
94 1 0.00028140713955423103 15.8941343866059 5.297418759792429 0 0 0
95 1 3.531344200292599 14.128334593897083 3.531229749406429 0 0 0
98 1 3.5312473397004847 15.894194408689335 5.296915288731435 0 0 0
100 1 7.0633559521377585 15.893856362604563 5.297431828707041 0 0 0
46 1 5.296078132727633 15.895584888448209 3.963543248269611e-16 0 0 0
47 1 5.2970337744463345 14.128407973943483 1.7654104126140375 0 0 0
49 1 7.063023750839874 14.128428693651452 6.887935777835036e-16 0 0 0
50 1 7.063380917295602 15.893916624721536 1.7656664411306189 0 0 0
96 1 5.2971071544927355 15.894097548097221 3.531229749406429 0 0 0
97 1 5.297441234509536 14.128000513880286 5.297424464969943 0 0 0
99 1 7.063352248155944 14.127958800329239 3.531557378825851 0 0 0
342 1 8.829649535335696 14.127856486951647 5.297595942445295 0 0 0
341 1 8.829513587949945 15.893706255257959 3.5317189414535703 0 0 0
291 1 8.829711522635778 15.893617924348387 1.1386991514751067e-15 0 0 0
292 1 8.829529861834224 14.127817049847135 1.7658303892395033 0 0 0
101 1 2.2263284796985325e-05 2.2263284797613566e-05 7.063973403467885 0 0 0
102 1 1.7659269865688234 1.7659269865688234 7.063973403467885 0 0 0
105 1 3.5317704944968242 2.0401204957740185e-05 7.063763762277373 0 0 0
108 1 3.5318766990267307 1.7659370851960574 8.8297462492681 0 0 0
111 1 2.0401204957289042e-05 3.5317704944968247 7.063763762277373 0 0 0
113 1 1.7659370851960576 3.531876699026731 8.8297462492681 0 0 0
115 1 3.531709721418609 3.5317097214186095 7.063557588847594 0 0 0
151 1 2.2263284797347967e-05 2.2263284797474646e-05 10.595519095068314 0 0 0
152 1 1.7659269865688236 1.7659269865688239 10.595519095068314 0 0 0
153 1 3.5317704944968242 2.0401204958172646e-05 10.595728736258826 0 0 0
156 1 2.0401204957832756e-05 3.5317704944968242 10.595728736258826 0 0 0
158 1 3.5317097214186095 3.5317097214186095 10.595934909688607 0 0 0
106 1 5.297522685822559 1.765826641099137 7.063519757421626 0 0 0
107 1 5.2977070067472685 1.2170022949096481e-05 8.8297462492681 0 0 0
109 1 7.06330170589971 0.00012113065840080707 7.063289429765025 0 0 0
110 1 7.063567925594288 1.765835990010484 8.8297462492681 0 0 0
117 1 5.297665064517646 3.531748006262975 8.8297462492681 0 0 0
119 1 7.06348762948956 3.5316356842506456 7.063479095333428 0 0 0
154 1 5.297522685822558 1.765826641099138 10.595972741114576 0 0 0
155 1 7.06330170589971 0.0001211306583999822 10.596203068771175 0 0 0
160 1 7.063487629489559 3.531635684250646 10.59601340320277 0 0 0
351 1 8.829462724717256 1.7658367828479304 7.063409455747476 0 0 0
352 1 8.829624528193815 0.00011262085397405787 8.8297462492681 0 0 0
362 1 8.829625356862397 3.5316522501028382 8.8297462492681 0 0 0
401 1 8.829462724717258 1.7658367828479304 10.596083042788724 0 0 0
112 1 1.7658266410991377 5.297522685822558 7.063519757421626 0 0 0
114 1 1.2170022950125697e-05 5.2977070067472685 8.8297462492681 0 0 0
118 1 3.531748006262975 5.297665064517646 8.8297462492681 0 0 0
121 1 0.00012113065839998191 7.06330170589971 7.063289429765025 0 0 0
123 1 1.765835990010484 7.063567925594289 8.829746249268101 0 0 0
125 1 3.5316356842506456 7.06348762948956 7.063479095333427 0 0 0
157 1 1.7658266410991377 5.297522685822558 10.595972741114574 0 0 0
161 1 0.00012113065840034267 7.06330170589971 10.596203068771175 0 0 0
163 1 3.5316356842506456 7.063487629489559 10.59601340320277 0 0 0
122 1 1.7658367828479309 8.829462724717258 7.063409455747476 0 0 0
124 1 0.00011262085397534731 8.829624528193815 8.8297462492681 0 0 0
128 1 3.5316522501028373 8.829625356862397 8.8297462492681 0 0 0
162 1 1.7658367828479307 8.829462724717258 10.596083042788724 0 0 0
116 1 5.297547429759153 5.297547429759153 7.063458297510302 0 0 0
120 1 7.06358171631265 5.297597710428741 8.8297462492681 0 0 0
127 1 5.29759771042874 7.06358171631265 8.8297462492681 0 0 0
129 1 7.063596524965725 7.063596524965726 7.063645189674851 0 0 0
159 1 5.297547429759153 5.297547429759153 10.596034201025898 0 0 0
165 1 7.0635965249657255 7.063596524965726 10.595847308861348 0 0 0
126 1 5.297596345676232 8.82965152192 7.063645765816173 0 0 0
130 1 7.063623817669411 8.829675061806709 8.8297462492681 0 0 0
164 1 5.297596345676232 8.82965152192 10.595846732720027 0 0 0
361 1 8.82965152192 5.297596345676231 7.063645765816173 0 0 0
372 1 8.829675061806707 7.063623817669411 8.8297462492681 0 0 0
406 1 8.82965152192 5.297596345676233 10.595846732720025 0 0 0
371 1 8.829679564235649 8.829679564235649 7.063684687870995 0 0 0
411 1 8.829679564235647 8.829679564235649 10.595807810665203 0 0 0
131 1 0.00011246700568931739 10.595979023672562 7.063409455747476 0 0 0
132 1 1.7658281191952212 12.36214004249011 7.063289429765024 0 0 0
133 1 1.7658366289996468 10.595817220196006 8.8297462492681 0 0 0
134 1 0.0001132598431377456 12.36187382279553 8.8297462492681 0 0 0
135 1 3.5316465239472583 10.595792145780834 7.063595649177303 0 0 0
138 1 3.531649958844018 12.3619072582058 8.8297462492681 0 0 0
166 1 0.00011246700568952121 10.595979023672562 10.596083042788724 0 0 0
167 1 1.7658281191952219 12.36214004249011 10.596203068771175 0 0 0
168 1 3.5316465239472588 10.595792145780834 10.595896849358896 0 0 0
136 1 5.297575355688509 12.361872848201727 7.063612977881281 0 0 0
137 1 5.297602803129444 10.595767272002908 8.8297462492681 0 0 0
139 1 7.063619497490222 10.595762088734821 7.0636737712827555 0 0 0
140 1 7.063614088551492 12.361827659838328 8.8297462492681 0 0 0
169 1 5.297575355688508 12.361872848201727 10.595879520654918 0 0 0
170 1 7.063619497490222 10.595762088734821 10.595818727253443 0 0 0
381 1 8.829679659655 12.361822250899598 7.063673771282756 0 0 0
382 1 8.82968541931955 10.59575632907027 8.8297462492681 0 0 0
416 1 8.829679659655 12.361822250899598 10.595818727253443 0 0 0
103 1 1.7659657311450514 17.65947601724477 8.8297462492681 0 -1 0
141 1 0.0001226087544826328 14.127919062567264 7.063519757421625 0 0 0
142 1 1.765928848648664 15.893671253892993 7.063763762277373 0 0 0
143 1 1.7659370798306722 14.12773474164255 8.8297462492681 0 0 0
144 1 1.216465756244677e-05 15.893565049363088 8.8297462492681 0 0 0
145 1 3.5316139939714697 14.127968310590886 7.063324943194542 0 0 0
148 1 3.5318510556234286 15.893590692766391 8.8297462492681 0 0 0
171 1 0.0001226087544825742 14.127919062567264 10.595972741114574 0 0 0
172 1 1.765928848648663 15.893671253892995 10.595728736258826 0 0 0
173 1 3.5316139939714715 14.127968310590884 10.596167555341655 0 0 0
175 1 7.063568900188091 14.12786639270131 10.595879520654918 0 0 0
146 1 5.297473437798937 15.89382775441835 7.063324943194543 0 0 0
147 1 5.297570608332984 14.127871140056836 8.8297462492681 0 0 0
149 1 7.063568900188091 14.127866392701312 7.063612977881281 0 0 0
150 1 7.063534490184019 15.893791789545803 8.8297462492681 0 0 0
174 1 5.297473437798937 15.89382775441835 10.596167555341657 0 0 0
421 1 8.829649602608987 15.893795224442561 10.595896849358896 0 0 0
391 1 8.829649602608987 15.89379522444256 7.063595649177303 0 0 0
392 1 8.829674476386913 14.127838945260377 8.8297462492681 0 0 0
176 1 1.7657543834314442 0.00019486642217596964 12.36154173711115 0 0 0
177 1 0.00019486642217713752 1.7657543834314444 12.36154173711115 0 0 0
179 1 3.531307361783918 1.7656678427140664 12.362073738743769 0 0 0
181 1 1.7656678427140655 3.531307361783918 12.36207373874377 0 0 0
201 1 0.0005505278865514389 0.0005505278865502025 14.128794684705362 0 0 0
202 1 1.7653987219670693 1.7653987219670706 14.128794684705362 0 0 0
203 1 1.7603711351110727 0.005578114742548388 15.904952030194051 0 0 0
204 1 0.005578114742547259 1.7603711351110736 15.904952030194051 0 0 0
205 1 3.5294913893122315 0.0005028138477949885 14.130219322044105 0 0 0
208 1 3.5255986142627775 1.7653877489477783 15.899650629690457 0 0 0
211 1 0.0005028138477955449 3.5294913893122315 14.130219322044105 0 0 0
213 1 1.7653877489477774 3.5255986142627767 15.899650629690457 0 0 0
215 1 3.5310956989073676 3.5310956989073663 14.128581861581154 0 0 0
178 1 5.296701055068594 0.00027492808692412363 12.362883076454436 0 0 0
180 1 7.0628038442137475 1.7658281548130266 12.362614321064465 0 0 0
183 1 5.297252160517561 3.5314237284291385 12.36232594763814 0 0 0
206 1 5.295485173047978 1.7656713877130585 14.129887198906395 0 0 0
207 1 5.297295878384425 0.00048743831997779874 15.89422421525922 0 0 0
209 1 7.063319320830942 0.000271443128065196 14.128060080449247 0 0 0
210 1 7.063889483199796 1.7659378958118497 15.893758520318366 0 0 0
217 1 5.296751853700331 3.531040530523571 15.894282316614758 0 0 0
219 1 7.063114405204369 3.531467763683962 14.128111250642872 0 0 0
426 1 8.829522569770194 0.00011960499858864145 12.361938172686994 0 0 0
431 1 8.82952116686085 3.5316458394485126 12.361972861811717 0 0 0
451 1 8.829712546429558 1.765941605807774 14.127723066925784 0 0 0
182 1 0.00027492808692446526 5.296701055068593 12.362883076454436 0 0 0
184 1 3.5314237284291385 5.297252160517561 12.36232594763814 0 0 0
186 1 1.7658281548130261 7.0628038442137475 12.362614321064466 0 0 0
212 1 1.765671387713058 5.295485173047979 14.129887198906395 0 0 0
214 1 0.0004874383199788877 5.297295878384426 15.894224215259221 0 0 0
218 1 3.5310405305235717 5.296751853700331 15.894282316614758 0 0 0
221 1 0.00027144312806562593 7.06331932083094 14.128060080449247 0 0 0
223 1 1.76593789581185 7.063889483199795 15.893758520318366 0 0 0
225 1 3.531467763683963 7.063114405204368 14.128111250642874 0 0 0
187 1 0.0001196049985887846 8.829522569770196 12.361938172686994 0 0 0
189 1 3.531645839448513 8.82952116686085 12.361972861811717 0 0 0
222 1 1.7659416058077733 8.829712546429558 14.127723066925782 0 0 0
185 1 7.063487733911377 5.29752245766834 12.361973385559978 0 0 0
188 1 5.29752245766834 7.063487733911377 12.361973385559978 0 0 0
216 1 5.297356555317996 5.297356555317996 14.128056482136756 0 0 0
220 1 7.063127935028657 5.297283467389905 15.89392192900206 0 0 0
227 1 5.297283467389904 7.063127935028656 15.893921929002058 0 0 0
229 1 7.063497473557751 7.06349747355775 14.127905090353794 0 0 0
190 1 7.063597889276114 8.829649298825233 12.361864710342177 0 0 0
226 1 5.2975578212447 8.829508081238691 14.127868388325444 0 0 0
230 1 7.063485738587509 8.82952342133886 15.893759414699609 0 0 0
436 1 8.829649298825233 7.063597889276113 12.361864710342179 0 0 0
461 1 8.829508081238691 5.297557821244701 14.127868388325444 0 0 0
472 1 8.82952342133886 7.063485738587509 15.893759414699609 0 0 0
471 1 8.829655384306726 8.829655384306726 14.127839343019627 0 0 0
191 1 1.7658296448550317 10.595919178619624 12.361938172686996 0 0 0
192 1 0.00012109504059503195 12.362637904176072 12.362614321064466 0 0 0
194 1 3.531585385785256 12.362085796252062 12.362060669829159 0 0 0
224 1 1.519960768955e-05 8.829764909871344 15.893540788189707 0 0 0
228 1 3.5318582134718306 8.829764498803213 15.893566236563485 0 0 0
231 1 7.644045848237069e-06 10.59572920196026 14.127723066925782 0 0 0
232 1 1.765677806725554 12.362122427558878 14.128060080449247 0 0 0
233 1 1.7659340502459309 10.595676838518475 15.893540788189707 0 0 0
234 1 1.1354041771203233e-05 12.361552265190022 15.893758520318366 0 0 0
235 1 3.531735493131861 10.595928160439874 14.12777355708263 0 0 0
238 1 3.531525123668285 12.36206083109422 15.893826057405581 0 0 0
193 1 5.297585261438175 10.595792213054125 12.361896556090905 0 0 0
195 1 7.063570592567093 12.361871155822726 12.361890133727869 0 0 0
236 1 5.297482948060582 12.362089500233877 14.127935119710347 0 0 0
237 1 5.297624698542686 10.595911886555596 15.893662109296695 0 0 0
239 1 7.063572947645532 10.595785187019072 14.127843704469003 0 0 0
240 1 7.063376865872707 12.362064882517116 15.893768732598698 0 0 0
441 1 8.829677798429074 10.595763949960745 12.361842507469515 0 0 0
481 1 8.829656561370747 12.36186880074429 14.127843704469004 0 0 0
482 1 8.829634412745301 10.595807335644519 15.893749140512863 0 0 0
196 1 1.7656743217666968 14.128740693321227 12.362883076454436 0 0 0
197 1 0.0002814071395546504 15.894134386605902 12.36207373874377 0 0 0
199 1 3.5312473397004838 15.894194408689337 12.362577209804764 0 0 0
241 1 0.0002778621405629355 14.129956575341842 14.129887198906395 0 0 0
242 1 1.7654464360058257 15.895950359077588 14.130219322044104 0 0 0
243 1 1.765461811533642 14.128145870005396 15.894224215259221 0 0 0
244 1 0.0005615009058427704 15.899843134127043 15.899650629690456 0 0 0
245 1 3.5313442002925983 14.128334593897083 14.128262749129771 0 0 0
248 1 3.5307248794082158 15.894716868981606 15.89458529329792 0 0 0
198 1 5.297441234509535 14.128000513880284 12.362068033566256 0 0 0
200 1 7.0633559521377585 15.893856362604563 12.362060669829159 0 0 0
246 1 5.2971071544927355 15.894097548097223 14.128262749129771 0 0 0
247 1 5.2970337744463345 14.128407973943483 15.894082085922163 0 0 0
249 1 7.063352248155944 14.127958800329237 14.127935119710349 0 0 0
250 1 7.063380917295601 15.893916624721536 15.893826057405581 0 0 0
446 1 8.829649535335696 14.127856486951645 12.361896556090905 0 0 0
492 1 8.829529861834223 14.127817049847135 15.893662109296695 0 0 0
491 1 8.829513587949947 15.893706255257959 14.127773557082628 0 0 0
251 1 8.829923225727345 1.765973161410068 4.284973433052519e-16 0 0 0
252 1 8.829764909871344 1.5199607689400461e-05 1.7659517103464926 0 0 0
254 1 12.36140037275686 1.765752424662063 8.675394834873925e-17 0 0 0
255 1 12.361552265190022 1.1354041771033449e-05 1.765733978217834 0 0 0
256 1 10.595676838518477 1.7659340502459304 1.7659517103464923 0 0 0
262 1 8.829764498803213 3.5318582134718306 1.7659262619727139 0 0 0
263 1 10.595730225754043 3.531823824041434 2.3318936060947015e-16 0 0 0
265 1 12.362060831094219 3.531525123668285 1.7656664411306189 0 0 0
303 1 10.595729201960262 7.64404584816076e-06 3.531769431610416 0 0 0
304 1 12.362122427558878 1.7656778067255543 3.5314324180869514 0 0 0
305 1 12.362637904176072 0.00012109504059478222 5.296878177471734 0 0 0
306 1 10.595919178619624 1.7658296448550308 5.297554325849206 0 0 0
313 1 10.595928160439874 3.5317354931318614 3.5317189414535703 0 0 0
315 1 12.362085796252062 3.531585385785256 5.297431828707042 0 0 0
257 1 14.127977666698596 0.0001671641302953967 9.381541113324373e-19 0 0 0
258 1 15.899359517668731 1.760428206680386 6.972062844577236e-16 0 0 0
259 1 15.899843134127043 0.0005615009058429559 1.7598418688457436 0 0 0
260 1 14.128145870005396 1.7654618115336427 1.765268283276979 0 0 0
267 1 14.129363615662188 3.529856859941612 4.886166581717195e-16 0 0 0
269 1 15.894716868981606 3.530724879408214 1.7649072052382797 0 0 0
307 1 14.129956575341843 0.00027786214056346276 3.5296052996298033 0 0 0
308 1 15.89595035907759 1.7654464360058268 3.5292731764920937 0 0 0
309 1 15.8941343866059 0.00028140713955467013 5.297418759792429 0 0 0
310 1 14.128740693321225 1.7656743217666968 5.2966094220817626 0 0 0
317 1 14.128334593897085 3.5313442002925988 3.531229749406429 0 0 0
319 1 15.894194408689337 3.5312473397004847 5.296915288731435 0 0 0
264 1 12.362417997549944 5.2970130547383665 7.161231617611913e-16 0 0 0
266 1 10.595911886555596 5.297624698542686 1.7658303892395038 0 0 0
273 1 10.595964304034375 7.06343643648125 7.346769641797502e-17 0 0 0
275 1 12.362064882517116 7.063376865872705 1.765723765937502 0 0 0
314 1 12.362089500233878 5.297482948060581 3.53155737882585 0 0 0
316 1 10.595792213054125 5.297585261438175 5.297595942445295 0 0 0
323 1 10.595785187019072 7.0635729476455325 3.531648794067196 0 0 0
325 1 12.361871155822726 7.063570592567093 5.297602364808331 0 0 0
274 1 12.36200531190857 8.829477444355446 4.774633788162056e-16 0 0 0
276 1 10.595807335644519 8.829634412745301 1.7657433580233368 0 0 0
324 1 12.36186880074429 8.829656561370749 3.531648794067196 0 0 0
326 1 10.595763949960745 8.829677798429076 5.297649991066683 0 0 0
268 1 15.895584888448209 5.296078132727633 6.574043899056061e-16 0 0 0
270 1 14.128407973943483 5.297033774446335 1.7654104126140377 0 0 0
277 1 14.128428693651454 7.063023750839875 8.324594735518576e-16 0 0 0
279 1 15.893916624721536 7.063380917295601 1.7656664411306187 0 0 0
318 1 15.894097548097223 5.2971071544927355 3.5312297494064295 0 0 0
320 1 14.128000513880286 5.297441234509536 5.297424464969944 0 0 0
327 1 14.127958800329239 7.063352248155944 3.531557378825851 0 0 0
329 1 15.893856362604563 7.063355952137759 5.297431828707042 0 0 0
278 1 15.893617924348385 8.829711522635778 0 0 0 0
280 1 14.127817049847136 8.829529861834224 1.7658303892395022 0 0 0
328 1 15.893706255257959 8.829513587949945 3.5317189414535703 0 0 0
330 1 14.127856486951647 8.829649535335696 5.297595942445295 0 0 0
283 1 10.595967331656798 10.595967331656798 6.3993776178485e-16 0 0 0
284 1 12.362664762822531 12.362664762822533 5.716650524638908e-16 0 0 0
285 1 12.361956009802311 10.59591832705096 1.7657330838365908 0 0 0
286 1 10.595918327050962 12.361956009802311 1.7657330838365906 0 0 0
333 1 10.595786364083095 10.595786364083093 3.531653155516573 0 0 0
334 1 12.36194427483207 12.36194427483207 3.531587408182406 0 0 0
335 1 12.361843859113709 10.595792449564588 5.297627788194022 0 0 0
336 1 10.595792449564588 12.361843859113707 5.2976277881940215 0 0 0
287 1 14.127782366907802 10.595731988032645 0 0 0 0
288 1 15.89382663086591 12.361613588332315 4.223517301964002e-19 0 0 0
289 1 15.89358353491799 10.595677249586608 1.7659262619727127 0 0 0
290 1 14.128158280999916 12.362313813361165 1.7655705695341402 0 0 0
337 1 14.127883927145119 10.59593366715113 3.531624110210755 0 0 0
338 1 15.893973984705859 12.36232734318545 3.531381247893325 0 0 0
339 1 15.893795908941307 10.59592058152897 5.297519636724483 0 0 0
340 1 14.12791929072148 12.361954014478442 5.2975191129762225 0 0 0
31 1 17.659468586979752 10.595518522662474 1.1651082212314488e-19 -1 0 0
253 1 10.595518522662474 17.659468586979752 4.762362556060987e-16 0 -1 0
346 1 10.59592058152897 15.893795908941307 5.297519636724483 0 0 0
345 1 12.361954014478442 14.127919290721481 5.2975191129762225 0 0 0
344 1 12.36232734318545 15.893973984705859 3.5313812478933255 0 0 0
343 1 10.59593366715113 14.127883927145119 3.5316241102107546 0 0 0
296 1 10.595677249586608 15.89358353491799 1.7659262619727136 0 0 0
295 1 12.362313813361164 14.128158280999916 1.7655705695341404 0 0 0
294 1 12.361613588332316 15.893826630865911 1.379931350833933e-16 0 0 0
293 1 10.595731988032647 14.127782366907802 8.059371825593952e-16 0 0 0
350 1 14.128189587872258 15.894018019960683 5.297166550898059 0 0 0
349 1 15.894018019960683 14.128189587872258 5.297166550898059 0 0 0
348 1 15.894346049482454 15.894346049482452 3.530910636955047 0 0 0
347 1 14.128085193071824 14.128085193071824 3.5314360163994434 0 0 0
300 1 14.12868989468949 15.894401217866248 1.7652101819214407 0 0 0
299 1 15.894401217866248 14.128689894689488 1.7652101819214423 0 0 0
298 1 15.9008802129535 15.9008802129535 1.2306455586757177e-18 0 0 0
297 1 14.130212538728474 14.130212538728474 3.0303722409619713e-16 0 0 0
353 1 10.595979023672562 0.00011246700569036607 7.063409455747476 0 0 0
354 1 12.36214004249011 1.7658281191952214 7.063289429765024 0 0 0
355 1 12.361873822795532 0.0001132598431372704 8.8297462492681 0 0 0
356 1 10.595817220196006 1.765836628999646 8.8297462492681 0 0 0
363 1 10.595792145780834 3.531646523947259 7.063595649177302 0 0 0
365 1 12.3619072582058 3.5316499588440173 8.8297462492681 0 0 0
402 1 10.595979023672562 0.00011246700569135202 10.596083042788724 0 0 0
403 1 12.362140042490108 1.7658281191952212 10.596203068771175 0 0 0
407 1 10.595792145780834 3.5316465239472583 10.595896849358896 0 0 0
357 1 14.127919062567264 0.00012260875448263998 7.063519757421625 0 0 0
358 1 15.893671253892995 1.765928848648663 7.063763762277374 0 0 0
359 1 15.893565049363088 1.216465756308541e-05 8.8297462492681 0 0 0
360 1 14.127734741642552 1.7659370798306722 8.8297462492681 0 0 0
367 1 14.127968310590884 3.531613993971471 7.063324943194542 0 0 0
369 1 15.89359069276639 3.531851055623428 8.8297462492681 0 0 0
404 1 14.127919062567262 0.00012260875448211862 10.595972741114576 0 0 0
405 1 15.893671253892995 1.7659288486486633 10.595728736258826 0 0 0
409 1 14.127968310590886 3.5316139939714706 10.596167555341657 0 0 0
104 1 17.659476017244767 1.765965731145051 8.8297462492681 -1 0 0
364 1 12.361872848201727 5.297575355688509 7.06361297788128 0 0 0
366 1 10.595767272002906 5.297602803129444 8.8297462492681 0 0 0
373 1 10.595762088734821 7.063619497490222 7.063673771282756 0 0 0
375 1 12.361827659838326 7.063614088551493 8.8297462492681 0 0 0
408 1 12.361872848201727 5.297575355688509 10.595879520654918 0 0 0
412 1 10.595762088734821 7.063619497490222 10.595818727253443 0 0 0
374 1 12.361822250899598 8.829679659655 7.063673771282756 0 0 0
376 1 10.595756329070271 8.82968541931955 8.8297462492681 0 0 0
413 1 12.361822250899598 8.829679659655 10.595818727253443 0 0 0
368 1 15.893827754418348 5.297473437798937 7.063324943194542 0 0 0
370 1 14.127871140056836 5.297570608332984 8.8297462492681 0 0 0
377 1 14.12786639270131 7.063568900188092 7.06361297788128 0 0 0
379 1 15.893791789545803 7.063534490184019 8.8297462492681 0 0 0
410 1 15.893827754418348 5.297473437798937 10.596167555341657 0 0 0
414 1 14.12786639270131 7.06356890018809 10.595879520654918 0 0 0
378 1 15.893795224442561 8.829649602608988 7.063595649177302 0 0 0
380 1 14.127838945260377 8.829674476386913 8.8297462492681 0 0 0
415 1 15.893795224442561 8.829649602608988 10.595896849358896 0 0 0
383 1 10.595762184154172 10.595762184154172 7.063684687870996 0 0 0
384 1 12.361845223424096 12.361845223424094 7.063645189674852 0 0 0
385 1 12.36181793072041 10.595766686583111 8.8297462492681 0 0 0
386 1 10.595766686583113 12.36181793072041 8.8297462492681 0 0 0
417 1 10.595762184154172 10.595762184154172 10.595807810665203 0 0 0
418 1 12.361845223424094 12.361845223424094 10.59584730886135 0 0 0
387 1 14.12784540271359 10.59579022646982 7.063645765816173 0 0 0
388 1 15.893806064139175 12.36195411890026 7.063479095333428 0 0 0
389 1 15.893789498286981 10.595816391527423 8.829746249268101 0 0 0
390 1 14.12784403796108 12.361860032077171 8.8297462492681 0 0 0
419 1 14.12784540271359 10.595790226469818 10.595846732720025 0 0 0
420 1 15.893806064139175 12.36195411890026 10.59601340320277 0 0 0
423 1 12.361954118900261 15.893806064139175 10.59601340320277 0 0 0
422 1 10.595790226469818 14.127845402713588 10.595846732720027 0 0 0
396 1 10.595816391527423 15.893789498286981 8.8297462492681 0 0 0
395 1 12.361860032077171 14.12784403796108 8.8297462492681 0 0 0
394 1 12.36195411890026 15.893806064139174 7.063479095333428 0 0 0
393 1 10.59579022646982 14.12784540271359 7.063645765816173 0 0 0
425 1 15.893732026971211 15.893732026971211 10.595934909688605 0 0 0
424 1 14.127894318630666 14.127894318630666 10.596034201025898 0 0 0
400 1 14.127776683872176 15.893693742126844 8.8297462492681 0 0 0
399 1 15.893693742126846 14.127776683872176 8.8297462492681 0 0 0
398 1 15.893732026971211 15.893732026971211 7.063557588847594 0 0 0
397 1 14.127894318630666 14.127894318630666 7.063458297510303 0 0 0
427 1 12.362637904176072 0.00012109504059460284 12.362614321064465 0 0 0
428 1 10.595919178619626 1.7658296448550321 12.361938172686994 0 0 0
432 1 12.36208579625206 3.531585385785255 12.362060669829159 0 0 0
452 1 8.829764909871344 1.519960768948004e-05 15.893540788189707 0 0 0
453 1 10.59572920196026 7.644045845730678e-06 14.127723066925784 0 0 0
454 1 12.362122427558878 1.7656778067255554 14.128060080449249 0 0 0
455 1 12.361552265190024 1.1354041770570635e-05 15.893758520318366 0 0 0
456 1 10.595676838518477 1.7659340502459306 15.893540788189709 0 0 0
462 1 8.829764498803213 3.5318582134718297 15.893566236563485 0 0 0
463 1 10.595928160439874 3.5317354931318614 14.127773557082628 0 0 0
465 1 12.36206083109422 3.5315251236682847 15.893826057405581 0 0 0
429 1 15.8941343866059 0.000281407139554664 12.36207373874377 0 0 0
430 1 14.128740693321227 1.7656743217666966 12.362883076454436 0 0 0
434 1 15.894194408689335 3.5312473397004847 12.362577209804764 0 0 0
457 1 14.129956575341843 0.00027786214056258027 14.129887198906395 0 0 0
458 1 15.895950359077588 1.7654464360058262 14.130219322044105 0 0 0
459 1 15.89984313412704 0.0005615009058416217 15.899650629690456 0 0 0
460 1 14.128145870005396 1.7654618115336431 15.89422421525922 0 0 0
467 1 14.128334593897085 3.5313442002925983 14.128262749129771 0 0 0
469 1 15.894716868981606 3.530724879408214 15.894585293297922 0 0 0
433 1 10.595792213054125 5.297585261438175 12.361896556090905 0 0 0
437 1 12.361871155822726 7.063570592567093 12.361890133727867 0 0 0
464 1 12.362089500233877 5.297482948060582 14.127935119710349 0 0 0
466 1 10.595911886555596 5.297624698542687 15.893662109296695 0 0 0
473 1 10.595785187019072 7.063572947645532 14.127843704469003 0 0 0
475 1 12.362064882517114 7.063376865872705 15.893768732598698 0 0 0
438 1 10.595763949960745 8.829677798429076 12.361842507469516 0 0 0
474 1 12.361868800744288 8.82965656137075 14.127843704469003 0 0 0
476 1 10.595807335644519 8.829634412745301 15.893749140512863 0 0 0
435 1 14.128000513880286 5.297441234509536 12.362068033566256 0 0 0
439 1 15.893856362604563 7.063355952137758 12.36206066982916 0 0 0
468 1 15.894097548097221 5.297107154492737 14.128262749129771 0 0 0
470 1 14.128407973943483 5.297033774446335 15.894082085922161 0 0 0
477 1 14.127958800329239 7.063352248155943 14.127935119710347 0 0 0
479 1 15.893916624721536 7.063380917295601 15.893826057405581 0 0 0
440 1 14.127856486951647 8.829649535335696 12.361896556090905 0 0 0
478 1 15.893706255257959 8.829513587949947 14.127773557082628 0 0 0
480 1 14.127817049847135 8.829529861834224 15.893662109296695 0 0 0
442 1 12.361843859113707 10.595792449564586 12.361864710342179 0 0 0
443 1 10.595792449564588 12.361843859113709 12.361864710342177 0 0 0
483 1 10.595786364083095 10.595786364083093 14.127839343019629 0 0 0
484 1 12.36194427483207 12.36194427483207 14.127905090353794 0 0 0
485 1 12.361956009802311 10.59591832705096 15.893759414699607 0 0 0
486 1 10.595918327050962 12.361956009802311 15.893759414699607 0 0 0
444 1 15.893795908941307 10.595920581528969 12.361972861811717 0 0 0
445 1 14.127919290721481 12.361954014478444 12.361973385559978 0 0 0
487 1 14.127883927145119 10.595933667151128 14.127868388325444 0 0 0
488 1 15.893973984705859 12.362327343185452 14.128111250642874 0 0 0
489 1 15.89358353491799 10.595677249586608 15.893566236563487 0 0 0
490 1 14.128158280999916 12.362313813361165 15.893921929002058 0 0 0
496 1 10.595677249586608 15.89358353491799 15.893566236563485 0 0 0
495 1 12.362313813361164 14.128158280999916 15.893921929002058 0 0 0
494 1 12.36232734318545 15.893973984705859 14.128111250642874 0 0 0
493 1 10.59593366715113 14.127883927145119 14.127868388325446 0 0 0
448 1 10.59592058152897 15.893795908941307 12.361972861811717 0 0 0
447 1 12.361954014478442 14.12791929072148 12.361973385559976 0 0 0
500 1 14.12868989468949 15.894401217866248 15.894282316614758 0 0 0
499 1 15.894401217866248 14.128689894689488 15.894282316614758 0 0 0
498 1 15.894346049482454 15.894346049482454 14.128581861581154 0 0 0
497 1 14.128085193071824 14.128085193071822 14.128056482136754 0 0 0
450 1 14.128189587872258 15.894018019960683 12.362325947638139 0 0 0
449 1 15.894018019960683 14.128189587872257 12.36232594763814 0 0 0

Velocities

1 -8.153307145297267e-11 -8.153395522691592e-11 -9.386534542594167e-16
2 8.153446610527282e-11 8.153281031202684e-11 3.9506124206613166e-16
3 -1.3053851393090641e-09 1.3053844631518583e-09 -5.288349275942213e-09
4 1.3053890618400756e-09 -1.3053855519515592e-09 -5.2883450260279286e-09
5 4.130157684621834e-09 2.8188765497286747e-09 -5.165671812697253e-16
8 1.7756554088637755e-09 4.904723149235651e-09 -2.6388898105910466e-11
11 2.8188727824134233e-09 4.1301596511970784e-09 9.672825545015256e-16
13 4.904723917076506e-09 1.7756538314034354e-09 -2.6389420249899383e-11
15 -6.147191780516517e-10 -6.147183281362331e-10 2.633391518355769e-16
51 -3.0099088392395313e-09 -3.009906949579635e-09 7.393459966872877e-09
52 3.0099067371901154e-09 3.0099097549417738e-09 7.3934571155483185e-09
53 -1.226825261056034e-09 1.2268197316466008e-09 -2.379356957042353e-09
54 1.2268206103323843e-09 -1.2268261324598911e-09 -2.3793592023029876e-09
55 -2.0886637355275178e-09 5.703002355997758e-10 -2.231616587426628e-09
58 -2.1994045600258532e-09 3.804286572071847e-09 1.0831918856164915e-10
61 5.703006225478206e-10 -2.088666613825071e-09 -2.2316177319836153e-09
63 3.804287163696248e-09 -2.199404646633843e-09 1.0831771860824388e-10
65 3.503159152988358e-09 3.5031582109160957e-09 2.274856613068809e-09
6 7.530838081132216e-09 2.9880697859436615e-09 -3.4164371278818005e-16
7 2.2332106309272237e-09 2.532495612085962e-10 1.5111157339923922e-09
9 5.2864319295549694e-09 2.5102311641385386e-09 -7.864480493312279e-16
10 1.4115119896317588e-09 9.871015481010066e-10 -4.5897963785320425e-11
17 6.107634089716489e-09 2.2978508526019472e-09 6.0915901963367026e-09
19 -1.0549232983673778e-09 -6.501220805659231e-10 3.7866017190022086e-16
56 -8.571176786195978e-10 4.870993106839897e-09 -5.0172777255597316e-09
57 -3.3564020164396054e-09 -6.873409612094464e-10 7.011095659856284e-10
59 -7.074368961432364e-10 -1.522124906808732e-09 -3.3273001168422653e-09
60 3.5894022251219333e-10 2.5253362946285012e-09 6.68214683881293e-10
67 -4.981839414308639e-10 2.4039003894817674e-09 5.507186674852267e-10
69 5.618698981811415e-09 3.883931832268326e-09 -2.0818733300845045e-09
301 -8.281671058153273e-11 -2.4224730853792278e-09 -1.5919722917759298e-09
302 -9.304426675404125e-10 -1.0529806673112514e-09 2.8572068575582372e-09
312 1.3990509466366507e-09 5.417307904338784e-09 4.519024887068935e-09
12 2.988071138175109e-09 7.530839834559406e-09 3.373473288140142e-16
14 2.53248816216504e-10 2.2332099307244897e-09 1.5111121640279832e-09
18 2.2978482995322163e-09 6.107632712269305e-09 6.091590692639312e-09
21 2.510230007525898e-09 5.286433087182149e-09 1.0983572293900637e-15
23 9.871018512111924e-10 1.4115117256619275e-09 -4.589875569481455e-11
25 -6.501228515612127e-10 -1.0549208530199562e-09 -3.9322402466561396e-16
62 4.870994504969762e-09 -8.571146380313252e-10 -5.017275681737282e-09
64 -6.873394826397171e-10 -3.356400455680051e-09 7.011104562011286e-10
68 2.403900674716107e-09 -4.981847755722106e-10 5.507183377013115e-10
71 -1.522123682534859e-09 -7.074341798329889e-10 -3.3272978958547184e-09
73 2.525330314953287e-09 3.5894047070451756e-10 6.682134301763007e-10
75 3.883932605580696e-09 5.618696670854551e-09 -2.081875237580913e-09
72 -2.4224769205271225e-09 -8.28179485990937e-11 -1.5919718542535197e-09
74 -1.052975565108166e-09 -9.304473571010029e-10 2.857204245773975e-09
78 5.417311686339521e-09 1.399055746952242e-09 4.51902802543461e-09
16 -7.698481189757481e-10 -7.698490349814044e-10 -2.3878650263259117e-16
20 3.3917720732607684e-09 -7.517961603630147e-10 5.307133092126082e-09
27 -7.517949351789009e-10 3.391774856170301e-09 5.307132299785468e-09
29 6.8952743087278685e-09 6.895279322334183e-09 5.027563340053413e-16
66 2.1362445447272764e-09 2.1362444779762846e-09 -1.0413569797059888e-09
70 5.173054657497246e-09 6.130284348784115e-10 1.5794127880337196e-09
77 6.130281581995801e-10 5.173053602062196e-09 1.579411981161846e-09
79 -2.028325272498569e-10 -2.0283037658315263e-10 -3.1705145810352866e-09
26 -1.3540068700262494e-09 3.6938377231944164e-10 -2.954510664143501e-16
30 1.6161549175604538e-09 7.429939403222439e-10 1.6622847973508648e-09
76 1.333378803869645e-09 3.5342961510881008e-09 6.701874452921522e-10
80 6.082206217504065e-09 4.323913269548415e-09 4.539076253310973e-09
261 3.693899956199192e-10 -1.3540104017688417e-09 2.7185858495400473e-16
272 7.429947654134523e-10 1.61615412989875e-09 1.6622837020277714e-09
311 3.5342975458310822e-09 1.3333765827563297e-09 6.701876429471487e-10
322 4.323910220848569e-09 6.082205690778057e-09 4.53907927348994e-09
271 5.703752246699569e-09 5.703751900331611e-09 7.342609102552359e-16
321 -1.964730705205709e-09 -1.9647292625152305e-09 -2.660237405026722e-09
22 3.970653209336766e-10 7.995694578254104e-09 -1.6718089320274172e-16
24 1.8335512068550376e-09 1.0282851038459848e-09 1.1002649945826697e-09
28 -1.2303877778749432e-09 3.2105481695044644e-09 -2.8812547373633214e-09
32 -2.510226484287183e-09 -5.286434495220365e-09 -1.6432880536951892e-15
33 -1.8335517432902811e-09 -1.0282857076390473e-09 1.1002663271751976e-09
34 -9.871022492898346e-10 -1.411512133449805e-09 -4.589828540373566e-11
35 -2.3540002771900364e-09 3.0585742943423496e-09 1.7974514960608945e-16
38 -3.8529196771342206e-09 -5.790321098283814e-10 3.5192810676367974e-09
81 2.4224756607538583e-09 8.281961364759146e-11 -1.5919700756430006e-09
82 1.522125415633338e-09 7.074333018156634e-10 -3.3273003261976487e-09
83 1.052975696182841e-09 9.304450299186964e-10 2.857206049264409e-09
84 -2.5253335020097336e-09 -3.5894264496637e-10 6.682127456752207e-10
85 -4.054220421131531e-09 -3.115149261066335e-10 -1.7156778841185512e-09
88 -1.6333243281881911e-09 2.4463849692882533e-09 9.664417702381504e-11
36 -3.703752723986428e-09 4.381146756407949e-09 -5.985482686501341e-17
37 -3.0065200228062782e-09 2.227713306348348e-09 -1.6791803857952059e-09
39 6.4227742944936504e-09 -3.655028999792862e-09 2.2058168667584982e-16
40 -1.7515639952849484e-09 1.7515612457509116e-09 3.3811533673497174e-09
86 -3.962979703102516e-09 5.694569224153105e-10 -3.2637540300442463e-09
87 3.8010995018065474e-09 -8.967712512157277e-10 6.422325270529366e-09
89 7.791906956147355e-10 3.1649531729970186e-09 1.471943679335959e-09
90 4.967959665957347e-09 -4.967957992128818e-09 4.051271082465083e-09
281 3.6550332554720055e-09 -6.4227772425407756e-09 -1.3617202335642557e-15
282 -3.779184615792761e-10 3.7791849313429045e-10 1.5530756089305167e-09
331 -3.164952834387442e-09 -7.791881401042139e-10 1.471943371371156e-09
332 1.7087725292085374e-09 -1.7087730583618545e-09 3.565118787134913e-09
41 -2.988072410084917e-09 -7.530837962194085e-09 -4.684705972868117e-16
42 -2.81887369508153e-09 -4.1301592267214525e-09 1.2970931369178238e-15
43 -2.5324919487667586e-10 -2.23320642828857e-09 1.5111148686568071e-09
44 -4.904725084612036e-09 -1.7756561831847624e-09 -2.6391757748268227e-11
45 -4.839334323243443e-09 4.40186276338185e-09 1.0511328582577479e-15
48 1.8352792793210332e-09 -1.8352811400627098e-09 2.9264519403744807e-09
91 -4.870989548405204e-09 8.571133636325773e-10 -5.017276344700737e-09
92 -5.702977692463329e-10 2.088662604821184e-09 -2.231615232462384e-09
93 6.873391428164859e-10 3.356404860031858e-09 7.011061270958941e-10
94 -3.804282182858602e-09 2.199410259482016e-09 1.083202727439226e-10
95 1.1181378129351782e-09 1.311241423254824e-10 -2.484420344576354e-09
98 -1.374548299755414e-09 1.3745493030369251e-09 1.3729325579841618e-09
100 -2.44638255457542e-09 1.633328893095571e-09 9.66461796442388e-11
46 -4.401860373696341e-09 4.83932905598336e-09 1.0834899630253916e-15
47 -2.8033337729950615e-09 2.803341102199446e-09 7.469284574034551e-09
49 -4.381150545936247e-09 3.7037592694515593e-09 4.150698038137036e-16
50 5.790234807456179e-10 3.852915939685505e-09 3.519280949608907e-09
96 -1.31120986090104e-10 -1.1181384297448026e-09 -2.48442284352098e-09
97 -5.5218700360950315e-09 5.5218658310735145e-09 -2.1078698877300028e-09
99 -5.69459015551211e-10 3.962978775288912e-09 -3.26375618065169e-09
342 8.967699233847782e-10 -3.801104459414089e-09 6.422324467448385e-09
341 3.115199717131566e-10 4.054219290223712e-09 -1.7156764699077648e-09
291 -3.058569187234275e-09 2.3539935316988973e-09 -1.6214422745470995e-15
292 -2.227710785508249e-09 3.006521361119219e-09 -1.679179139024133e-09
101 1.6065539391420933e-10 1.6065199204093422e-10 8.675349038621594e-09
102 -1.6065580170208678e-10 -1.6065437990596055e-10 8.675351361816856e-09
105 -2.233359945040405e-09 1.9731512304845035e-09 -1.1137996793586427e-09
108 -3.432797626070508e-10 -1.3820726235390615e-09 -1.9175783919785717e-16
111 1.973151339053682e-09 -2.233360770292209e-09 -1.1137977192903464e-09
113 -1.3820743853394226e-09 -3.4328354192684344e-10 -2.0177004352055038e-16
115 4.927052929066845e-10 4.927032300497722e-10 2.114615418676357e-09
151 1.6065325302785284e-10 1.6065371907114132e-10 -8.675347997306121e-09
152 -1.606569352552937e-10 -1.6065521611384016e-10 -8.675348531314056e-09
153 -2.2333597459678983e-09 1.9731516703813325e-09 1.1138011860941319e-09
156 1.9731503741984364e-09 -2.233359772668295e-09 1.1138004354488873e-09
158 4.927038536986474e-10 4.927044726623899e-10 -2.1146166659998854e-09
106 -2.0688939937467664e-09 3.299175883826448e-09 -2.2498477948840246e-09
107 -1.3327773349420765e-09 4.593280496665412e-09 1.0886177713741442e-15
109 4.605303885821307e-09 9.924462523818112e-11 5.963198696199946e-09
110 3.315607746107361e-09 2.1344665173692403e-09 1.5201021323879058e-15
117 2.3239449119583835e-09 2.2787925896726035e-09 -4.0734905366095607e-17
119 6.511521818957236e-10 3.4816863674449917e-09 -1.6012417750595707e-09
154 -2.0688920579235574e-09 3.2991732603903986e-09 2.249843122140814e-09
155 4.605303269891701e-09 9.924784523870766e-11 -5.963198363355228e-09
160 6.511558386364222e-10 3.481686675234949e-09 1.601242558473484e-09
351 5.679955711079164e-09 1.1407958315187851e-09 7.706597579998422e-09
352 -6.442459064288496e-10 -8.284496909717749e-11 -2.742858937482369e-16
362 2.2257946376047224e-09 1.68671293984233e-09 6.116818161465106e-16
401 5.6799515595846655e-09 1.1407959304316184e-09 -7.70659655385363e-09
112 3.2991739468340302e-09 -2.068890590266347e-09 -2.2498471034708035e-09
114 4.593273090591903e-09 -1.3327774743997372e-09 -5.2187139075991975e-17
118 2.278792834000256e-09 2.323945237752884e-09 -3.3982323119250587e-16
121 9.924777042355125e-11 4.605303231661587e-09 5.963198672837099e-09
123 2.1344668141077405e-09 3.3156064547790823e-09 -4.4067791159285314e-15
125 3.4816861610863918e-09 6.511529371800722e-10 -1.6012385457825585e-09
157 3.299174529388141e-09 -2.0688920645530262e-09 2.2498490201700665e-09
161 9.924546205288794e-11 4.605303491383628e-09 -5.96319632684315e-09
163 3.481686677216628e-09 6.51155435699389e-10 1.6012439960749699e-09
122 1.1407938350573019e-09 5.679951916892105e-09 7.70659673013693e-09
124 -8.28463089716319e-11 -6.442452243550785e-10 -1.8204815956741388e-16
128 1.6867171577298875e-09 2.2257948809274658e-09 7.621749613889061e-16
162 1.140795131240198e-09 5.679952154533696e-09 -7.706594415394583e-09
116 2.383509440358997e-09 2.3835094944106186e-09 4.14509585541334e-09
120 6.773755081406156e-09 6.163880098401383e-09 -8.965871858695132e-16
127 6.163881305576833e-09 6.77375675257422e-09 -1.4082479978880706e-16
129 6.730034467616882e-09 6.730030187057824e-09 5.683257076779038e-09
159 2.3835099360396308e-09 2.3835097974240613e-09 -4.145095069159665e-09
165 6.730031047538792e-09 6.730030126981931e-09 -5.6832558200399095e-09
126 3.776809827698189e-09 1.2530874848636708e-11 1.6628207629101384e-09
130 -6.444855825401553e-10 2.529358071620422e-09 -1.012187767194821e-15
164 3.776809822119951e-09 1.2529962999657905e-11 -1.6628227807670212e-09
361 1.2529025239335503e-11 3.776814062332756e-09 1.6628201572965942e-09
372 2.529360503178062e-09 -6.444823299463711e-10 -1.6238695833413318e-15
406 1.252922063769344e-11 3.776808339952273e-09 -1.6628174484199798e-09
371 2.177127602772481e-09 2.177126477265068e-09 -4.100171075722502e-09
411 2.1771319288720247e-09 2.177126149628752e-09 4.1001728428033045e-09
131 -1.140791012097174e-09 -5.679951571304016e-09 7.706597917394344e-09
132 -9.924872921052498e-11 -4.605304682888833e-09 5.963200561283341e-09
133 8.28435345576801e-11 6.442459258473199e-10 -1.7962085077318167e-16
134 -2.134465617444505e-09 -3.3156069171814075e-09 -6.141091249407427e-16
135 1.1510275106824552e-09 4.200706121168455e-09 6.759622130362331e-10
138 3.2285240641483404e-09 -1.256309867193628e-09 -1.7274648826334478e-15
166 -1.1407894707560899e-09 -5.679950587637127e-09 -7.706595345660677e-09
167 -9.924958847783814e-11 -4.605304422640559e-09 -5.963196486438703e-09
168 1.151026731300624e-09 4.200707100872107e-09 -6.759633944053788e-10
136 9.576128997044763e-10 3.54305004511022e-10 1.813736934674575e-09
137 2.1339377576150924e-09 5.560821255161533e-10 4.922159707561687e-17
139 5.867754550515385e-09 -1.1522997381101517e-09 4.293710867587538e-09
140 4.799069522138788e-09 -4.79906999267639e-09 -4.996178995877989e-16
169 9.576150978358574e-10 3.5430256926058426e-10 -1.8137378759441542e-09
170 5.867752823598958e-09 -1.152298777426843e-09 -4.293710260760339e-09
381 1.1522997502466956e-09 -5.867752199059991e-09 4.293709325639626e-09
382 -5.047092619481036e-09 5.047096442492387e-09 -2.767132025424691e-16
416 1.1522984441175224e-09 -5.867754400629067e-09 -4.293710395475977e-09
103 -9.529956103370329e-10 9.529877170322478e-10 -1.3480666215966997e-15
141 -3.29917187391232e-09 2.068890303540496e-09 -2.2498444179925927e-09
142 -1.973154935111661e-09 2.2333668394744356e-09 -1.1137992290764166e-09
143 -4.593280367663668e-09 1.3327777353354327e-09 -3.3436178640548345e-16
144 1.3820793297674365e-09 3.4328420943676183e-10 -1.1165620453468051e-15
145 -1.195367172357012e-09 3.96776286563544e-09 6.708591104318076e-10
148 -4.847986674738977e-09 4.847985795900153e-09 -1.5291986143194155e-16
171 -3.2991708301695386e-09 2.0688904940842363e-09 2.2498486967311696e-09
172 -1.973153032101566e-09 2.233361021890825e-09 1.1137989535768684e-09
173 -1.1953725247151285e-09 3.967768683888216e-09 -6.708555507810904e-10
175 -3.543023258904325e-10 -9.576128613985094e-10 -1.8137369486316005e-09
146 -3.967767474414524e-09 1.1953713207794482e-09 6.708565607046632e-10
147 2.3305170221756036e-09 -2.330517727451626e-09 -7.664440855475117e-16
149 -3.5430242488860095e-10 -9.576168075957817e-10 1.8137363284542037e-09
150 1.2563115334965218e-09 -3.2285231994195824e-09 5.968145497818384e-16
174 -3.9677668639155474e-09 1.195370225309389e-09 -6.70857767077134e-10
421 -4.200708009265141e-09 -1.1510263622074624e-09 -6.759639721879846e-10
391 -4.200707393032121e-09 -1.151020893480749e-09 6.759625601010935e-10
392 -5.560830047497999e-10 -2.1339391414489624e-09 3.5924170154636334e-16
176 -1.2268237803976696e-09 1.2268276716770803e-09 2.379356911530313e-09
177 1.2268203336191817e-09 -1.2268254444932589e-09 2.3793573551209953e-09
179 -2.1994061773554514e-09 3.804284341957775e-09 -1.0831664695141122e-10
181 3.8042874064271275e-09 -2.19940443394091e-09 -1.083209469289402e-10
201 -3.009908805257208e-09 -3.009900861889179e-09 -7.393457014051729e-09
202 3.0099090140057643e-09 3.009904847530219e-09 -7.393456439993199e-09
203 -1.3053844305348963e-09 1.3053837141753884e-09 5.288345512703342e-09
204 1.3053864597650482e-09 -1.3053884046462196e-09 5.288345526356954e-09
205 -2.088667457689403e-09 5.703007706850658e-10 2.2316164300115638e-09
208 1.7756542275371491e-09 4.904722123817985e-09 2.6389168911436894e-11
211 5.702924680039263e-10 -2.0886646938238145e-09 2.231617856990018e-09
213 4.904725053057022e-09 1.775656821870389e-09 2.6388265154326927e-11
215 3.50315682749616e-09 3.5031607438066e-09 -2.274858729494463e-09
178 -3.3564042948339533e-09 -6.873391528295791e-10 -7.011107403154125e-10
180 3.589435715915022e-10 2.5253322392023332e-09 -6.68213762377006e-10
183 -4.981850805340082e-10 2.4039026553882305e-09 -5.507187726495951e-10
206 -8.571144577920914e-10 4.8709922926545256e-09 5.017276821075348e-09
207 2.233211430919846e-09 2.5325422469369154e-10 -1.5111112993308472e-09
209 -7.074340112867345e-10 -1.5221226233179838e-09 3.3273017434425708e-09
210 1.4115109028042462e-09 9.870991660008386e-10 4.5896674277523494e-11
217 6.107635612516158e-09 2.2978510804814126e-09 -6.0915895362106385e-09
219 5.618697211731588e-09 3.883934170229811e-09 2.08187777103617e-09
426 -9.304423762633572e-10 -1.0529744825284438e-09 -2.8572043125249667e-09
431 1.3990506154298915e-09 5.417310720328696e-09 -4.519029590951002e-09
451 -8.281652467907227e-11 -2.4224798909462593e-09 1.5919680925317157e-09
182 -6.873404778363227e-10 -3.3564035529260724e-09 -7.011117875800022e-10
184 2.4039013712494324e-09 -4.981851657888961e-10 -5.507186685656932e-10
186 2.5253335772563063e-09 3.589433640566003e-10 -6.682178477171178e-10
212 4.870995136070048e-09 -8.57118652263171e-10 5.01727846677545e-09
214 2.532486948510643e-10 2.23320749421373e-09 -1.5111158201618545e-09
218 2.2978480857275566e-09 6.107631602402174e-09 -6.091589954851775e-09
221 -1.5221238864287977e-09 -7.074296413534075e-10 3.327302414290039e-09
223 9.871007831953228e-10 1.411514917572992e-09 4.58973717329419e-11
225 3.883931031070342e-09 5.618700008842299e-09 2.0818733495568605e-09
187 -1.052975500784483e-09 -9.30449172727981e-10 -2.857205233688654e-09
189 5.417308813408596e-09 1.3990495414205665e-09 -4.5190276492682664e-09
222 -2.4224768525624764e-09 -8.28204314325766e-11 1.5919726892477448e-09
185 5.173054009405798e-09 6.130255788462015e-10 -1.5794158634339618e-09
188 6.130256152747968e-10 5.173053353425596e-09 -1.579414369425399e-09
216 2.1362455599491793e-09 2.136243376584919e-09 1.0413557074927669e-09
220 3.3917730733119915e-09 -7.517986289360585e-10 -5.307135249396773e-09
227 -7.517944199826092e-10 3.3917757148307866e-09 -5.307129469410893e-09
229 -2.0283170044779884e-10 -2.0282882501845225e-10 3.170516994690469e-09
190 6.0822053478638e-09 4.323913677336293e-09 -4.539074586356658e-09
226 1.3333800368831156e-09 3.5342972619843938e-09 -6.701854385602371e-10
230 1.616152891971265e-09 7.429941167205105e-10 -1.6622870219793748e-09
436 4.323914265655261e-09 6.0822084194713714e-09 -4.539080073895015e-09
461 3.5342974220383337e-09 1.333376272060804e-09 -6.701842228690577e-10
472 7.429947802427919e-10 1.6161543969027175e-09 -1.6622873812210763e-09
471 -1.964730549726092e-09 -1.964729781373819e-09 2.660238506585202e-09
191 1.052976531177066e-09 9.304460378586733e-10 -2.857208373744438e-09
192 -2.525332709493412e-09 -3.5894333432206756e-10 -6.68218522670151e-10
194 -1.6333271725496444e-09 2.44638004060145e-09 -9.66455371059411e-11
224 1.8335553769715461e-09 1.0282836274733372e-09 -1.1002654545576861e-09
228 -1.2303872056440062e-09 3.2105467730090028e-09 2.881255126216146e-09
231 2.4224754544326106e-09 8.282065898329438e-11 1.5919738719539548e-09
232 1.5221266972523814e-09 7.074335024621285e-10 3.3273038609660805e-09
233 -1.8335528331519297e-09 -1.0282812808346337e-09 -1.1002654130895806e-09
234 -9.870995161401322e-10 -1.4115125582288438e-09 4.589778052350646e-11
235 -4.054219727146406e-09 -3.115144944013652e-10 1.7156757039746528e-09
238 -3.852921274264296e-09 -5.790316514765091e-10 -3.5192828681499858e-09
193 3.801100031722546e-09 -8.967702051232686e-10 -6.4223245606383074e-09
195 4.967960815695773e-09 -4.967959407856672e-09 -4.051271161603985e-09
236 -3.962979721760968e-09 5.69460066868909e-10 3.263757081067398e-09
237 -3.0065187558719787e-09 2.2277127347858068e-09 1.6791805687634236e-09
239 7.791913845579802e-10 3.164953027358491e-09 -1.4719439029517818e-09
240 -1.751568459105821e-09 1.7515597347511872e-09 -3.3811504029988525e-09
441 1.708777075557909e-09 -1.7087703956041073e-09 -3.565114868244865e-09
481 -3.164947491577372e-09 -7.791981303620146e-10 -1.4719497424499135e-09
482 -3.779182091391615e-10 3.779184688612025e-10 -1.5530757970469483e-09
196 6.873379922721175e-10 3.3564017937340236e-09 -7.011126332742977e-10
197 -3.804286724353356e-09 2.199403630501699e-09 -1.0832296341572101e-10
199 -1.3745444950650294e-09 1.3745440963416332e-09 -1.3729333275817934e-09
241 -4.8709946166259665e-09 8.571184433830564e-10 5.017278099644995e-09
242 -5.702958856547086e-10 2.08866580280052e-09 2.2316218538573615e-09
243 -2.5325034056642676e-10 -2.233210613329235e-09 -1.5111155337394168e-09
244 -4.9047227331566415e-09 -1.7756583629080597e-09 2.6392180706825624e-11
245 1.1181421188174202e-09 1.311249698061654e-10 2.4844216935312897e-09
248 1.8352759268911376e-09 -1.8352815426430736e-09 -2.926453201459475e-09
198 -5.521867678562477e-09 5.521871599495233e-09 2.1078741617955506e-09
200 -2.4463822997079964e-09 1.6333256896547898e-09 -9.664513958064348e-11
246 -1.3112089775952861e-10 -1.1181464546677662e-09 2.484420889432954e-09
247 -2.8033340805118557e-09 2.803340517824854e-09 -7.469288682860207e-09
249 -5.694637083213484e-10 3.962985511677643e-09 3.2637526534685983e-09
250 5.790271083586109e-10 3.852915388079581e-09 -3.5192838563111886e-09
446 8.96768134458197e-10 -3.801099381484091e-09 -6.4223242817592625e-09
492 -2.2277065510680578e-09 3.0065239595532835e-09 1.679182803653585e-09
491 3.1151393408594453e-10 4.054216957968709e-09 1.7156784945867129e-09
251 7.99569867555135e-09 3.97063298985451e-10 3.1463990245234697e-16
252 1.0282863102184554e-09 1.8335562787167633e-09 1.1002661184266413e-09
254 -5.28642568894406e-09 -2.510229014756601e-09 1.2509367098137866e-15
255 -1.4115085179733558e-09 -9.87100746785691e-10 -4.5899260575043745e-11
256 -1.0282872180319446e-09 -1.833552558866036e-09 1.1002662495013162e-09
262 3.210549111300277e-09 -1.230387569733214e-09 -2.881254705808307e-09
263 3.058567870419254e-09 -2.3539973892993984e-09 -2.390899162318702e-16
265 -5.79026735766711e-10 -3.852920557640486e-09 3.519281338888555e-09
303 8.281532316121913e-11 2.4224752456840543e-09 -1.5919698268438493e-09
304 7.074331380623957e-10 1.5221275170759266e-09 -3.327299956630403e-09
305 -3.5894187065486463e-10 -2.5253342917553317e-09 6.682159882373929e-10
306 9.304453230162334e-10 1.0529784584602488e-09 2.857204126835844e-09
313 -3.1151553732340314e-10 -4.054221237314113e-09 -1.7156751427766816e-09
315 2.4463806497448435e-09 -1.633326076507129e-09 9.664197736588879e-11
257 -7.530840951238787e-09 -2.98806577741371e-09 9.381541113324373e-16
258 -4.1301609425253565e-09 -2.8188759597606353e-09 -8.107211372735498e-16
259 -1.7756566759284476e-09 -4.9047251064578156e-09 -2.639009504174418e-11
260 -2.2332121235621287e-09 -2.532525932949702e-10 1.5111103303876005e-09
267 4.4018594670965066e-09 -4.8393318228119715e-09 1.011903316945497e-15
269 -1.8352801584714188e-09 1.8352839310449996e-09 2.9264517447355253e-09
307 8.571151701879629e-10 -4.870996214601095e-09 -5.017278843328756e-09
308 2.0886649544560964e-09 -5.703006519030863e-10 -2.231614982752992e-09
309 2.1994102522000895e-09 -3.8042825445276125e-09 1.0831970839462795e-10
310 3.3564065871758452e-09 6.873397238669779e-10 7.011105575685306e-10
317 1.3112152411008857e-10 1.1181414831080027e-09 -2.48442070015232e-09
319 1.3745454050403402e-09 -1.3745490471792594e-09 1.3729351380954819e-09
264 4.381153046064305e-09 -3.7037550083346753e-09 -7.504513147327796e-16
266 2.2277104468986725e-09 -3.0065188889052123e-09 -1.6791802689363766e-09
273 -3.655030785685307e-09 6.422777247921626e-09 1.430898534199873e-15
275 1.7515615315665222e-09 -1.7515610191691025e-09 3.3811530815341067e-09
314 5.694577529192217e-10 -3.962978436072508e-09 -3.263752063935975e-09
316 -8.967696952177517e-10 3.8011001290952005e-09 6.422323673718409e-09
323 3.1649562080432522e-09 7.791896138362147e-10 1.4719438416622349e-09
325 -4.967959612357438e-09 4.967961691954248e-09 4.0512679634728394e-09
274 -6.422777789211487e-09 3.6550297571132055e-09 -3.322378912105303e-16
276 3.7791928443695733e-10 -3.7791944949395536e-10 1.5530748868061506e-09
324 -7.791938039780208e-10 -3.164955277473743e-09 1.471944700929548e-09
326 -1.7087703810402544e-09 1.7087724733804352e-09 3.565120052976449e-09
268 4.8393296088029375e-09 -4.401862002420542e-09 8.447034603928003e-16
270 2.8033416319038856e-09 -2.8033371595238754e-09 7.469284470419084e-09
277 3.703753842309102e-09 -4.381153349240038e-09 -1.4884232636834941e-15
279 3.852918085142029e-09 5.790263722772191e-10 3.5192822039207267e-09
318 -1.1181424928031265e-09 -1.3112086414758344e-10 -2.4844231626255664e-09
320 5.521866895155082e-09 -5.521869393278067e-09 -2.107874578810328e-09
327 3.962980227805665e-09 -5.694611364076773e-10 -3.26375517559592e-09
329 1.6333291164079802e-09 -2.446383581933867e-09 9.664457155216262e-11
278 2.3540011388846583e-09 -3.0585695689712504e-09 -7.767388141542992e-17
280 3.006518792353316e-09 -2.227711105441297e-09 -1.6791773036395665e-09
328 4.054219817533436e-09 3.1151909294322324e-10 -1.7156777649641195e-09
330 -3.801103065323418e-09 8.967699189691326e-10 6.422325571857886e-09
283 -5.7037514699607544e-09 -5.703751331945494e-09 -8.337805708187555e-16
284 -6.895274282027472e-09 -6.895281005976245e-09 -1.3089262672897057e-15
285 -1.6161526880773262e-09 -7.429947356409928e-10 1.6622840970722776e-09
286 -7.42999136958664e-10 -1.6161557756141126e-09 1.6622863647855186e-09
333 1.964730520598386e-09 1.964731999561901e-09 -2.6602367103766943e-09
334 2.0283166100403094e-10 2.0283153842493683e-10 -3.170516119342235e-09
335 -6.082210301451112e-09 -4.323915441382958e-09 4.5390783492921165e-09
336 -4.323913609371646e-09 -6.082206789135286e-09 4.5390800599379894e-09
287 1.3540067947618988e-09 -3.6938369992790124e-10 -4.0036965197050936e-16
288 6.501234829672832e-10 1.0549234006272423e-09 4.2235173019640017e-16
289 1.2303870345116248e-09 -3.2105503128181297e-09 -2.8812528225200966e-09
290 7.517954992745607e-10 -3.391775265751548e-09 5.307131616951682e-09
337 -1.3333756440302097e-09 -3.5342976781734865e-09 6.701850834861762e-10
338 -3.883933172217445e-09 -5.618698254260716e-09 -2.081871784455333e-09
339 -5.417309943884999e-09 -1.3990497524007238e-09 4.519023598167964e-09
340 -6.130223135576397e-10 -5.173050647715713e-09 1.5794123179590894e-09
31 -3.970655842966808e-10 -7.995696791959725e-09 1.1651082212314487e-16
253 -7.995697156662872e-09 -3.9706634768529654e-10 -6.866249751684293e-16
346 -1.3990524661319559e-09 -5.417306880621301e-09 4.5190255897748305e-09
345 -5.173052306648679e-09 -6.130276854468213e-10 1.5794124148349925e-09
344 -5.61869548712869e-09 -3.883932498942667e-09 -2.0818741035906604e-09
343 -3.534299092026784e-09 -1.333376900039249e-09 6.701875009495843e-10
296 -3.2105494535508168e-09 1.2303859859142258e-09 -2.881254453387156e-09
295 -3.3917700294667635e-09 7.517984814770493e-10 5.307132091771445e-09
294 1.0549205773542194e-09 6.501210818421344e-10 -2.362276355980466e-16
293 -3.69390410689723e-10 1.3540102828307107e-09 -2.0244916849081162e-15
350 4.981833350374519e-10 -2.4039044600909857e-09 5.507177259581608e-10
349 -2.403905556669364e-09 4.981817793055554e-10 5.50718472693696e-10
348 -3.503162518734081e-09 -3.503156236522322e-09 2.2748542187304656e-09
347 -2.136245360545999e-09 -2.1362446116830372e-09 -1.0413557131980686e-09
300 -6.107633430735337e-09 -2.2978492945248176e-09 6.091593917141597e-09
299 -2.2978497093766913e-09 -6.107630501547264e-09 6.0915882842242e-09
298 6.147211951262964e-10 6.147180238473567e-10 1.2306455586757177e-15
297 7.698469014030489e-10 7.698474864540623e-10 -2.083743264447009e-16
353 -5.6799527121391485e-09 -1.1407970488141453e-09 7.70659644765887e-09
354 -4.605303799045018e-09 -9.924879292738082e-11 5.963200114805489e-09
355 -3.3156092935167173e-09 -2.134465903874054e-09 -1.1884067707674925e-15
356 6.442449160868616e-10 8.284507225780124e-11 -1.6202286201499835e-15
363 4.200706645724426e-09 1.1510250120169455e-09 6.759643587369101e-10
365 -1.256309348918607e-09 3.228524873048996e-09 2.2149192747368688e-16
402 -5.67995210531195e-09 -1.1407987552122278e-09 -7.70659655810142e-09
403 -4.605298420128729e-09 -9.924776192797048e-11 -5.963199132812116e-09
407 4.200705885976773e-09 1.1510286857488056e-09 -6.759645717332568e-10
357 2.0688901865034406e-09 -3.2991720965830866e-09 -2.249844862539739e-09
358 2.233360863440184e-09 -1.9731516045405814e-09 -1.113804850723584e-09
359 3.4328121535136416e-10 1.382075407236425e-09 1.23307286746995e-15
360 1.3327729946899478e-09 -4.593280017258377e-09 1.1217542994551702e-15
367 3.96776777503577e-09 -1.1953722743433525e-09 6.708587441924818e-10
369 4.847990313331749e-09 -4.847982345690633e-09 -4.1264249501947143e-16
404 2.0688957426393454e-09 -3.2991692641605434e-09 2.2498430339612846e-09
405 2.2333615136555276e-09 -1.9731548695743233e-09 1.1138025751215894e-09
409 3.967761464499878e-09 -1.1953715129802595e-09 -6.708587672049514e-10
104 9.529955557225851e-10 -9.529921465673836e-10 -5.364352435253129e-16
364 3.543033660775859e-10 9.576141782194563e-10 1.813740253763346e-09
366 5.560867258141814e-10 2.1339381058059017e-09 -3.6713045512761795e-16
373 -1.152300897756928e-09 5.867754755016151e-09 4.2937094615689186e-09
375 -4.79906598094178e-09 4.799066312876258e-09 -7.550940761459662e-16
408 3.5430294372585575e-10 9.576116565596995e-10 -1.8137385324505888e-09
412 -1.1523014827383475e-09 5.867755872791851e-09 -4.293708846852967e-09
374 -5.867752714863109e-09 1.152300166530154e-09 4.293708187535215e-09
376 5.047090609669355e-09 -5.047093672933053e-09 2.937043641020944e-16
413 -5.8677526080615225e-09 1.1522993492524385e-09 -4.293708606549396e-09
368 1.1953749511231635e-09 -3.967766566335549e-09 6.708599443731225e-10
370 -2.3305204917681865e-09 2.3305178165108928e-09 -1.0655879680632431e-15
377 -9.576135042039236e-10 -3.5430277901625455e-10 1.8137399777175644e-09
379 -3.228523127813973e-09 1.2563117980731803e-09 -4.514794357271864e-16
410 1.1953762254602806e-09 -3.967766476525123e-09 -6.708597071036878e-10
414 -9.576119519399496e-10 -3.5429845156259136e-10 -1.8137374479232713e-09
378 -1.1510266740550116e-09 -4.200711602343503e-09 6.759659680426406e-10
380 -2.1339381310176757e-09 -5.5608451107654e-10 -4.518133684677991e-16
415 -1.1510265864490756e-09 -4.200715578966285e-09 -6.759635674342431e-10
383 -2.177126096229144e-09 -2.1771263820447544e-09 -4.100173123764298e-09
384 -6.73003687672086e-09 -6.730032530624465e-09 5.683256199306909e-09
385 6.444845351564106e-10 -2.52935792598295e-09 6.44636859042421e-17
386 -2.5293607374133608e-09 6.444832049911913e-10 -1.298610204914219e-16
417 -2.1771273972666577e-09 -2.177127352968272e-09 4.100172975698461e-09
418 -6.730031094871313e-09 -6.730035296888917e-09 -5.683259369979021e-09
387 -3.7768123726508665e-09 -1.2530433606805158e-11 1.6628218972504726e-09
388 -3.481689476214193e-09 -6.511529301136595e-10 -1.6012413102299366e-09
389 -1.6867151469890018e-09 -2.22579510607532e-09 -4.815780647756655e-15
390 -6.163879237633595e-09 -6.7737569820107195e-09 1.5941066055870551e-15
419 -3.77681502944464e-09 -1.2524863689566652e-11 -1.6628172183335066e-09
420 -3.481689415180651e-09 -6.511532317067771e-10 1.6012435900797216e-09
423 -6.511599790183979e-10 -3.4816896139260402e-09 1.6012416700784653e-09
422 -1.2526175578811074e-11 -3.776807866627059e-09 -1.6628239335822508e-09
396 -2.225794419146931e-09 -1.6867144552059954e-09 2.3411393320369423e-15
395 -6.773757722924951e-09 -6.163880265582276e-09 2.1566358631038784e-15
394 -6.511536049055042e-10 -3.4816833008372066e-09 -1.6012416546043719e-09
393 -1.2529741295429801e-11 -3.776815445898769e-09 1.6628208393703655e-09
425 -4.927035939766064e-10 -4.927033057336871e-10 -2.1146125228871875e-09
424 -2.3835066926146262e-09 -2.3835089574244082e-09 -4.145095966380781e-09
400 -2.3239451126741835e-09 -2.2787927437086357e-09 -4.921374506352616e-16
399 -2.278796143635797e-09 -2.3239474611677394e-09 -4.854617588464369e-16
398 -4.927037896783779e-10 -4.927036355442695e-10 2.114615726934796e-09
397 -2.3835065061053385e-09 -2.3835082096783097e-09 4.145093072906177e-09
427 -3.5894295323458687e-10 -2.525331645333029e-09 -6.682107170661185e-10
428 9.304404635440273e-10 1.0529725904222754e-09 -2.85720145679617e-09
432 2.446387077258531e-09 -1.6333233952411521e-09 -9.664504669785909e-11
452 1.0282846111022996e-09 1.8335559983625974e-09 -1.1002644872751316e-09
453 8.282037560447432e-11 2.4224812690508274e-09 1.5919682138971555e-09
454 7.074334002117456e-10 1.5221219154540567e-09 3.3272988230392696e-09
455 -1.41151333345059e-09 -9.870998869115505e-10 4.589795196167173e-11
456 -1.0282855213430974e-09 -1.8335536790832672e-09 -1.1002691877586117e-09
462 3.2105490833862254e-09 -1.2303839093515523e-09 2.8812553878820785e-09
463 -3.1151515805640403e-10 -4.054219778501528e-09 1.7156801961301777e-09
465 -5.790312154314624e-10 -3.852918410079031e-09 -3.5192828793193986e-09
429 2.199410657560658e-09 -3.804283352821441e-09 -1.0832216665160931e-10
430 3.3563992966602503e-09 6.873380973124508e-10 -7.01110984060049e-10
434 1.3745518468399485e-09 -1.3745474871059409e-09 -1.3729303255510483e-09
457 8.571125500764192e-10 -4.870995107874806e-09 5.0172760385890086e-09
458 2.0886702244469024e-09 -5.70297888791291e-10 2.2316159697574304e-09
459 -1.7756523019180005e-09 -4.904718814873421e-09 2.6391974385578114e-11
460 -2.2332112727903967e-09 -2.53253695900956e-10 -1.5111097806028993e-09
467 1.3112066174937895e-10 1.1181437654311714e-09 2.4844205581386377e-09
469 -1.835278657138262e-09 1.8352849417536256e-09 -2.926456218265633e-09
433 -8.967708214890321e-10 3.80109987786874e-09 -6.4223257272216495e-09
437 -4.967959423027352e-09 4.967962327909151e-09 -4.0512660063176405e-09
464 5.694617506968058e-10 -3.962980655542986e-09 3.263750904592612e-09
466 2.2277097775682724e-09 -3.0065236245846697e-09 1.6791804394548194e-09
473 3.164954761367211e-09 7.791926358356636e-10 -1.47194470699782e-09
475 1.7515659201408221e-09 -1.7515608716074986e-09 -3.3811525611987475e-09
438 -1.7087740171488282e-09 1.708771281571817e-09 -3.5651211658975314e-09
474 -7.791912455945516e-10 -3.164961614873591e-09 -1.4719448395895627e-09
476 3.779180428685091e-10 -3.7791931599197166e-10 -1.5530751647330074e-09
435 5.521863726821388e-09 -5.521871396375332e-09 2.1078747056849174e-09
439 1.633328883993163e-09 -2.446378182575088e-09 -9.665142081075274e-11
468 -1.1181388494126262e-09 -1.3112814850127492e-10 2.484424234282399e-09
470 2.803340142736903e-09 -2.8033363878139045e-09 -7.469282935517094e-09
477 3.962976478865159e-09 -5.694569255636709e-10 3.2637570410236273e-09
479 3.852916324717362e-09 5.790280953132706e-10 -3.5192839321645884e-09
440 -3.801103382312405e-09 8.967668788736107e-10 -6.422326275674619e-09
478 4.054218996908096e-09 3.115133469664074e-10 1.7156802349671185e-09
480 3.0065220777916224e-09 -2.2277132126063725e-09 1.679179663764323e-09
442 -6.082205898312958e-09 -4.323909391315789e-09 -4.539080668633078e-09
443 -4.3239166447212934e-09 -6.082213689974188e-09 -4.539072069237439e-09
483 1.9647258237558695e-09 1.964735630993639e-09 2.6602321057719115e-09
484 2.0283156391167917e-10 2.0283009265913627e-10 3.17051373663524e-09
485 -1.6161530861559686e-09 -7.429939067150396e-10 -1.662280975913472e-09
486 -7.429998299553248e-10 -1.6161545401139363e-09 -1.6622823057183875e-09
444 -5.417311322596394e-09 -1.3990450822586037e-09 -4.519026622594722e-09
445 -6.130268883816664e-10 -5.173060224285368e-09 -1.579415455766383e-09
487 -1.3333747747597295e-09 -3.5342918109334533e-09 -6.701856630140028e-10
488 -3.8839323693850606e-09 -5.618703764858506e-09 2.0818741263466803e-09
489 1.2303858008319301e-09 -3.2105492211359995e-09 2.881251495692427e-09
490 7.51795346672928e-10 -3.391776098325872e-09 -5.3071309764957964e-09
496 -3.210549372235972e-09 1.2303855526396059e-09 2.88125730666968e-09
495 -3.3917693935118595e-09 7.517987060031127e-10 -5.307131239800281e-09
494 -5.6186949142838144e-09 -3.883932991382939e-09 2.0818714927166383e-09
493 -3.534298232759471e-09 -1.3333769426048584e-09 -6.701893105082905e-10
448 -1.3990505643355155e-09 -5.417308921987997e-09 -4.519028212481982e-09
447 -5.173052738709644e-09 -6.1302150794594e-10 -1.5794101991382204e-09
500 -6.107634658906179e-09 -2.297852365329707e-09 -6.091592372472964e-09
499 -2.2978483500837663e-09 -6.1076293752759836e-09 -6.0915907928478386e-09
498 -3.5031625408832737e-09 -3.5031653589887837e-09 -2.2748594856871354e-09
497 -2.1362459141892973e-09 -2.136238347452362e-09 1.0413578089883393e-09
450 4.981842656757031e-10 -2.403905231049534e-09 -5.507133588281503e-10
449 -2.403902136591273e-09 4.981894229009485e-10 -5.507195771191973e-10
