LAMMPS data file via write_data, version 29 Aug 2024, timestep = 26, units = metal

500 atoms
3 atom types

0 17.54371838977294 xlo xhi
0 17.54371838977294 ylo yhi
0 17.54371838977294 zlo zhi

Masses

1 56.6223
2 58.71
3 58.71

Atoms # atomic

1 2 0.002260267795249475 0.0022602677952494833 0 0 0 0
2 3 1.7521115711820445 1.7521115711820439 2.2464503674199937e-19 0 0 0
3 1 1.75177536544934 0.002596473527952716 1.749113623414991 0 0 0
4 1 0.002596473527951906 1.7517753654493404 1.7491136234149907 0 0 0
5 1 3.506475935713867 0.002580920397320686 0 0 0 0
8 1 3.505873202434973 1.754125719370846 1.7515579871770492 0 0 0
21 1 0.002580920397319991 3.5064759357138673 0 0 0 0
23 1 1.7541257193708462 3.505873202434973 1.7515579871770495 0 0 0
25 1 3.506071508668645 3.506071508668645 0 0 0 0
51 1 0.0002640731741858853 0.000264073174186851 3.5086519081655334 0 0 0
52 1 1.7541077658031061 1.7541077658031066 3.508651908165533 0 0 0
53 1 1.7543703401759254 1.4988013686831114e-06 5.263287073400312 0 0 0
54 1 1.4988013677168473e-06 1.7543703401759247 5.263287073400312 0 0 0
55 1 3.5082890883156743 0.00025915860452929435 3.5082098008306755 0 0 0
58 1 3.5086350250879956 1.7543428562985355 5.263096110493727 0 0 0
71 1 0.0002591586045292172 3.5082890883156748 3.5082098008306755 0 0 0
73 1 1.7543428562985357 3.508635025087995 5.263096110493727 0 0 0
75 1 3.508360430123918 3.5083604301239184 3.508290309290867 0 0 0
6 1 5.263475168098521 1.7543905433851663 0 0 0 0
7 1 5.2628999889055965 0.0002572080578320083 1.7541192896535593 0 0 0
9 1 7.017631974571349 2.7256032432280825e-06 8.713234545925647e-17 0 0 0
12 1 7.017612331800155 1.7543822435918726 1.7543793297342214 0 0 0
27 1 5.262720917880405 3.5084028984962914 1.7541044507917254 0 0 0
29 1 7.0175813840185715 3.508756932481737 0 0 0 0
56 1 5.262840470055529 1.7543468332746375 3.50845754069465 0 0 0
57 1 5.262898065676263 2.8639809212405195e-05 5.262902543950584 0 0 0
59 1 7.017390254524445 2.7811106325885906e-05 3.508644317792529 0 0 0
62 1 7.01733388162436 1.7543577226115195 5.262970931938024 0 0 0
77 1 5.262949378777248 3.5086758438265693 5.262955259010692 0 0 0
79 1 7.017363896826513 3.508696594325611 3.5086245625816415 0 0 0
60 1 8.771857418575864 1.75437212255509 3.5087554030895247 0 0 0
61 1 8.771810315216278 1.3841557619936269e-05 5.263072188213059 0 0 0
81 1 8.771813199702587 3.508711020153441 5.26305974791971 0 0 0
10 1 8.771911295289007 1.754388006071836 7.25891192839586e-16 0 0 0
14 1 12.280458254178885 1.7543691133740484 7.567918727144143e-17 0 0 0
16 1 10.526201517941114 1.7543772704078067 1.7543915158217216 0 0 0
31 1 8.771890452101708 3.508759542448056 1.7543788885900264 0 0 0
33 1 10.52623450252746 3.508761625303634 7.508233832827246e-20 0 0 0
35 1 12.280667899915427 3.508646960854899 1.7543502367377304 0 0 0
64 1 12.280699974225788 1.7543440278709679 3.508644317792528 0 0 0
65 1 12.280756347125873 1.4116365773506588e-05 5.262970931938024 0 0 0
66 1 10.526279913533957 1.7543579974196732 5.263072188213059 0 0 0
83 1 10.526265677530315 3.5087204140551913 3.5087293059067175 0 0 0
85 1 12.280720310342726 3.508686653043706 5.26300849437669 0 0 0
18 1 15.791614293036368 1.751790918579973 0 0 0 0
19 1 15.792217026315262 0.00024611960644639 1.7515579871770497 0 0 0
20 1 14.035190239844637 1.7541146309194602 1.75411928965356 0 0 0
37 1 14.035060659092562 3.50856168727704 2.0894410842301067e-16 0 0 0
39 1 15.789933717686822 3.5081565110634125 1.7538429481904168 0 0 0
67 1 14.035249758694706 2.500570265515008e-05 3.508457540694649 0 0 0
68 1 15.789801140434559 1.7541126803727636 3.5082098008306755 0 0 0
69 1 15.789455203662238 2.8982678758063245e-05 5.263096110493726 0 0 0
70 1 14.035192163073972 1.7543431991680802 5.2629025439505845 0 0 0
87 1 14.03521283721493 3.5085772126006103 3.5084972355995356 0 0 0
89 1 15.789483550311338 3.5086066784388974 5.262909757356054 0 0 0
22 1 1.7543905433851668 5.2634751680985215 2.3468357880452752e-17 0 0 0
24 1 0.0002572080578321282 5.262899988905597 1.7541192896535596 0 0 0
28 1 3.5084028984962914 5.262720917880405 1.7541044507917263 0 0 0
41 1 2.7256032432974087e-06 7.017631974571348 8.366320173681749e-16 0 0 0
42 1 1.7543822435918734 7.017612331800154 1.7543793297342216 0 0 0
43 1 3.5087569324817363 7.0175813840185715 1.9039346858095814e-16 0 0 0
72 1 1.7543468332746381 5.2628404700555285 3.50845754069465 0 0 0
74 1 2.8639809211348535e-05 5.262898065676263 5.2629025439505845 0 0 0
78 1 3.5086758438265693 5.262949378777247 5.262955259010692 0 0 0
91 1 2.781110632371312e-05 7.017390254524446 3.5086443177925286 0 0 0
92 1 1.7543577226115195 7.017333881624361 5.262970931938024 0 0 0
93 1 3.5086965943256105 7.017363896826513 3.5086245625816406 0 0 0
301 1 1.75437212255509 8.771857418575864 3.5087554030895247 0 0 0
302 1 1.3841557619371633e-05 8.771810315216277 5.263072188213058 0 0 0
304 1 3.5087110201534406 8.771813199702587 5.26305974791971 0 0 0
26 1 5.262854532618943 5.262854532618943 0 0 0 0
32 1 7.017352444422865 5.262981449662134 1.7543372613148518 0 0 0
44 1 5.262981449662135 7.017352444422865 1.754337261314852 0 0 0
45 1 7.017355790829158 7.017355790829158 0 0 0 0
76 1 5.262924787541938 5.262924787541938 3.508577049329658 0 0 0
82 1 7.017400931492221 5.263049749522734 5.263031208898558 0 0 0
94 1 5.263049749522735 7.017400931492221 5.263031208898557 0 0 0
95 1 7.017403690888178 7.017403690888178 3.5086892095691193 0 0 0
46 1 8.771815135251087 7.017429594376864 1.7543512897941147 0 0 0
80 1 8.77182876223155 5.263075004056737 3.508707192806392 0 0 0
96 1 8.7718363198214 7.0174475295937 5.263076058064427 0 0 0
256 1 7.017429594376863 8.771815135251087 1.754351289794114 0 0 0
303 1 5.263075004056737 8.77182876223155 3.508707192806392 0 0 0
306 1 7.0174475295937 8.7718363198214 5.263076058064427 0 0 0
255 1 8.77182467813871 8.77182467813871 1.7562294056092758e-16 0 0 0
305 1 8.771836342577533 8.771836342577533 3.5087112200601913 0 0 0
30 1 8.77185937393509 5.263118577250683 0 0 0 0
34 1 12.280710659227445 5.263014828608148 8.816470602007336e-19 0 0 0
36 1 10.526280126160765 5.263083760154991 1.7543597036994258 0 0 0
47 1 10.526269939275707 7.0174467070065 4.41371013528087e-17 0 0 0
48 1 12.280693250166628 7.017396978583607 1.754346647983858 0 0 0
84 1 12.280704186806695 5.263025885715258 3.508679600818326 0 0 0
86 1 10.526259903239845 5.263068859300945 5.263072585950735 0 0 0
97 1 10.5262579054914 7.0174429557256195 3.5087087284397684 0 0 0
98 1 12.280657711847937 7.017432516902296 5.2630651655109455 0 0 0
257 1 12.280643521743732 8.771820289474526 0 0 0 0
258 1 10.526252870290952 8.771837358459281 1.7543534224224784 0 0 0
307 1 12.280647273024615 8.771832323258833 3.5087087284397684 0 0 0
308 1 10.52624621817692 8.771844010573313 5.263083106819268 0 0 0
100 1 15.78940357570653 7.017369918407509 5.263008494376691 0 0 0
99 1 14.035064343034977 7.017386041943539 3.508679600818326 0 0 0
90 1 14.035084742853474 5.26300548589676 5.2629837131891515 0 0 0
88 1 15.789513016149625 5.262877391535304 3.5084972355995356 0 0 0
50 1 15.789443267895335 7.017422328834807 1.7543502367377302 0 0 0
38 1 15.789528541473194 5.263029569657673 2.034703714451577e-16 0 0 0
40 1 14.035178386954774 5.26291184179546 1.7543158102322565 0 0 0
49 1 14.035075400142086 7.017379569522788 6.946594294151192e-19 0 0 0
259 1 15.7893286034466 8.771855726222773 4.790194065392344e-19 0 0 0
260 1 14.035006468595242 8.77181010258947 1.7543597036994247 0 0 0
309 1 15.789369814695043 8.77182455121992 3.5087293059067175 0 0 0
310 1 14.03502136944929 8.771830325510388 5.263072585950735 0 0 0
102 1 1.7543764540387041 1.7543764540387035 7.017561791546179 0 0 0
108 1 3.5087610693690015 1.7543708842096664 8.77185919488647 0 0 0
123 1 1.7543708842096668 3.5087610693690015 8.77185919488647 0 0 0
125 1 3.508722679641054 3.508722679641054 7.017476570751333 0 0 0
152 1 1.7543764540387035 1.754376454038704 10.526156598226763 0 0 0
163 1 3.5087226796410538 3.508722679641054 10.526241819021608 0 0 0
106 1 5.263072219210463 1.7543571407530798 7.017430848383793 0 0 0
107 1 5.263112054990572 2.018686290604037e-06 8.77185919488647 0 0 0
109 1 7.017402708010766 1.4420901054032305e-05 7.017398504663548 0 0 0
112 1 7.017456286817041 1.7543596223814806 8.77185919488647 0 0 0
127 1 5.2630986338943755 3.50872174559577 8.77185919488647 0 0 0
129 1 7.017421049567471 3.508707882864256 7.017416172883441 0 0 0
154 1 5.263072219210464 1.7543571407530794 10.526287541389149 0 0 0
155 1 7.017402708010767 1.4420901054919662e-05 10.526319885109393 0 0 0
165 1 7.017421049567471 3.5087078828642557 10.526302216889501 0 0 0
110 1 8.771820799241446 1.7543598950653083 7.0174302905492905 0 0 0
111 1 8.771834080048412 1.192072187582344e-05 8.77185919488647 0 0 0
131 1 8.771838789240334 3.5087128671471195 8.77185919488647 0 0 0
156 1 8.771820799241448 1.7543598950653085 10.52628809922365 0 0 0
113 1 10.526269429508787 1.1943911985375831e-05 7.0174302905492905 0 0 0
114 1 12.280687520739466 1.7543574180762387 7.017398504663548 0 0 0
115 1 12.280633941933193 1.2216595813731468e-05 8.77185919488647 0 0 0
116 1 10.526256148701822 1.7543599182554173 8.77185919488647 0 0 0
133 1 10.526259591670438 3.5087098018733616 7.017442732930266 0 0 0
135 1 12.280650316806925 3.5087106463792086 8.77185919488647 0 0 0
157 1 10.526269429508787 1.1943911984112163e-05 10.52628809922365 0 0 0
158 1 12.280687520739466 1.7543574180762382 10.526319885109393 0 0 0
167 1 10.526259591670438 3.508709801873362 10.526275656842675 0 0 0
104 1 17.543706271868242 1.7543839568819894 8.77185919488647 -1 0 0
121 1 17.543714907239952 3.5087478408260835 7.017507795704818 -1 0 0
161 1 17.543714907239952 3.5087478408260817 10.526210594068125 -1 0 0
117 1 14.035018009539769 1.4698224213537723e-05 7.017430848383792 0 0 0
118 1 15.789342387924151 1.7543753215102826 7.017507795704816 0 0 0
119 1 15.789329159381232 9.547676273025948e-07 8.77185919488647 0 0 0
120 1 14.034978173759662 1.7543698202910023 8.77185919488647 0 0 0
137 1 14.035045246721616 3.508702613569094 7.017400290078206 0 0 0
139 1 15.789344228608067 3.508746000142167 8.77185919488647 0 0 0
159 1 14.03501800953977 1.4698224213520655e-05 10.526287541389149 0 0 0
160 1 15.789342387924153 1.754375321510283 10.526210594068125 0 0 0
169 1 14.035045246721616 3.508702613569094 10.526318099694736 0 0 0
122 1 1.7543571407530798 5.263072219210463 7.017430848383793 0 0 0
124 1 2.0186862896009296e-06 5.263112054990571 8.77185919488647 0 0 0
128 1 3.50872174559577 5.2630986338943755 8.77185919488647 0 0 0
141 1 1.4420901054192428e-05 7.017402708010767 7.017398504663548 0 0 0
142 1 1.7543596223814806 7.017456286817042 8.77185919488647 0 0 0
143 1 3.5087078828642557 7.017421049567471 7.017416172883441 0 0 0
162 1 1.75435714075308 5.263072219210464 10.526287541389149 0 0 0
171 1 1.4420901054098446e-05 7.017402708010768 10.526319885109393 0 0 0
172 1 3.5087078828642557 7.017421049567471 10.526302216889501 0 0 0
351 1 1.7543598950653088 8.771820799241446 7.0174302905492905 0 0 0
352 1 1.1920721876104461e-05 8.77183408004841 8.77185919488647 0 0 0
354 1 3.5087128671471195 8.771838789240334 8.77185919488647 0 0 0
401 1 1.754359895065308 8.771820799241448 10.52628809922365 0 0 0
126 1 5.263064440540384 5.263064440540384 7.017429148453052 0 0 0
132 1 7.017452864329833 5.2630762374245466 8.77185919488647 0 0 0
144 1 5.2630762374245466 7.017452864329834 8.77185919488647 0 0 0
145 1 7.01744837997273 7.01744837997273 7.017452600950512 0 0 0
164 1 5.263064440540385 5.263064440540384 10.526289241319889 0 0 0
173 1 7.01744837997273 7.017448379972731 10.52626578882243 0 0 0
130 1 8.771836944468106 5.263074653692821 7.0174519090943175 0 0 0
146 1 8.771846517618998 7.017456783156606 8.77185919488647 0 0 0
166 1 8.771836944468106 5.263074653692821 10.526266480678624 0 0 0
353 1 5.263074653692821 8.771836944468106 7.0174519090943175 0 0 0
356 1 7.017456783156606 8.771846517618998 8.77185919488647 0 0 0
402 1 5.263074653692821 8.771836944468106 10.526266480678624 0 0 0
355 1 8.771846572083527 8.771846572083527 7.017466968873067 0 0 0
403 1 8.771846572083527 8.771846572083527 10.526251420899873 0 0 0
134 1 12.28065883419641 5.2630645332502635 7.017437523836571 0 0 0
136 1 10.526249138130014 5.263076146350134 8.77185919488647 0 0 0
147 1 10.526246948758551 7.01745343736805 7.017462827947047 0 0 0
148 1 12.280639743644889 7.017450485105345 8.77185919488647 0 0 0
168 1 12.280658834196412 5.263064533250264 10.526280865936368 0 0 0
174 1 10.526246948758551 7.01745343736805 10.526255561825895 0 0 0
357 1 12.280636791382182 8.771843279991682 7.017462827947047 0 0 0
358 1 10.526243219053903 8.77184700969633 8.77185919488647 0 0 0
404 1 12.280636791382182 8.771843279991684 10.526255561825895 0 0 0
175 1 14.035025695499971 7.017431394553824 10.52628086593637 0 0 0
170 1 15.78938761518114 5.263044982028618 10.526318099694738 0 0 0
150 1 15.789379582371026 7.017439911943309 8.77185919488647 0 0 0
149 1 14.035025695499971 7.017431394553824 7.017437523836571 0 0 0
140 1 14.035018712006602 5.263071516743632 8.77185919488647 0 0 0
138 1 15.78938761518114 5.263044982028619 7.017400290078206 0 0 0
359 1 15.789380426876873 8.771830637079795 7.017442732930267 0 0 0
360 1 14.035014082400101 8.771841090620219 8.77185919488647 0 0 0
405 1 15.789380426876873 8.771830637079796 10.526275656842676 0 0 0
176 1 1.754370340175925 1.498801367859418e-06 12.28043131637263 0 0 0
177 1 1.4988013671050219e-06 1.754370340175925 12.280431316372631 0 0 0
179 1 3.508635025087995 1.7543428562985355 12.280622279279214 0 0 0
186 1 1.7543428562985364 3.508635025087996 12.280622279279214 0 0 0
201 1 0.00026407317418476045 0.0002640731741857988 14.035066481607409 0 0 0
202 1 1.7541077658031072 1.7541077658031068 14.035066481607407 0 0 0
203 1 1.7517753654493402 0.0025964735279529736 15.794604766357951 0 0 0
204 1 0.0025964735279524775 1.7517753654493406 15.79460476635795 0 0 0
205 1 3.5082890883156743 0.0002591586045294026 14.035508588942266 0 0 0
208 1 3.5058732024349726 1.7541257193708462 15.792160402595892 0 0 0
221 1 0.00025915860452919477 3.508289088315675 14.035508588942266 0 0 0
223 1 1.7541257193708462 3.505873202434973 15.79216040259589 0 0 0
225 1 3.5083604301239184 3.5083604301239184 14.035428080482074 0 0 0
178 1 5.262898065676264 2.8639809212245505e-05 12.280815845822357 0 0 0
181 1 7.017333881624361 1.7543577226115192 12.280747457834918 0 0 0
188 1 5.262949378777248 3.5086758438265697 12.28076313076225 0 0 0
206 1 5.262840470055529 1.7543468332746373 14.035260849078291 0 0 0
207 1 5.262899988905597 0.0002572080578321004 15.78959910011938 0 0 0
209 1 7.017390254524446 2.7811106325086168e-05 14.035074071980413 0 0 0
212 1 7.017612331800155 1.7543822435918732 15.789339060038719 0 0 0
227 1 5.262720917880406 3.5084028984962914 15.789613938981216 0 0 0
229 1 7.017363896826513 3.5086965943256105 14.0350938271913 0 0 0
180 1 8.771810315216278 1.3841557620248528e-05 12.280646201559883 0 0 0
190 1 8.771813199702587 3.5087110201534406 12.280658641853229 0 0 0
210 1 8.771857418575866 1.7543721225550906 14.034962986683416 0 0 0
182 1 12.280756347125873 1.4116365773314786e-05 12.280747457834918 0 0 0
183 1 10.526279913533957 1.7543579974196728 12.280646201559883 0 0 0
192 1 12.280720310342726 3.5086866530437053 12.28070989539625 0 0 0
214 1 12.280699974225787 1.7543440278709679 14.035074071980413 0 0 0
216 1 10.526201517941114 1.754377270407807 15.78932687395122 0 0 0
231 1 8.771890452101708 3.508759542448056 15.789339501182914 0 0 0
233 1 10.526265677530315 3.508720414055191 14.034989083866224 0 0 0
235 1 12.280667899915427 3.508646960854899 15.78936815303521 0 0 0
184 1 15.789455203662238 2.8982678757237185e-05 12.280622279279216 0 0 0
185 1 14.035192163073972 1.7543431991680802 12.280815845822358 0 0 0
194 1 15.789483550311338 3.508606678438898 12.280808632416885 0 0 0
217 1 14.035249758694706 2.5005702654881354e-05 14.03526084907829 0 0 0
218 1 15.789801140434559 1.7541126803727634 14.035508588942266 0 0 0
219 1 15.792217026315262 0.0002461196064469725 15.79216040259589 0 0 0
220 1 14.035190239844637 1.75411463091946 15.78959910011938 0 0 0
237 1 14.03521283721493 3.5085772126006107 14.035221154173405 0 0 0
239 1 15.789933717686822 3.5081565110634125 15.789875441582524 0 0 0
187 1 2.8639809212106155e-05 5.262898065676263 12.280815845822357 0 0 0
189 1 3.5086758438265697 5.262949378777248 12.280763130762248 0 0 0
196 1 1.7543577226115197 7.01733388162436 12.280747457834918 0 0 0
222 1 1.7543468332746381 5.2628404700555285 14.03526084907829 0 0 0
224 1 0.0002572080578322293 5.2628999889055965 15.78959910011938 0 0 0
228 1 3.5084028984962914 5.262720917880405 15.789613938981216 0 0 0
241 1 2.7811106323360813e-05 7.017390254524445 14.035074071980413 0 0 0
242 1 1.7543822435918737 7.017612331800155 15.78933906003872 0 0 0
243 1 3.5086965943256114 7.017363896826513 14.0350938271913 0 0 0
426 1 1.384155761874526e-05 8.771810315216277 12.280646201559883 0 0 0
427 1 3.508711020153441 8.771813199702587 12.280658641853229 0 0 0
451 1 1.7543721225550901 8.771857418575864 14.034962986683416 0 0 0
191 1 7.017400931492221 5.263049749522735 12.280687180874384 0 0 0
197 1 5.263049749522735 7.017400931492222 12.280687180874384 0 0 0
226 1 5.262924787541938 5.262924787541938 14.035141340443282 0 0 0
232 1 7.017352444422865 5.262981449662135 15.789381128458087 0 0 0
244 1 5.262981449662135 7.017352444422866 15.789381128458087 0 0 0
245 1 7.017403690888178 7.017403690888178 14.035029180203821 0 0 0
198 1 8.7718363198214 7.0174475295937 12.280642331708513 0 0 0
230 1 8.77182876223155 5.263075004056736 14.035011196966549 0 0 0
246 1 8.771815135251087 7.017429594376863 15.789367099978826 0 0 0
428 1 7.0174475295937 8.7718363198214 12.280642331708513 0 0 0
453 1 5.263075004056737 8.77182876223155 14.035011196966549 0 0 0
456 1 7.017429594376864 8.771815135251087 15.789367099978826 0 0 0
455 1 8.771836342577533 8.771836342577533 14.035007169712749 0 0 0
193 1 10.526259903239845 5.263068859300945 12.280645803822205 0 0 0
199 1 12.280657711847937 7.017432516902297 12.280653224261995 0 0 0
234 1 12.280704186806695 5.263025885715257 14.035038788954614 0 0 0
236 1 10.526280126160765 5.263083760154991 15.789358686073516 0 0 0
247 1 10.526257905491402 7.0174429557256195 14.035009661333172 0 0 0
248 1 12.280693250166628 7.017396978583606 15.789371741789084 0 0 0
429 1 10.526246218176922 8.771844010573313 12.280635282953671 0 0 0
457 1 12.280647273024615 8.771832323258833 14.035009661333172 0 0 0
458 1 10.526252870290952 8.771837358459281 15.789364967350462 0 0 0
250 1 15.789443267895335 7.017422328834808 15.78936815303521 0 0 0
249 1 14.035064343034977 7.01738604194354 14.035038788954614 0 0 0
240 1 14.035178386954774 5.262911841795461 15.789402579540685 0 0 0
195 1 14.035084742853474 5.263005485896761 12.280734676583789 0 0 0
200 1 15.789403575706528 7.017369918407508 12.28070989539625 0 0 0
238 1 15.789513016149623 5.262877391535304 14.035221154173405 0 0 0
430 1 14.03502136944929 8.771830325510388 12.280645803822205 0 0 0
459 1 15.789369814695043 8.77182455121992 14.034989083866224 0 0 0
460 1 14.035006468595244 8.771810102589468 15.789358686073516 0 0 0
251 1 1.7543880060718366 8.771911295289005 2.782630509575243e-16 0 0 0
254 1 3.5087595424480558 8.771890452101708 1.7543788885900269 0 0 0
262 1 1.7543691133740489 12.280458254178885 1.2889318398635824e-16 0 0 0
263 1 1.7543772704078073 10.526201517941114 1.754391515821722 0 0 0
265 1 3.508761625303634 10.526234502527462 1.7203905868919124e-19 0 0 0
268 1 3.5086469608548985 12.280667899915427 1.7543502367377304 0 0 0
312 1 1.7543440278709683 12.280699974225788 3.5086443177925286 0 0 0
313 1 1.7543579974196728 10.526279913533957 5.263072188213059 0 0 0
314 1 1.411636577318349e-05 12.280756347125873 5.262970931938024 0 0 0
315 1 3.508720414055191 10.526265677530315 3.5087293059067175 0 0 0
318 1 3.5086866530437057 12.280720310342724 5.263008494376691 0 0 0
253 1 5.263118577250683 8.77185937393509 0 0 0 0
266 1 5.2630148286081475 12.280710659227445 1.6486198895934978e-18 0 0 0
267 1 5.263083760154991 10.526280126160765 1.7543597036994254 0 0 0
269 1 7.0174467070065 10.526269939275709 0 0 0 0
272 1 7.017396978583606 12.280693250166628 1.7543466479838579 0 0 0
316 1 5.263025885715257 12.280704186806695 3.508679600818326 0 0 0
317 1 5.263068859300945 10.526259903239845 5.263072585950734 0 0 0
319 1 7.01744295572562 10.526257905491402 3.5087087284397684 0 0 0
322 1 7.017432516902296 12.280657711847937 5.263065165510946 0 0 0
270 1 8.771820289474526 12.280643521743734 3.393401318431759e-17 0 0 0
271 1 8.771837358459281 10.526252870290953 1.7543534224224784 0 0 0
320 1 8.771832323258833 12.280647273024615 3.5087087284397684 0 0 0
321 1 8.771844010573313 10.526246218176922 5.263083106819267 0 0 0
273 1 10.526265550611523 10.526265550611525 1.087807106488357e-19 0 0 0
274 1 12.280734437921078 12.280734437921078 0 0 0 0
275 1 12.28066063437337 10.526275093499148 1.7543512897941143 0 0 0
276 1 10.526275093499146 12.28066063437337 1.7543512897941145 0 0 0
323 1 10.5262538861727 10.5262538861727 3.5087112200601918 0 0 0
324 1 12.280686537862056 12.280686537862056 3.508689209569119 0 0 0
325 1 12.280642699156534 10.526253908928835 5.263076058064427 0 0 0
326 1 10.526253908928833 12.280642699156534 5.263076058064427 0 0 0
252 1 17.543712958342425 8.77188871080912 1.7543915158217225 -1 0 0
261 1 17.543702222678398 10.526178933461228 3.9019167950125844e-19 -1 0 0
264 1 17.54370798515836 12.28047789695008 1.754379329734221 -1 0 0
311 1 17.543718106195143 10.526232810174369 3.5087554030895247 -1 0 0
277 1 14.03497165149955 10.526230854815143 0 0 0 0
278 1 15.789333296268499 12.280508844731662 3.0978854554342336e-19 0 0 0
279 1 15.78933068630218 10.526199776648527 1.754378888590026 0 0 0
280 1 14.035108779088098 12.28073778432737 1.754337261314852 0 0 0
327 1 14.035015224693495 10.526261466518685 3.5087071928063915 0 0 0
328 1 15.789393634424624 12.280726331923722 3.5086245625816415 0 0 0
329 1 15.789379208596793 10.526277029047648 5.26305974791971 0 0 0
330 1 14.0350404792275 12.28068929725801 5.263031208898557 0 0 0
282 1 1.751790918579973 15.791614293036368 5.533116223104496e-16 0 0 0
283 1 1.754114630919461 14.035190239844637 1.7541192896535598 0 0 0
284 1 0.0002461196064469075 15.792217026315262 1.7515579871770492 0 0 0
285 1 3.5085616872770395 14.035060659092562 4.905477970699534e-19 0 0 0
288 1 3.5081565110634125 15.789933717686822 1.7538429481904165 0 0 0
331 1 2.5005702654873524e-05 14.035249758694707 3.50845754069465 0 0 0
332 1 1.754112680372765 15.789801140434559 3.508209800830675 0 0 0
333 1 1.7543431991680811 14.035192163073972 5.2629025439505845 0 0 0
334 1 2.8982678756965636e-05 15.789455203662238 5.263096110493726 0 0 0
335 1 3.5085772126006103 14.03521283721493 3.5084972355995356 0 0 0
338 1 3.5086066784388974 15.789483550311338 5.262909757356054 0 0 0
341 1 8.771830325510388 14.03502136944929 5.263072585950735 0 0 0
340 1 8.77182455121992 15.789369814695043 3.508729305906718 0 0 0
286 1 5.263029569657673 15.789528541473194 4.039184791226394e-16 0 0 0
287 1 5.26291184179546 14.035178386954776 1.7543158102322565 0 0 0
289 1 7.017379569522786 14.035075400142087 0 0 0 0
292 1 7.017422328834807 15.789443267895335 1.75435023673773 0 0 0
336 1 5.262877391535303 15.789513016149623 3.5084972355995356 0 0 0
337 1 5.263005485896761 14.035084742853474 5.2629837131891515 0 0 0
339 1 7.017386041943539 14.035064343034978 3.5086796008183256 0 0 0
342 1 7.017369918407507 15.78940357570653 5.263008494376691 0 0 0
290 1 8.771855726222773 15.7893286034466 2.1874382032646308e-19 0 0 0
291 1 8.771810102589468 14.035006468595244 1.7543597036994254 0 0 0
346 1 10.526277029047648 15.789379208596793 5.26305974791971 0 0 0
345 1 12.280689297258013 14.0350404792275 5.263031208898557 0 0 0
344 1 12.280726331923722 15.789393634424624 3.508624562581641 0 0 0
343 1 10.526261466518683 14.035015224693497 3.5087071928063915 0 0 0
296 1 10.526199776648525 15.789330686302177 1.7543788885900264 0 0 0
295 1 12.28073778432737 14.0351087790881 1.754337261314852 0 0 0
293 1 10.526230854815143 14.034971651499552 0 0 0 0
294 1 12.280508844731663 15.789333296268497 1.3648395039372855e-20 0 0 0
11 1 8.77188871080912 17.54371295834243 1.754391515821721 0 -1 0
13 1 10.526178933461228 17.5437022226784 0 0 -1 0
15 1 12.28047789695008 17.54370798515836 1.7543793297342214 0 -1 0
63 1 10.52623281017437 17.543718106195143 3.5087554030895256 0 -1 0
350 1 14.035140849972986 15.789414384923663 5.262955259010691 0 0 0
349 1 15.789414384923663 14.035140849972988 5.262955259010691 0 0 0
348 1 15.789729798626317 15.789729798626317 3.508290309290866 0 0 0
347 1 14.035165441208298 14.035165441208296 3.5085770493296584 0 0 0
300 1 14.035369310869827 15.789687330253942 1.7541044507917254 0 0 0
299 1 15.789687330253942 14.035369310869829 1.7541044507917256 0 0 0
298 1 15.792018720081588 15.792018720081588 0 0 0 0
297 1 14.035235696131291 14.035235696131293 3.547197086375077e-20 0 0 0
281 1 17.54369968536507 14.034615060651713 0 -1 0 0
17 1 14.034615060651713 17.54369968536507 4.700913220087914e-16 0 -1 0
361 1 1.194391198442449e-05 10.526269429508787 7.0174302905492905 0 0 0
362 1 1.7543574180762385 12.280687520739466 7.017398504663548 0 0 0
363 1 1.754359918255417 10.526256148701822 8.77185919488647 0 0 0
364 1 1.2216595812350484e-05 12.280633941933191 8.771859194886469 0 0 0
365 1 3.508709801873361 10.526259591670438 7.017442732930267 0 0 0
368 1 3.5087106463792077 12.280650316806923 8.77185919488647 0 0 0
406 1 1.1943911984599659e-05 10.526269429508787 10.52628809922365 0 0 0
407 1 1.7543574180762387 12.280687520739466 10.526319885109393 0 0 0
408 1 3.508709801873362 10.526259591670438 10.526275656842675 0 0 0
366 1 5.2630645332502635 12.280658834196412 7.01743752383657 0 0 0
367 1 5.263076146350133 10.526249138130014 8.77185919488647 0 0 0
369 1 7.01745343736805 10.526246948758551 7.017462827947047 0 0 0
372 1 7.017450485105345 12.280639743644889 8.77185919488647 0 0 0
409 1 5.263064533250263 12.280658834196412 10.52628086593637 0 0 0
410 1 7.01745343736805 10.526246948758553 10.526255561825895 0 0 0
370 1 8.771843279991682 12.280636791382184 7.017462827947047 0 0 0
371 1 8.771847009696332 10.526243219053903 8.77185919488647 0 0 0
411 1 8.771843279991684 12.280636791382184 10.526255561825895 0 0 0
373 1 10.526243656666708 10.526243656666708 7.017466968873067 0 0 0
374 1 12.280641848777504 12.280641848777503 7.017452600950513 0 0 0
375 1 12.28063344559363 10.526243711131237 8.77185919488647 0 0 0
376 1 10.526243711131237 12.28063344559363 8.77185919488647 0 0 0
412 1 10.526243656666708 10.526243656666708 10.526251420899873 0 0 0
413 1 12.280641848777504 12.280641848777504 10.526265788822428 0 0 0
377 1 14.035015575057411 10.526253284282129 7.0174519090943175 0 0 0
378 1 15.78938234588598 12.280669179182764 7.01741617288344 0 0 0
379 1 15.789377361603115 10.5262514395099 8.77185919488647 0 0 0
380 1 14.035013991325687 12.2806373644204 8.77185919488647 0 0 0
414 1 14.035015575057413 10.526253284282129 10.526266480678624 0 0 0
415 1 15.78938234588598 12.280669179182764 10.526302216889501 0 0 0
381 1 1.4698224213716221e-05 14.03501800953977 7.017430848383792 0 0 0
382 1 1.7543753215102824 15.789342387924153 7.017507795704816 0 0 0
383 1 1.7543698202910027 14.034978173759663 8.77185919488647 0 0 0
384 1 9.547676261822963e-07 15.789329159381232 8.77185919488647 0 0 0
385 1 3.5087026135690937 14.035045246721616 7.017400290078205 0 0 0
388 1 3.508746000142167 15.789344228608067 8.77185919488647 0 0 0
416 1 1.469822421303338e-05 14.03501800953977 10.526287541389149 0 0 0
417 1 1.7543753215102822 15.789342387924151 10.526210594068125 0 0 0
418 1 3.5087026135690946 14.035045246721618 10.526318099694736 0 0 0
103 1 1.754383956881989 17.543706271868245 8.77185919488647 0 -1 0
105 1 3.5087478408260826 17.543714907239952 7.017507795704816 0 -1 0
153 1 3.5087478408260826 17.543714907239952 10.526210594068125 0 -1 0
421 1 8.771830637079796 15.789380426876873 10.526275656842675 0 0 0
391 1 8.771841090620219 14.035014082400101 8.77185919488647 0 0 0
390 1 8.771830637079796 15.789380426876873 7.017442732930266 0 0 0
386 1 5.263044982028619 15.78938761518114 7.017400290078206 0 0 0
387 1 5.263071516743632 14.035018712006602 8.77185919488647 0 0 0
389 1 7.017431394553823 14.035025695499971 7.017437523836571 0 0 0
392 1 7.017439911943309 15.789379582371025 8.77185919488647 0 0 0
419 1 5.263044982028619 15.78938761518114 10.526318099694738 0 0 0
420 1 7.017431394553823 14.035025695499971 10.52628086593637 0 0 0
423 1 12.280669179182764 15.78938234588598 10.526302216889501 0 0 0
422 1 10.526253284282127 14.035015575057413 10.526266480678624 0 0 0
396 1 10.526251439509899 15.789377361603115 8.77185919488647 0 0 0
395 1 12.280637364420402 14.035013991325687 8.77185919488647 0 0 0
394 1 12.280669179182764 15.78938234588598 7.01741617288344 0 0 0
393 1 10.526253284282127 14.035015575057411 7.0174519090943175 0 0 0
425 1 15.78936754910918 15.78936754910918 10.526241819021608 0 0 0
424 1 14.03502578820985 14.03502578820985 10.526289241319889 0 0 0
400 1 14.034991594855859 15.789368483154464 8.77185919488647 0 0 0
399 1 15.789368483154464 14.03499159485586 8.77185919488647 0 0 0
398 1 15.78936754910918 15.78936754910918 7.017476570751332 0 0 0
397 1 14.03502578820985 14.035025788209852 7.017429148453052 0 0 0
101 1 17.543713774711534 17.543713774711534 7.0175617915461785 -1 -1 0
151 1 17.54371377471153 17.543713774711534 10.52615659822676 -1 -1 0
431 1 1.754357997419673 10.526279913533957 12.280646201559883 0 0 0
432 1 1.4116365773603765e-05 12.280756347125873 12.280747457834917 0 0 0
434 1 3.5086866530437053 12.280720310342724 12.28070989539625 0 0 0
454 1 3.5087595424480558 8.771890452101708 15.789339501182916 0 0 0
462 1 1.7543440278709688 12.280699974225787 14.035074071980413 0 0 0
463 1 1.7543772704078069 10.526201517941114 15.78932687395122 0 0 0
465 1 3.50872041405519 10.526265677530315 14.034989083866224 0 0 0
468 1 3.5086469608548994 12.280667899915427 15.78936815303521 0 0 0
433 1 5.263068859300945 10.526259903239845 12.280645803822205 0 0 0
436 1 7.017432516902296 12.280657711847937 12.280653224261995 0 0 0
466 1 5.2630258857152565 12.280704186806693 14.035038788954616 0 0 0
467 1 5.263083760154991 10.526280126160767 15.789358686073516 0 0 0
469 1 7.0174429557256195 10.526257905491402 14.035009661333172 0 0 0
472 1 7.017396978583605 12.280693250166628 15.789371741789084 0 0 0
435 1 8.771844010573313 10.526246218176922 12.280635282953671 0 0 0
470 1 8.771832323258833 12.280647273024615 14.035009661333172 0 0 0
471 1 8.771837358459281 10.526252870290953 15.789364967350462 0 0 0
437 1 12.280642699156534 10.526253908928833 12.280642331708515 0 0 0
438 1 10.526253908928833 12.280642699156534 12.280642331708515 0 0 0
473 1 10.5262538861727 10.5262538861727 14.035007169712749 0 0 0
474 1 12.280686537862056 12.280686537862056 14.035029180203821 0 0 0
475 1 12.28066063437337 10.526275093499148 15.789367099978826 0 0 0
476 1 10.526275093499146 12.280660634373369 15.789367099978827 0 0 0
452 1 17.543712958342425 8.77188871080912 15.789326873951218 -1 0 0
461 1 17.543718106195143 10.526232810174369 14.034962986683416 -1 0 0
464 1 17.54370798515836 12.280477896950078 15.789339060038719 -1 0 0
439 1 15.789379208596793 10.526277029047648 12.280658641853229 0 0 0
440 1 14.035040479227499 12.28068929725801 12.280687180874384 0 0 0
477 1 14.035015224693495 10.526261466518685 14.035011196966549 0 0 0
478 1 15.789393634424624 12.280726331923722 14.0350938271913 0 0 0
479 1 15.78933068630218 10.526199776648527 15.789339501182916 0 0 0
480 1 14.0351087790881 12.28073778432737 15.78938112845809 0 0 0
441 1 1.75434319916808 14.035192163073972 12.280815845822358 0 0 0
442 1 2.8982678757527026e-05 15.789455203662238 12.280622279279216 0 0 0
444 1 3.5086066784388974 15.789483550311338 12.280808632416885 0 0 0
481 1 2.5005702654842675e-05 14.035249758694707 14.03526084907829 0 0 0
482 1 1.7541126803727638 15.789801140434559 14.035508588942266 0 0 0
483 1 1.7541146309194613 14.035190239844637 15.789599100119382 0 0 0
484 1 0.00024611960644647544 15.792217026315262 15.79216040259589 0 0 0
485 1 3.5085772126006103 14.03521283721493 14.035221154173405 0 0 0
488 1 3.5081565110634125 15.789933717686822 15.789875441582526 0 0 0
491 1 8.771810102589468 14.035006468595244 15.789358686073516 0 0 0
490 1 8.77182455121992 15.789369814695043 14.034989083866225 0 0 0
443 1 5.263005485896761 14.035084742853474 12.280734676583789 0 0 0
446 1 7.017369918407508 15.789403575706528 12.28070989539625 0 0 0
486 1 5.262877391535303 15.789513016149623 14.035221154173405 0 0 0
487 1 5.26291184179546 14.035178386954774 15.789402579540685 0 0 0
489 1 7.017386041943539 14.035064343034978 14.035038788954614 0 0 0
492 1 7.017422328834808 15.789443267895335 15.78936815303521 0 0 0
445 1 8.771830325510388 14.03502136944929 12.280645803822207 0 0 0
496 1 10.526199776648527 15.789330686302177 15.789339501182914 0 0 0
495 1 12.28073778432737 14.0351087790881 15.78938112845809 0 0 0
494 1 12.280726331923722 15.789393634424624 14.0350938271913 0 0 0
493 1 10.526261466518683 14.035015224693497 14.03501119696655 0 0 0
448 1 10.526277029047646 15.789379208596793 12.280658641853229 0 0 0
447 1 12.28068929725801 14.035040479227499 12.280687180874384 0 0 0
211 1 8.77188871080912 17.543712958342425 15.78932687395122 0 -1 0
213 1 10.526232810174369 17.543718106195143 14.034962986683416 0 -1 0
215 1 12.28047789695008 17.54370798515836 15.789339060038719 0 -1 0
500 1 14.035369310869827 15.789687330253942 15.789613938981216 0 0 0
499 1 15.789687330253942 14.035369310869829 15.789613938981216 0 0 0
498 1 15.789729798626318 15.789729798626317 14.035428080482074 0 0 0
497 1 14.035165441208296 14.035165441208296 14.035141340443282 0 0 0
450 1 14.035140849972986 15.789414384923663 12.28076313076225 0 0 0
449 1 15.789414384923665 14.035140849972986 12.280763130762248 0 0 0

Velocities

1 3.871074087448853e-09 3.8710749746438564e-09 -1.234717725253617e-15
2 -3.87107824745833e-09 -3.8710741524490006e-09 2.2464503674199935e-16
3 -1.5731181055557529e-10 1.5731291166467085e-10 -4.451802703237328e-09
4 1.573130426153633e-10 -1.5731223976642275e-10 -4.451801985521118e-09
5 -2.42241769422891e-09 -1.9670703028905674e-09 -2.2110169026473713e-16
8 3.0949064905001195e-09 -2.7722925748694797e-09 -1.020274809333981e-09
21 -1.9670648502574462e-09 -2.4224179986966597e-09 -1.1528390530718999e-15
23 -2.772293593508264e-09 3.0949065308494864e-09 -1.0202768802296707e-09
25 5.5040692149903265e-09 5.504069708180047e-09 -3.2711808130915163e-16
51 5.693897197277485e-10 5.693875358367423e-10 -2.785819954621874e-09
52 -5.693882677417412e-10 -5.693886047254644e-10 -2.7858193161263985e-09
53 -1.532287405336798e-09 1.5322842687277743e-09 -5.713759720268249e-09
54 1.5322856624806294e-09 -1.5322834017336865e-09 -5.713758554422806e-09
55 2.7974921291052654e-09 3.5069817813604936e-09 2.8007822282889613e-10
58 -2.9475879261964124e-09 -1.2168499142915503e-09 -4.6060224392374965e-09
71 3.50698138396357e-09 2.797491254628809e-09 2.8007856122364634e-10
73 -1.2168530794259504e-09 -2.9475879646243807e-09 -4.606020278403272e-09
75 -4.378807883115244e-09 -4.378810823113479e-09 1.0282632296912545e-09
6 -2.0358466423409113e-09 8.675973241980173e-10 -6.163254937576696e-16
7 4.9616726669418874e-11 2.4790742514942967e-09 -2.3115687164189236e-09
9 5.240667464863724e-09 2.1943859326618496e-09 -4.966075920925108e-16
12 1.6183416286336964e-11 -1.7519084971634806e-10 -6.909492052198527e-10
27 2.4815112704845583e-10 -2.48065927158118e-09 -3.005581656255439e-09
29 -2.3114254554745964e-09 -3.2202220712100124e-09 -9.4503242376176e-16
56 -1.823325569950358e-10 -2.520807011026711e-09 1.141563480884519e-09
57 -1.0472548326090746e-09 -1.8039088128615212e-09 -2.5430009827714093e-09
59 1.7758457965928715e-09 -7.649689052829634e-10 1.5479171147995428e-10
62 -5.860567502232506e-10 -1.4975017958260783e-09 3.063004564366977e-09
77 2.309359933377498e-09 -1.5976284796823267e-09 5.552354431968347e-09
79 1.7006889511633984e-09 -1.2628361700235941e-09 2.0685034133442335e-09
60 6.765322921957312e-10 -1.3355773180732922e-09 3.2898402190577052e-09
61 -1.507018665481036e-10 7.048238611813775e-10 3.0646181101260302e-09
81 -1.483387053889557e-09 -3.0800925974958727e-09 3.839965155749314e-09
10 1.9291122156904826e-09 -1.0222999395463541e-09 -2.9063368127699797e-15
14 -5.240666970907292e-09 -2.194381446866271e-09 -4.981779658026247e-17
16 -1.200614499790924e-09 2.76110330761503e-10 1.0663184258271002e-09
31 -4.0192475394545254e-10 -7.239703446034868e-11 9.857791086177244e-10
33 -2.453894101703368e-09 -1.3031771782067763e-09 7.508233832827246e-17
35 -4.3413661887749505e-09 4.206803066886676e-10 -2.417605405264066e-10
64 -1.7758458226056502e-09 7.649646501983585e-10 1.5479562758553765e-10
65 5.860600212562638e-10 1.497502336143175e-09 3.0630029290375298e-09
66 1.507004841085786e-10 -7.048211463932074e-10 3.0646172990002965e-09
83 -2.0854326262516483e-09 -3.2478201885868515e-09 -6.404992647160255e-10
85 -1.987115265562052e-09 -1.9840259137311222e-09 3.3086224715995768e-09
18 2.4224175730330092e-09 1.967066874820183e-09 -1.0050391744729384e-15
19 -3.094906966267929e-09 2.772295073871848e-09 -1.0202764660944108e-09
20 -4.961453804881658e-11 -2.479071548530117e-09 -2.3115708423723773e-09
37 -6.62243117581487e-11 3.3938555580395594e-09 -1.1868330251496612e-15
39 -6.429968290397563e-10 6.429950052723919e-10 -7.475926303108361e-09
67 1.823316696045647e-10 2.5208077104157365e-09 1.1415661449773308e-09
68 -2.7974909519346575e-09 -3.5069809206109504e-09 2.800778872561999e-10
69 2.9475893196536678e-09 1.216848948123744e-09 -4.606019042796286e-09
70 1.0472510976645736e-09 1.8039088214438412e-09 -2.5430043816120585e-09
87 -1.1918098183353833e-09 -7.709544480113108e-10 -1.8320862167968683e-09
89 -9.547008060282674e-10 9.54700701736978e-10 -2.251463105324948e-09
22 8.675968796159825e-10 -2.0358507227999597e-09 -5.439035532441784e-16
24 2.4790749987704826e-09 4.961471422627187e-11 -2.311568738884505e-09
28 -2.4806581038328144e-09 2.4815163577018933e-10 -3.0055839375537098e-09
41 2.1943849536354538e-09 5.240670423226094e-09 -1.7121137936903704e-15
42 -1.7519460265086546e-10 1.6185613183732458e-11 -6.909481585011124e-10
43 -3.2202179877949667e-09 -2.3114273600238323e-09 7.248106046493074e-16
72 -2.5208109224026984e-09 -1.823291276094636e-10 1.1415654559342967e-09
74 -1.8039062822419268e-09 -1.0472536008033175e-09 -2.54300294292804e-09
78 -1.597627991765228e-09 2.309362733025892e-09 5.552354638779637e-09
91 -7.649605977473871e-10 1.7758428178341182e-09 1.5479339994576742e-10
92 -1.4975027890412624e-09 -5.860604032450501e-10 3.0630028170768124e-09
93 -1.2628347549690815e-09 1.7006884534496165e-09 2.0685060506321516e-09
301 -1.3355783358232562e-09 6.765316856250295e-10 3.2898394617311273e-09
302 7.04823964050093e-10 -1.5069686204421427e-10 3.0646206002583846e-09
304 -3.0800908292181253e-09 -1.4833868831806972e-09 3.8399651374221295e-09
26 -2.1822854203294646e-09 -2.1822843455287473e-09 -9.444412242473642e-16
32 -1.2038448312717373e-09 3.7340948178845336e-11 1.5645651888439613e-09
44 3.733872220182372e-11 -1.2038448780827302e-09 1.5645640261843707e-09
45 -3.901174194327748e-09 -3.901174685762344e-09 -6.897820334213535e-16
76 2.5206107000615437e-09 2.520610536306468e-09 2.0723615379035412e-09
82 -1.2513186252121e-09 -7.598924870948658e-10 5.342288644448384e-09
94 -7.59895684204846e-10 -1.251319072733799e-09 5.342290271879775e-09
95 -1.4539408763524427e-09 -1.4539415358806787e-09 -6.00529068396663e-11
46 -2.871692495822025e-09 -1.4982479599659879e-09 -1.8760969212662064e-09
80 -1.1125019665067746e-09 -1.5514398049386352e-09 -1.1832271592201697e-09
96 -2.3435359922360575e-09 3.5168630353951005e-09 2.1216483604824144e-09
256 -1.4982456312311008e-09 -2.8716906358911317e-09 -1.8760953208891207e-09
303 -1.5514396532567005e-09 -1.112501364591769e-09 -1.1832279336222524e-09
306 3.5168641462589883e-09 -2.3435346849784624e-09 2.1216479794543273e-09
255 -4.060990995887685e-09 -4.0609885876041315e-09 -1.0854423084307736e-15
305 -1.924737983840603e-09 -1.9247365588012913e-09 1.6979283616307008e-09
30 -1.4485142858181815e-09 -1.8559623412468327e-09 -6.952344633177933e-16
34 -2.777456162347292e-09 -6.886041944414319e-10 8.816470602007335e-16
36 -1.723994970680067e-09 6.225435037652461e-10 -3.857579836740203e-09
47 -1.554569174934143e-10 -3.3135149826712395e-09 6.769234439832438e-17
48 -1.901255884728561e-09 1.9012543063286335e-09 -3.1628903960239593e-09
84 -5.306002622708844e-09 2.35440596461814e-09 -4.105910496448968e-09
86 2.3545458849106886e-09 1.2434634053522308e-09 1.5042851953139005e-09
97 1.2623608224888606e-09 -1.2383826839822147e-09 -2.1428482724012626e-09
98 1.2612113223403745e-09 -1.2612101306459249e-09 -1.2556413876352987e-09
257 3.3135137094076165e-09 1.5545931761959065e-10 -1.667182630596286e-15
258 7.884869575779726e-10 -7.884835112483495e-10 1.268275996876586e-09
307 1.2383814150358335e-09 -1.2623592047028178e-09 -2.1428477342249543e-09
308 -3.3968819232079283e-09 3.3968846736894806e-09 -8.05544396495544e-10
100 1.984021116838573e-09 1.9871106294308847e-09 3.308620809100355e-09
99 -2.3544041842415866e-09 5.306002319021662e-09 -4.10591065523961e-09
90 -2.373163786110276e-09 2.373166574207186e-09 3.1656061706104546e-09
88 7.709509197326088e-10 1.191811213566237e-09 -1.8320854139479278e-09
50 -4.2068335018376776e-10 4.341366570689837e-09 -2.4176011131555914e-10
38 -3.3938587324853523e-09 6.622457572873187e-11 -1.6861010150569531e-15
40 -1.286777217953506e-09 1.286779883080917e-09 -2.2605970822496095e-09
49 6.886053666630533e-10 2.7774549042008256e-09 6.946594294151192e-16
259 1.303178578758426e-09 2.453896127744104e-09 4.790194065392343e-16
260 -6.225384561592172e-10 1.7239934191041893e-09 -3.857576982779972e-09
309 3.2478150127852122e-09 2.0854326493136253e-09 -6.405002041244966e-10
310 -1.2434637490654672e-09 -2.354543631062247e-09 1.5042859864312257e-09
102 -1.0747021334702237e-09 -1.0746996196898885e-09 1.9891717835750776e-09
108 -6.947452242886484e-10 -3.095174644558861e-09 2.1908560754572317e-16
123 -3.0951754772633774e-09 -6.947461252767083e-10 3.8871368071526885e-16
125 -2.205821325144156e-09 -2.2058219565452373e-09 2.704988442394088e-09
152 -1.0747030545590671e-09 -1.0747019436951796e-09 -1.9891735648592144e-09
163 -2.205819272499442e-09 -2.2058220712379433e-09 -2.704988634365346e-09
106 -1.9116583959305897e-11 -2.108358358715352e-09 2.42462568205848e-09
107 -1.584639998600584e-09 1.1575902269763118e-10 2.3127447878393127e-16
109 -1.867648467964864e-09 -2.3205194132173293e-10 -1.4155454128432631e-09
112 -3.829512673843657e-09 5.702126599925953e-10 -9.87303189041063e-17
127 -4.704175810267451e-10 -5.135986553651003e-09 2.274824881486267e-16
129 -2.5022777611808133e-09 -2.344518846533284e-09 -1.8306857016607629e-09
154 -1.911904210222431e-11 -2.1083565662838714e-09 -2.424625244000436e-09
155 -1.8676486524191127e-09 -2.3205375039224697e-10 1.4155445721575537e-09
165 -2.502277979333434e-09 -2.3445179827907934e-09 1.830686191058492e-09
110 -2.4613232667395413e-09 1.0571778163828865e-09 -2.5848333555768933e-09
111 -2.151148718821038e-09 -3.1957974454297056e-09 -9.623250095578386e-16
131 -3.2307605441150193e-10 4.937109563243024e-09 -9.979355428077759e-16
156 -2.461325589728708e-09 1.0571772488313526e-09 2.5848328040246966e-09
113 2.461324651033204e-09 -1.0571768184381062e-09 -2.584832769143925e-09
114 1.867649951875645e-09 2.320527287994861e-10 -1.415546184765079e-09
115 3.829512833199639e-09 -5.702180407026007e-10 -1.8641259688294024e-16
116 2.151146174088897e-09 3.1957987224206565e-09 -7.520057823115163e-16
133 2.5402762036917665e-09 1.6557353892933122e-09 -1.7633025653909304e-09
135 7.964027413440957e-10 1.0615219854801884e-09 -5.580877228434726e-16
157 2.4613247972280688e-09 -1.0571753806408873e-09 2.584832972442658e-09
158 1.8676503609441404e-09 2.3205245448291143e-10 1.415546104546695e-09
167 2.5402774626564315e-09 1.655735326330564e-09 1.763306245617145e-09
104 -7.016903334896194e-10 7.016935070486127e-10 -1.4307028248379477e-15
121 -1.8366593549165479e-09 -1.253646114573395e-09 1.4343815094259204e-09
161 -1.8366578928801489e-09 -1.2536416205702862e-09 -1.4343840078350684e-09
117 1.911975883926059e-11 2.108355571359751e-09 2.4246267738815984e-09
118 1.2536447329401297e-09 1.836659274513414e-09 1.4343863427775504e-09
119 6.947459455520559e-10 3.095175481992973e-09 -3.335695460099963e-15
120 1.5846416813576268e-09 -1.1575921611917542e-10 3.369837232056323e-17
137 7.029222774025155e-10 -1.549582743879707e-09 -1.7277624794751286e-09
139 2.230868935393951e-09 -2.2308699767918955e-09 1.3656708782544045e-16
159 1.9117074497865475e-11 2.1083567874571524e-09 -2.4246246396513515e-09
160 1.253640716330629e-09 1.836658169118122e-09 -1.434383379981184e-09
169 7.029228443628498e-10 -1.5495842684613631e-09 1.7277622825340997e-09
122 -2.108358561646895e-09 -1.911593259600342e-11 2.424625643508127e-09
124 1.1576112628480644e-10 -1.5846369984662732e-09 1.6036286827987326e-15
128 -5.1359859299008744e-09 -4.704169708903713e-10 -2.4478431143711763e-16
141 -2.3205104269847103e-10 -1.8676516746310303e-09 -1.4155456398638766e-09
142 5.702123951352129e-10 -3.829515961984506e-09 2.2879421207119247e-16
143 -2.3445168831596966e-09 -2.502278571715348e-09 -1.830686855088706e-09
162 -2.108359557226877e-09 -1.911758558984567e-11 -2.424626469413848e-09
171 -2.3205270515150552e-10 -1.8676528854076356e-09 1.4155454766928106e-09
172 -2.34451704928676e-09 -2.502277541254594e-09 1.8306853666515535e-09
351 1.0571763265601103e-09 -2.4613216356200813e-09 -2.5848334868601354e-09
352 -3.195798811100584e-09 -2.1511424384439345e-09 -2.205174188696506e-16
354 4.937108687528744e-09 -3.2307589286392523e-10 -3.0269877011687945e-16
401 1.0571783177200748e-09 -2.4613253510134294e-09 2.5848339923357205e-09
126 -1.2626352584987955e-09 -1.2626344489203417e-09 -1.7633875583773555e-09
132 3.826743687235691e-09 1.7993586298696076e-09 6.309207317693171e-18
144 1.7993575696885572e-09 3.826741437943917e-09 -1.5312067422852415e-16
145 1.6594535490852236e-09 1.6594535293544766e-09 -1.1545276761440853e-09
164 -1.2626362051062117e-09 -1.2626342038427398e-09 1.763389240125859e-09
173 1.6594535086339119e-09 1.6594491881764425e-09 1.1545241691485659e-09
130 -1.227800926222321e-09 3.076194221394752e-09 1.935223719387367e-09
146 4.144337094518816e-09 -3.230692758513516e-09 2.3647980575833843e-16
166 -1.2278015855575795e-09 3.0761946338093905e-09 -1.9352228993936406e-09
353 3.0761939586481364e-09 -1.227800310192427e-09 1.935222944324804e-09
356 -3.2306921721855883e-09 4.144339555851051e-09 3.1451814165859013e-16
402 3.076194212577421e-09 -1.2277991041454177e-09 -1.9352228631457205e-09
355 1.519947359061963e-09 1.5199481994520728e-09 -4.9815454972005845e-09
403 1.5199479490441267e-09 1.51994876316081e-09 4.981544258933201e-09
134 2.1630128331641354e-09 2.2564876340286607e-09 -6.239173381000602e-09
136 -2.589968850789681e-09 6.071351909371229e-09 -5.848071696464411e-16
147 -2.8132734966331023e-10 1.7683694697978363e-09 1.6734599480209732e-09
148 -2.9540586925314214e-09 2.9540596031451945e-09 2.890272813464755e-16
168 2.1630090033759905e-09 2.256486401928993e-09 6.239176801607092e-09
174 -2.8132588896635763e-10 1.7683697352464183e-09 -1.6734629081569418e-09
357 -1.7683678147347956e-09 2.813290847636814e-10 1.6734596710440007e-09
358 3.800411909922083e-09 -3.800408999506664e-09 4.847836018045939e-16
404 -1.7683663397468008e-09 2.813250823429689e-10 -1.6734638570321624e-09
175 -2.256487072093522e-09 -2.163009881029761e-09 6.239172091003261e-09
170 1.5495841596806523e-09 -7.029198531889067e-10 1.7277575766575557e-09
150 -1.061525308427909e-09 -7.964068298074312e-10 2.021902339233794e-15
149 -2.2564879228296233e-09 -2.163011816224635e-09 -6.239173486234115e-09
140 -8.511412398968466e-10 8.511439440434254e-10 -8.0698733715033e-16
138 1.5495838380681167e-09 -7.02921671718613e-10 -1.727762472676334e-09
359 -1.6557368950784753e-09 -2.5402729641820117e-09 -1.7633037708467403e-09
360 -6.071352939365489e-09 2.589971061483394e-09 2.6988257832170374e-16
405 -1.655736697026638e-09 -2.5402773689139937e-09 1.7633014693070307e-09
176 -1.532287984712322e-09 1.532284684045433e-09 5.713761051649555e-09
177 1.5322867171805631e-09 -1.5322857003173985e-09 5.713758533139624e-09
179 -2.947585434438259e-09 -1.216850618410172e-09 4.606021669495729e-09
186 -1.2168540016971929e-09 -2.9475888558576487e-09 4.6060209842954914e-09
201 5.69396308055137e-10 5.69389901817199e-10 2.7858166439045933e-09
202 -5.693915122446762e-10 -5.69389963893148e-10 2.785820301655989e-09
203 -1.57312373377513e-10 1.5731254659897072e-10 4.4518001563498205e-09
204 1.5731372604200195e-10 -1.5731232371675379e-10 4.451804741693254e-09
205 2.797492169805657e-09 3.5069814463766874e-09 -2.8007992334732747e-10
208 3.094907990170063e-09 -2.7722927977029114e-09 1.0202741968882341e-09
221 3.5069813045950353e-09 2.7974907887635917e-09 -2.80081545598795e-10
223 -2.7722932860845163e-09 3.094906812556055e-09 1.0202787164953623e-09
225 -4.378808098496617e-09 -4.378809673803148e-09 -1.0282633442176853e-09
178 -1.047255972848188e-09 -1.8039076304625176e-09 2.5430054591909515e-09
181 -5.860580224846056e-10 -1.497500883014028e-09 -3.0630038176819905e-09
188 2.309360392296121e-09 -1.5976297415840807e-09 -5.552357461865858e-09
206 -1.8233232376682738e-10 -2.5208079900531067e-09 -1.1415659259379107e-09
207 4.961527941300763e-11 2.4790735018533123e-09 2.311571476138257e-09
209 1.7758448081072834e-09 -7.649644168962501e-10 -1.5479421343629922e-10
212 1.6185782266793574e-11 -1.75193145935262e-10 6.909508852610727e-10
227 2.481497259056067e-10 -2.4806587182184346e-09 3.0055817762783944e-09
229 1.700689568966891e-09 -1.2628353648098557e-09 -2.0685041266264473e-09
180 -1.5070250456322956e-10 7.048213024698792e-10 -3.064618095937242e-09
190 -1.483386756994131e-09 -3.0800909439847307e-09 -3.839964626320911e-09
210 6.765278369161907e-10 -1.3355789879163206e-09 -3.289839266044088e-09
182 5.860586892745204e-10 1.497501475703088e-09 -3.063004365240756e-09
183 1.5070082137289063e-10 -7.048208247806715e-10 -3.0646200477824385e-09
192 -1.987115793447872e-09 -1.9840234416937135e-09 -3.308622795969504e-09
214 -1.775841787987658e-09 7.649642129365901e-10 -1.54793699787843e-10
216 -1.2006158008466976e-09 2.7610901120418687e-10 -1.0663165903004078e-09
231 -4.0192479887661565e-10 -7.239648109760321e-11 -9.857768187542052e-10
233 -2.085432669439235e-09 -3.2478179372991006e-09 6.404999531678601e-10
235 -4.341365828734446e-09 4.206803303366482e-10 2.4175994888349253e-10
184 2.94758982808525e-09 1.216850310247425e-09 4.606015853829156e-09
185 1.0472522540508238e-09 1.8039089095325689e-09 2.543001206484243e-09
194 -9.547016236225552e-10 9.54698851573479e-10 2.251465800502339e-09
217 1.8233166990016447e-10 2.520807517684695e-09 -1.1415616351596352e-09
218 -2.7974925552677405e-09 -3.5069787027259723e-09 -2.8007998483207697e-10
219 -3.0949090307366333e-09 2.7722933333804778e-09 1.0202801575441787e-09
220 -4.961559629594735e-11 -2.4790711618856343e-09 2.311569908277145e-09
237 -1.1918113140701547e-09 -7.709561203669371e-10 1.8320859265179068e-09
239 -6.429974208304702e-10 6.429953774324861e-10 7.475929564608283e-09
187 -1.8039076041640412e-09 -1.0472538396479213e-09 2.54300405083593e-09
189 -1.5976273568169495e-09 2.309361065843261e-09 -5.55235445225619e-09
196 -1.4975029261995498e-09 -5.860565273410337e-10 -3.063003822854986e-09
222 -2.5208092859624426e-09 -1.8232900432935393e-10 -1.1415623326272623e-09
224 2.4790746653339566e-09 4.961731171676332e-11 2.3115710930409717e-09
228 -2.480658119850626e-09 2.4815212533422953e-10 3.0055818771148614e-09
241 -7.649610115870471e-10 1.7758439354968003e-09 -1.547935341480572e-10
242 -1.751952695239177e-10 1.618344111671657e-11 6.909447168331394e-10
243 -1.262836591474948e-09 1.7006889076825215e-09 -2.0685032166601494e-09
426 7.04824741994754e-10 -1.5069810178959595e-10 -3.064618020263704e-09
427 -3.0800923357977127e-09 -1.4833864354786995e-09 -3.839964545421262e-09
451 -1.3355787094613492e-09 6.765299959768173e-10 -3.289839752010089e-09
191 -1.251318242541881e-09 -7.598946340867086e-10 -5.3422896858532566e-09
197 -7.598949014105015e-10 -1.2513203539739966e-09 -5.342289700042045e-09
226 2.5206102481529273e-09 2.5206110459897303e-09 -2.072360150549959e-09
232 -1.2038451283471841e-09 3.7339399019036546e-11 -1.5645622028102046e-09
244 3.733898719659583e-11 -1.203846719078018e-09 -1.5645615561527995e-09
245 -1.453940194107049e-09 -1.4539406205491025e-09 6.005211936191312e-11
198 -2.3435339566206607e-09 3.5168638158893097e-09 -2.1216436991698433e-09
230 -1.1125010171835357e-09 -1.5514383045296926e-09 1.1832259645907009e-09
246 -2.871691509283252e-09 -1.4982465570495403e-09 1.8760970655188877e-09
428 3.516864184942418e-09 -2.343532828441094e-09 -2.1216441573217542e-09
453 -1.5514402793499764e-09 -1.1124991359474217e-09 1.1832279472660287e-09
456 -1.4982476996422656e-09 -2.8716897863374293e-09 1.8760979133359414e-09
455 -1.9247371922963967e-09 -1.924736989293841e-09 -1.6979321399406098e-09
193 2.354547311279224e-09 1.2434625929748169e-09 -1.504285091355161e-09
199 1.2612119897676762e-09 -1.2612130075915402e-09 1.2556420342851705e-09
234 -5.306002387683944e-09 2.354407801313375e-09 4.105909422749846e-09
236 -1.7239954841553089e-09 6.225425382255893e-10 3.8575784297985175e-09
247 1.2623573188702754e-09 -1.2383831515910087e-09 2.1428474747253176e-09
248 -1.9012554610908984e-09 1.9012565321948052e-09 3.1628893697016024e-09
429 -3.3968873893693786e-09 3.3968844682568867e-09 8.055470290423192e-10
457 1.238382598269832e-09 -1.262359190968913e-09 2.1428492857680363e-09
458 7.884866969859661e-10 -7.884838307916871e-10 -1.2682741856999236e-09
250 -4.206813188222363e-10 4.341363702485392e-09 2.417599831730644e-10
249 -2.3544058526066164e-09 5.306000334956092e-09 4.105910399695497e-09
240 -1.286776541030062e-09 1.2867783583773693e-09 2.2605981635535215e-09
195 -2.3731666587487164e-09 2.373163936866152e-09 -3.165604208042117e-09
200 1.984026022020944e-09 1.9871135201009104e-09 -3.3086217491306764e-09
238 7.709541666003418e-10 1.1918121216486913e-09 1.832085528049434e-09
430 -1.2434632061127232e-09 -2.35454318309929e-09 -1.504284921653188e-09
459 3.2478160360014625e-09 2.0854331356583637e-09 6.404998712867274e-10
460 -6.225433713919799e-10 1.7239978075255887e-09 3.857578455457962e-09
251 -1.0223055843193175e-09 1.929118553349277e-09 5.326707624706573e-16
254 -7.23949203308852e-11 -4.0192444888650314e-10 9.857774822278603e-10
262 -2.1943840810249703e-09 -5.2406678219482304e-09 -3.65065700139435e-16
263 2.761070578809913e-10 -1.2006161034196068e-09 1.0663156350697925e-09
265 -1.3031778025134635e-09 -2.4538987083438403e-09 1.7203905868919123e-16
268 4.2068237825176607e-10 -4.341364693631379e-09 -2.41759592833585e-10
312 7.649627686320039e-10 -1.7758450611406756e-09 1.547948992277359e-10
313 -7.048225841904264e-10 1.5069907490399664e-10 3.064617774324706e-09
314 1.4975024993535003e-09 5.860606048440845e-10 3.063002468269099e-09
315 -3.2478196919792593e-09 -2.0854334256440347e-09 -6.404994722270551e-10
318 -1.9840249407170324e-09 -1.9871116941812103e-09 3.30862126550638e-09
253 -1.8559630342065634e-09 -1.4485135530102177e-09 -9.400002997700861e-16
266 -6.886027490902535e-10 -2.7774542009643845e-09 1.6486198895934978e-15
267 6.225426612505132e-10 -1.7239955484143147e-09 -3.857578300628352e-09
269 -3.313514393319224e-09 -1.554605922457437e-10 -8.134905318086842e-16
272 1.901254778105846e-09 -1.9012523666030267e-09 -3.1628898343844207e-09
316 2.35440771100534e-09 -5.3060011441465706e-09 -4.105911071014092e-09
317 1.2434636243454634e-09 2.354545680730787e-09 1.5042878352483603e-09
319 -1.2383845320418748e-09 1.2623574766635872e-09 -2.142848502821273e-09
322 -1.2612101044799474e-09 1.261212304285818e-09 -1.2556438078837137e-09
270 1.5545615056379205e-10 3.313514742126937e-09 -2.039638324665669e-16
271 -7.88485207695356e-10 7.884834592227922e-10 1.2682752936447635e-09
320 -1.2623600595644696e-09 1.2383843836507967e-09 -2.1428481690891474e-09
321 3.396883400204158e-09 -3.396885352386523e-09 -8.055417192115932e-10
273 4.0609934934146525e-09 4.0609888666503025e-09 1.0878071064883569e-16
274 3.901168997393035e-09 3.901171609307871e-09 -1.0345991501927308e-16
275 1.4982398630313824e-09 2.8716909415412808e-09 -1.8760968311082805e-09
276 2.8716948074448095e-09 1.498244446467274e-09 -1.876096360217867e-09
323 1.924739605997162e-09 1.924739004101786e-09 1.6979274600052538e-09
324 1.453936999744501e-09 1.4539412318494002e-09 -6.005054913600288e-11
325 -3.5168641996978817e-09 2.3435329967736087e-09 2.1216470083902835e-09
326 2.343538250207134e-09 -3.516861769045741e-09 2.1216469554967685e-09
252 -2.76106759916436e-10 1.2006140939324574e-09 1.0663138589586512e-09
261 1.022305234329205e-09 -1.929118262479116e-09 3.9019167950125845e-16
264 1.7519345202881057e-10 -1.6184928574694788e-11 -6.909462382850896e-10
311 1.3355808023076301e-09 -6.765285439908099e-10 3.289839906313162e-09
277 1.8559654462451573e-09 1.4485158524345414e-09 -9.278760909787649e-16
278 3.2202178612782706e-09 2.3114308303649818e-09 3.0978854554342337e-16
279 7.23924355193262e-11 4.0192342160344694e-10 9.857792652855957e-10
280 -3.7334495273095675e-11 1.2038466026117137e-09 1.5645633321161408e-09
327 1.5514429814074387e-09 1.112499051405891e-09 -1.1832266428563597e-09
328 1.2628369536585506e-09 -1.7006878846394744e-09 2.068502650041593e-09
329 3.0800907875385593e-09 1.4833835754194143e-09 3.8399655518529885e-09
330 7.598910160934804e-10 1.2513221234710932e-09 5.34229147157139e-09
282 1.967067300188234e-09 2.422418918603104e-09 -2.9072236120415736e-16
283 -2.479073929881761e-09 -4.961456524399424e-11 -2.3115694968022827e-09
284 2.7722947711776964e-09 -3.094907017111087e-09 -1.0202754028220841e-09
285 3.393857621030265e-09 -6.622472648460805e-11 4.905477970699533e-16
288 6.42994764571052e-10 -6.429946522431444e-10 -7.475927731372488e-09
331 2.520809387648759e-09 1.8232765181266486e-10 1.1415636912037463e-09
332 -3.506983553517988e-09 -2.7974902630024732e-09 2.8008001568530166e-10
333 1.803907265997919e-09 1.047251727883256e-09 -2.5430037082358113e-09
334 1.2168519596940702e-09 2.947591502362275e-09 -4.606019837368434e-09
335 -7.709541926131205e-10 -1.1918116114435104e-09 -1.8320849817810828e-09
338 9.547012544530991e-10 -9.547014496967387e-10 -2.251463191492277e-09
341 -2.3545463282139283e-09 -1.24346278382141e-09 1.5042855690905562e-09
340 2.0854304481088273e-09 3.2478212640988556e-09 -6.40501394660076e-10
286 6.622361928800499e-11 -3.393856804170358e-09 -2.2110837118095556e-15
287 1.2867783134739188e-09 -1.2867817790000253e-09 -2.2605974514029e-09
289 2.7774576366972687e-09 6.886015489182893e-10 -2.1104898914690462e-16
292 4.341367584892604e-09 -4.2067736133268693e-10 -2.4175767261756224e-10
336 1.1918130169413366e-09 7.709567735107663e-10 -1.832085950138175e-09
337 2.373163327846111e-09 -2.3731647889878772e-09 3.1656049735445975e-09
339 5.306001708565902e-09 -2.354409112240564e-09 -4.105908863588265e-09
342 1.9871150844148255e-09 1.9840232380624306e-09 3.308621478338205e-09
290 2.453897138104074e-09 1.30317998610887e-09 2.1874382032646307e-16
291 1.7239942473512002e-09 -6.225431621997267e-10 -3.8575791277117685e-09
346 1.4833859402174719e-09 3.0800898085121635e-09 3.839964899464325e-09
345 1.2513168292517292e-09 7.59888760648858e-10 5.342291108246957e-09
344 -1.7006883595768295e-09 1.2628346956732907e-09 2.0685038646881126e-09
343 1.1125035425684708e-09 1.5514378972024647e-09 -1.1832256691456717e-09
296 4.019261867993637e-10 7.240085715640876e-11 9.857768443235842e-10
295 1.2038444324875122e-09 -3.734001110914003e-11 1.564565827329021e-09
293 1.4485160265216763e-09 1.8559610435638985e-09 -8.340762836497959e-16
294 2.311422503421434e-09 3.2202253547379407e-09 1.3648395039372853e-17
11 1.2006147412959255e-09 -2.7611595838968053e-10 1.0663190142184168e-09
13 -1.929114114768164e-09 1.0222932258846686e-09 -1.045240741451856e-15
15 -1.618756355093045e-11 1.7519226593478482e-10 -6.909489997780214e-10
63 -6.765325178678123e-10 1.335580018995986e-09 3.289836773200529e-09
350 -2.3093602841297033e-09 1.597631997141938e-09 5.552355025424119e-09
349 1.5976300840203093e-09 -2.309363781074831e-09 5.5523567877898714e-09
348 4.378807856696015e-09 4.378810096750976e-09 1.0282647785970321e-09
347 -2.5206135342053054e-09 -2.5206097503020946e-09 2.072358687439911e-09
300 -2.4814963604328056e-10 2.4806580692672725e-09 -3.005581783857757e-09
299 2.4806571592253153e-09 -2.481542964690525e-10 -3.005583640224232e-09
298 -5.504068592845212e-09 -5.50406734186704e-09 -1.1847638268492756e-15
297 2.182289627009609e-09 2.182283951494271e-09 3.547197086375077e-17
281 -8.675995944041526e-10 2.035848253359588e-09 -1.1625938450594315e-15
17 2.035849227656388e-09 -8.676000632253675e-10 -7.505277835255267e-16
361 -1.0571759198148444e-09 2.461321289177166e-09 -2.5848342116707402e-09
362 2.320520146304727e-10 1.86765071304502e-09 -1.4155460273951584e-09
363 3.1957974832664746e-09 2.1511447039204737e-09 -5.096139814092193e-16
364 -5.702124022296071e-10 3.829519125603957e-09 3.7907712863061655e-15
365 1.6557365906107255e-09 2.5402754119281322e-09 -1.7633047546027323e-09
368 1.0615236840887682e-09 7.964089796929183e-10 -6.05974883509536e-16
406 -1.0571757542789802e-09 2.4613235345529214e-09 2.58483261720565e-09
407 2.320520430080494e-10 1.867651799965327e-09 1.4155440613611732e-09
408 1.655734322917188e-09 2.540275960004723e-09 1.7633061269968733e-09
366 2.256487054322896e-09 2.1630083305886335e-09 -6.2391707820875365e-09
367 6.071354164696919e-09 -2.5899678524524297e-09 -1.1767826334049318e-15
369 1.7683697660626928e-09 -2.813263729315088e-10 1.6734602566271198e-09
372 2.9540584804455963e-09 -2.9540591422818335e-09 6.709421676461921e-16
409 2.256488485267556e-09 2.163009607579585e-09 6.239172520214109e-09
410 1.7683696707765153e-09 -2.813292272427643e-10 -1.6734641324572363e-09
370 2.813277139198074e-10 -1.7683716631480347e-09 1.6734611611623769e-09
371 -3.800412243823406e-09 3.800412515961376e-09 4.791672064178333e-16
411 2.813248787886893e-10 -1.7683696956360508e-09 -1.673463163555132e-09
373 -1.5199498156576016e-09 -1.5199492204536343e-09 -4.981544736622409e-09
374 -1.6594526713761814e-09 -1.659446643062533e-09 -1.1545314672109714e-09
375 3.230690468225072e-09 -4.144342387934591e-09 4.987645465708144e-16
376 -4.144340685584141e-09 3.2306916441024316e-09 5.118032671109665e-17
412 -1.5199488398256257e-09 -1.519948014406625e-09 4.981543803266175e-09
413 -1.6594541455875955e-09 -1.6594529874429103e-09 1.154530697626241e-09
377 -3.0761912050948294e-09 1.227795586508307e-09 1.9352227792323394e-09
378 2.344515398657716e-09 2.5022810931812765e-09 -1.8306845863559508e-09
379 -4.937110370304262e-09 3.230721648660186e-10 -1.340840498649779e-15
380 -1.799355081762628e-09 -3.826737516517538e-09 -1.3748344707275403e-15
414 -3.076196367448989e-09 1.2277975215043176e-09 -1.9352216058491033e-09
415 2.3445171663442642e-09 2.5022802470269717e-09 1.8306839902790404e-09
381 2.1083565775813247e-09 1.9116214006972273e-11 2.424626940008662e-09
382 1.8366590025616374e-09 1.2536429971783556e-09 1.4343866889248662e-09
383 -1.1576088980500068e-10 1.5846366537969563e-09 -1.0328994515888428e-15
384 3.0951781246548025e-09 6.947496157186412e-10 -1.6346666573045146e-15
385 -1.549582295037384e-09 7.029222543457345e-10 -1.7277603749295635e-09
388 -2.2308701777997303e-09 2.2308720950597556e-09 -8.449719059502631e-16
416 2.108357331951905e-09 1.911529646532593e-11 -2.424627212551638e-09
417 1.8366574843612844e-09 1.2536476605601252e-09 -1.4343847571804528e-09
418 -1.5495847171817945e-09 7.029180881627564e-10 1.7277625875999772e-09
103 7.016925658589857e-10 -7.016975402116999e-10 7.310181995504638e-16
105 -1.2536423728716684e-09 -1.836659837850342e-09 1.4343873896032434e-09
153 -1.2536431485254312e-09 -1.8366598172322588e-09 -1.4343860610709818e-09
421 -2.5402799081715856e-09 -1.6557371348098784e-09 1.7633068043283985e-09
391 2.5899690638385654e-09 -6.071353400519586e-09 -5.888347163382628e-16
390 -2.5402794654552718e-09 -1.6557367667881807e-09 -1.7633030486965334e-09
386 -7.029233583692589e-10 1.549584000714955e-09 -1.7277621434949223e-09
387 8.51141828137464e-10 -8.511431496745029e-10 -3.7895426998153113e-16
389 -2.1630088086393163e-09 -2.2564864160468113e-09 -6.2391735150250695e-09
392 -7.964053659974335e-10 -1.061521328472778e-09 6.361306774899304e-16
419 -7.02921675284285e-10 1.5495847891857385e-09 1.7277573985492894e-09
420 -2.1630081612584015e-09 -2.256487855432879e-09 6.239172996471505e-09
423 2.5022786929262953e-09 2.3445178349909147e-09 1.8306855098095922e-09
422 1.2278021146463226e-09 -3.076195915791035e-09 -1.935221860713828e-09
396 3.2307994765313683e-10 -4.937109528436153e-09 -2.1614254246312136e-15
395 -3.826743533007196e-09 -1.79935616829727e-09 -1.4881276964198504e-15
394 2.502276962913669e-09 2.3445175281583668e-09 -1.8306821602209435e-09
393 1.2278032521785793e-09 -3.076192414670561e-09 1.935222763600193e-09
425 2.2058234907079774e-09 2.2058243153574e-09 -2.7049849517835708e-09
424 1.2626350412883989e-09 1.2626342736158294e-09 1.7633895982362428e-09
400 4.704157438557791e-10 5.135988316721114e-09 -1.3006389316708615e-16
399 5.135986945138241e-09 4.704120973371744e-10 -6.668730522385145e-16
398 2.20582387676126e-09 2.2058264851335177e-09 2.704988379853955e-09
397 1.2626343939249306e-09 1.2626289377446123e-09 -1.7633878216817019e-09
101 1.0746967030070842e-09 1.0746965909747762e-09 1.9891736760047234e-09
151 1.0747026770781772e-09 1.074696786070616e-09 -1.9891694477457962e-09
431 -7.048232084971136e-10 1.5069841867253567e-10 -3.0646195851688187e-09
432 1.4975027269653134e-09 5.860589684038287e-10 -3.0629997416569387e-09
434 -1.984023177113456e-09 -1.9871104923372597e-09 -3.3086226495968182e-09
454 -7.239464128471441e-11 -4.019231163227977e-10 -9.857811194350728e-10
462 7.649613473883713e-10 -1.7758401636438983e-09 -1.5479341768175284e-10
463 2.7610869905084327e-10 -1.2006171090499809e-09 -1.0663153156742548e-09
465 -3.247816433287536e-09 -2.0854356885132916e-09 6.405013551975084e-10
468 4.2067828242153033e-10 -4.341365335674051e-09 2.417596042141757e-10
433 1.2434626270657826e-09 2.354546260717687e-09 -1.5042845285332233e-09
436 -1.2612111338585793e-09 1.2612133542561555e-09 1.2556442962145127e-09
466 2.3544085823595242e-09 -5.305997800001115e-09 4.1059049716017745e-09
467 6.225420726374966e-10 -1.7240008987248894e-09 3.857579000019686e-09
469 -1.2383824607743761e-09 1.2623570888367057e-09 2.1428474988166978e-09
472 1.901258257314988e-09 -1.9012523051182774e-09 3.162888742734517e-09
435 3.3968841380442454e-09 -3.396886532420754e-09 8.055463876555086e-10
470 -1.2623607178365505e-09 1.2383833573284398e-09 2.1428492441854642e-09
471 -7.884864950322986e-10 7.884831257862661e-10 -1.2682741730260841e-09
437 -3.5168636003231866e-09 2.343538012828982e-09 -2.1216487017280667e-09
438 2.343538118960842e-09 -3.516862606184253e-09 -2.1216474908279286e-09
473 1.924738987703505e-09 1.9247389449818346e-09 -1.6979291583736588e-09
474 1.4539366613367607e-09 1.4539403460977107e-09 6.005538322201348e-11
475 1.4982427082113767e-09 2.8716901067675663e-09 1.876098203577953e-09
476 2.8716953281622206e-09 1.4982484145984145e-09 1.8760941148421116e-09
452 -2.7610683558997386e-10 1.2006143960354092e-09 -1.0663122180843992e-09
461 1.3355797783500713e-09 -6.765294142364952e-10 -3.289841131869755e-09
464 1.7519290324786133e-10 -1.6180767416912712e-11 6.909483707417381e-10
439 3.0800907189594156e-09 1.4833853939491204e-09 -3.839963366779584e-09
440 7.598953114535522e-10 1.2513213330373424e-09 -5.342290629407682e-09
477 1.5514438410115326e-09 1.1124988178820828e-09 1.1832283599232897e-09
478 1.2628358280146751e-09 -1.700687824337124e-09 -2.068503920002217e-09
479 7.239241364494417e-11 4.019223220462501e-10 -9.857812836407379e-10
480 -3.733870106644108e-11 1.2038465609651625e-09 -1.5645653794400591e-09
441 1.8039100470004347e-09 1.047251161514121e-09 2.543001010740227e-09
442 1.2168513129218015e-09 2.9475929425242918e-09 4.606014800348571e-09
444 9.54699886121823e-10 -9.54700609306629e-10 2.251465296605948e-09
481 2.520809638317353e-09 1.823246958150929e-10 -1.1415603048129279e-09
482 -3.5069804792805132e-09 -2.7974899841410526e-09 -2.800788585970021e-10
483 -2.479074752831485e-09 -4.961553244639979e-11 2.3115654138306363e-09
484 2.772295844204815e-09 -3.0949080209678624e-09 1.0202799692471333e-09
485 -7.709549561472934e-10 -1.1918115440467657e-09 1.8320856876733031e-09
488 6.429956637855134e-10 -6.429954852432601e-10 7.475926989548732e-09
491 1.7239952627360595e-09 -6.225441707121983e-10 3.8575796432563055e-09
490 2.085431660255313e-09 3.2478190984149468e-09 6.404970098810776e-10
443 2.373162569244759e-09 -2.373167527590303e-09 -3.165602047767482e-09
446 1.987115626670571e-09 1.984026524224147e-09 -3.3086220497741043e-09
486 1.1918123457133073e-09 7.709551527211319e-10 1.8320861239785447e-09
487 1.2867790271949137e-09 -1.2867762647089515e-09 2.260598102764164e-09
489 5.3060002295594784e-09 -2.3544108038471246e-09 4.105911256513129e-09
492 4.341363195729116e-09 -4.206804905517166e-10 2.4175993281025576e-10
445 -2.3545448580924137e-09 -1.2434623267872355e-09 -1.504288068910731e-09
496 4.019237565883716e-10 7.239996089794494e-11 -9.857744415040078e-10
495 1.2038450359544209e-09 -3.734191212965356e-11 -1.5645664573422644e-09
494 -1.700689504941831e-09 1.2628346081584494e-09 -2.068504324167913e-09
493 1.1125035924204755e-09 1.5514373913573801e-09 1.1832249132347395e-09
448 1.4833888577923448e-09 3.080089805463791e-09 -3.839963587689596e-09
447 1.2513185370054266e-09 7.598953085160295e-10 -5.342290303880107e-09
211 1.200615725431232e-09 -2.7610747290305037e-10 -1.0663153062150625e-09
213 -6.765284521435775e-10 1.3355789601299434e-09 -3.2898389255131675e-09
215 -1.618660738213224e-11 1.7519262597528909e-10 6.90949434900864e-10
500 -2.481490135101919e-10 2.480658366191852e-09 3.0055801781598758e-09
499 2.480657887583117e-09 -2.481539831333099e-10 3.0055821008145964e-09
498 4.3788013990237195e-09 4.378806696762568e-09 -1.028263702484591e-09
497 -2.5206087300256765e-09 -2.5206098481594706e-09 -2.0723593362950246e-09
450 -2.3093596716470063e-09 1.597628753821402e-09 -5.552357203040827e-09
449 1.5976249263957457e-09 -2.309360744674125e-09 -5.55235359945089e-09
