#Generated by cif2cell 2.1.0.  :  Failed to get author information, No journal information.

500 atoms
3 atom types

0.0 17.244999 xlo xhi
0.0 17.244999 ylo yhi
0.0 17.244999 zlo zhi
1.0559516664377247e-15 1.0559516664377247e-15 1.0559516664377247e-15 xy xz yz

Atoms

1 1  15.520499468999999  12.071499586999998   6.897999764000000 
2 1  13.795999527999999  12.071499586999998  12.071499586999998 
3 1  13.795999527999999   0.000000000000001  13.795999527999999 
4 1  15.520499468999999   6.897999764000001   8.622499704999999 
5 1  15.520499469000001  15.520499468999999  13.795999527999999 
6 1  15.520499468999999  10.346999645999999   8.622499704999999 
7 1  13.795999527999999   8.622499704999999  12.071499586999998 
8 1  13.795999528000003  15.520499469000001  15.520499468999999 
9 1  13.795999527999999  10.346999645999999   6.897999764000000 
10 1  15.520499468999999   5.173499823000000  10.346999645999999 
11 1  15.520499468999999   1.724499941000001  13.795999527999999 
12 1  15.520499468999999  13.795999527999999  12.071499586999998 
13 1  13.795999528000001  15.520499468999999  12.071499586999998 
14 1  15.520499468999999   3.448999882000001  12.071499586999998 
15 1   8.622499704999999   6.897999764000001   8.622499704999999 
16 1  15.520499468999999  10.346999645999999   5.173499822999999 
17 1  15.520499468999999  12.071499586999998   0.000000000000000 
18 1  15.520499468999999  10.346999645999999   1.724499941000000 
19 1  15.520499468999999   6.897999764000000   5.173499822999999 
20 1  15.520499468999999   5.173499822999999   6.897999764000000 
21 1   5.173499823000000   8.622499704999999   0.000000000000000 
22 1   5.173499822999999   1.724499941000000   0.000000000000000 
23 1   3.448999882000000   0.000000000000000   3.448999882000000 
24 1   3.448999882000000   1.724499941000000   5.173499822999999 
25 1   5.173499822999999   1.724499941000000   3.448999882000000 
26 1   3.448999882000000   0.000000000000001  10.346999645999999 
27 1   3.448999882000001   1.724499941000001  12.071499586999998 
28 1   5.173499823000000   0.000000000000001  12.071499586999998 
29 1   3.448999882000001   5.173499822999999   5.173499822999999 
30 1   3.448999882000000   3.448999882000000  10.346999645999999 
31 1   3.448999882000000   6.897999764000000   0.000000000000000 
32 1   1.724499941000002  15.520499468999999  13.795999527999999 
33 1   5.173499822999999   6.897999764000000   5.173499822999999 
34 1   5.173499823000000   8.622499704999999   6.897999764000000 
35 1   3.448999882000001   6.897999764000001  10.346999645999999 
36 1   5.173499823000000   6.897999764000001  12.071499586999998 
37 1   5.173499823000000   6.897999764000001  15.520499468999999 
38 1   3.448999882000001  12.071499586999998   5.173499822999999 
39 1   5.173499823000000  10.346999645999999   5.173499822999999 
40 1   5.173499823000001  10.346999645999999   8.622499704999999 
41 1   5.173499823000000  12.071499586999998   6.897999764000000 
42 1   5.173499823000001  12.071499586999998  13.795999527999999 
43 1   0.000000000000001   8.622499705000001  15.520499468999999 
44 1   0.000000000000000   1.724499941000000   1.724499941000000 
45 1   0.000000000000001   1.724499941000001  12.071499586999998 
46 1   0.000000000000001   1.724499941000001  15.520499468999999 
47 1   1.724499941000001   1.724499941000001  13.795999527999999 
48 1   1.724499941000000   5.173499822999999   3.448999882000000 
49 1   0.000000000000001   5.173499823000000   8.622499704999999 
50 1   1.724499941000001   5.173499822999999   6.897999764000000 
51 1   0.000000000000001   3.448999882000000  10.346999645999999 
52 1   0.000000000000001   8.622499704999999   5.173499822999999 
53 1   0.000000000000001   6.897999764000000   6.897999764000000 
54 1   3.448999882000001  15.520499468999999   5.173499822999999 
55 1   1.724499941000001   8.622499704999999  13.795999527999999 
56 1   0.000000000000001  12.071499586999998   1.724499941000000 
57 1   1.724499941000001  10.346999645999999   1.724499941000000 
58 1   1.724499941000001  10.346999645999999   5.173499822999999 
59 1   1.724499941000001  12.071499586999998   3.448999882000000 
60 1   1.724499941000001  10.346999645999999  12.071499586999998 
61 1   0.000000000000001  13.795999527999999   3.448999882000000 
62 1   1.724499941000001  13.795999527999999  12.071499586999998 
63 1   1.724499941000002  13.795999528000001  15.520499468999999 
64 1  10.346999645999999  10.346999645999999   6.897999764000000 
65 1  10.346999645999999   6.897999764000000   0.000000000000000 
66 1  12.071499586999998   6.897999764000000   1.724499941000000 
67 1  10.346999645999999   8.622499704999999   5.173499822999999 
68 1  12.071499586999998   8.622499704999999   3.448999882000000 
69 1  12.071499587000000   6.897999764000001  15.520499468999999 
70 1  12.071499586999998   8.622499704999999  13.795999527999999 
71 1  10.346999645999999  12.071499586999998   1.724499941000000 
72 1  10.346999645999999  10.346999645999999   3.448999882000000 
73 1  12.071499586999998  10.346999645999999   5.173499822999999 
74 1  12.071499586999998  12.071499586999998   3.448999882000000 
75 1  12.071499586999998   5.173499823000000  13.795999527999999 
76 1  10.346999646000000  12.071499587000000  15.520499468999999 
77 1  10.346999646000000  15.520499468999999   1.724499941000000 
78 1  10.346999645999999  13.795999527999999   3.448999882000000 
79 1  10.346999646000000  15.520499468999999   5.173499822999999 
80 1  10.346999645999999  13.795999527999999   6.897999764000000 
81 1  10.346999646000000  15.520499468999999   8.622499704999999 
82 1  10.346999646000000  15.520499468999999  12.071499586999998 
83 1  13.795999527999999   0.000000000000000   0.000000000000000 
84 1  13.795999527999999   1.724499941000000   8.622499704999999 
85 1   6.897999764000001  12.071499587000000  15.520499468999999 
86 1   5.173499823000001  15.520499468999999  13.795999527999999 
87 1   6.897999764000000   0.000000000000000   0.000000000000000 
88 1   6.897999764000001   1.724499941000001  15.520499468999999 
89 1   6.897999764000000   3.448999882000000   0.000000000000000 
90 1   8.622499704999999   5.173499822999999   0.000000000000000 
91 1   6.897999764000000   3.448999882000000   6.897999764000000 
92 1   6.897999764000000   6.897999764000000   0.000000000000000 
93 1   6.897999764000001  10.346999645999999   0.000000000000000 
94 1   6.897999764000001  12.071499586999998   1.724499941000000 
95 1   8.622499704999999  12.071499586999998  10.346999645999999 
96 1  13.795999527999999   0.000000000000001  10.346999645999999 
97 1   6.897999764000001  13.795999527999999   0.000000000000000 
98 1   8.622499704999999  13.795999527999999   5.173499822999999 
99 1   8.622499705000001  15.520499468999999   3.448999882000000 
100 1   6.897999764000001  13.795999527999999   6.897999764000000 
101 1   6.897999764000001  13.795999527999999  10.346999645999999 
102 1   6.897999764000001  13.795999527999999  13.795999527999999 
103 1  12.071499586999998   1.724499941000000   3.448999882000000 
104 1  12.071499586999998   0.000000000000001   8.622499704999999 
105 1  10.346999646000000   5.173499823000000  15.520499468999999 
106 2  12.071499587000000  13.795999528000001  15.520499468999999 
107 2  13.795999527999999   3.448999882000000   0.000000000000000 
108 2  10.346999646000002  15.520499469000001  15.520499468999999 
109 2  10.346999645999999  13.795999527999999  13.795999527999999 
110 2  12.071499587000000  15.520499468999999  10.346999645999999 
111 2  13.795999527999999   6.897999764000000   3.448999882000000 
112 2  12.071499587000000  15.520499468999999  13.795999527999999 
113 2   8.622499704999999  12.071499586999998   3.448999882000000 
114 2   8.622499704999999  12.071499586999998   6.897999764000000 
115 2  12.071499586999998  13.795999527999999   8.622499704999999 
116 2  12.071499587000000  15.520499468999999   6.897999764000000 
117 2   8.622499704999999  10.346999645999999  12.071499586999998 
118 2  15.520499468999999   8.622499704999999   3.448999882000000 
119 2   6.897999764000001  10.346999645999999  13.795999527999999 
120 2   6.897999764000001  13.795999527999999   3.448999882000000 
121 2   8.622499705000001  10.346999646000000  15.520499468999999 
122 2  10.346999645999999  13.795999527999999  10.346999645999999 
123 2  15.520499469000001   0.000000000000001  15.520499468999999 
124 2  12.071499586999998  13.795999527999999  12.071499586999998 
125 2   8.622499705000001  15.520499468999999   0.000000000000000 
126 2   8.622499704999999  12.071499586999998  13.795999527999999 
127 2  13.795999527999999   8.622499704999999   5.173499822999999 
128 2   6.897999764000001  15.520499468999999   1.724499941000000 
129 2   8.622499704999999  13.795999527999999   1.724499941000000 
130 2   6.897999764000000   6.897999764000000   3.448999882000000 
131 2   6.897999764000001   6.897999764000001  10.346999645999999 
132 2  13.795999527999999   0.000000000000000   6.897999764000000 
133 2   0.000000000000000   0.000000000000000   0.000000000000000 
134 2   6.897999764000001   8.622499704999999   8.622499704999999 
135 2  15.520499468999999   0.000000000000001   8.622499704999999 
136 2   6.897999764000000   6.897999764000000   6.897999764000000 
137 2   8.622499704999999   8.622499704999999   3.448999882000000 
138 2   8.622499704999999   6.897999764000000   5.173499822999999 
139 2   6.897999764000001   8.622499704999999   5.173499822999999 
140 2   6.897999764000001   8.622499704999999  12.071499586999998 
141 2   8.622499704999999   8.622499704999999   0.000000000000000 
142 2  15.520499468999999   1.724499941000000   6.897999764000000 
143 2  15.520499468999999   1.724499941000001  10.346999645999999 
144 2   8.622499704999999   6.897999764000000   1.724499941000000 
145 2   6.897999764000001   8.622499704999999   1.724499941000000 
146 2   8.622499704999999   1.724499941000000   3.448999882000000 
147 2   8.622499705000001   3.448999882000001  15.520499468999999 
148 2   6.897999764000001   5.173499823000000  15.520499468999999 
149 2  13.795999527999999   6.897999764000000   6.897999764000000 
150 2  13.795999528000001   1.724499941000001  15.520499468999999 
151 2   6.897999764000001  12.071499586999998   8.622499704999999 
152 2   6.897999764000001  10.346999645999999   6.897999764000000 
153 2  13.795999527999999   6.897999764000000   0.000000000000000 
154 2  13.795999527999999   1.724499941000000   1.724499941000000 
155 2   8.622499704999999  10.346999645999999   5.173499822999999 
156 2   6.897999764000001  12.071499586999998   5.173499822999999 
157 2   6.897999764000001  10.346999645999999   3.448999882000000 
158 2   8.622499704999999  10.346999645999999   1.724499941000000 
159 2   8.622499704999999  10.346999645999999   8.622499704999999 
160 2  13.795999527999999   8.622499704999999   8.622499704999999 
161 2   8.622499704999999   8.622499704999999  13.795999527999999 
162 2  15.520499468999999   1.724499941000000   0.000000000000000 
163 2   6.897999764000001   8.622499705000001  15.520499468999999 
164 2   8.622499704999999   8.622499704999999  10.346999645999999 
165 2  13.795999527999999   1.724499941000000   5.173499822999999 
166 2  15.520499468999999   0.000000000000000   5.173499822999999 
167 2  15.520499468999999   1.724499941000000   3.448999882000000 
168 2  12.071499586999998   3.448999882000000   5.173499822999999 
169 2  10.346999645999999   5.173499823000000  12.071499586999998 
170 2  13.795999527999999   5.173499823000000   8.622499704999999 
171 2  12.071499586999998  10.346999645999999   1.724499941000000 
172 2  12.071499586999998  12.071499586999998   0.000000000000000 
173 2  13.795999527999999   3.448999882000000   6.897999764000000 
174 2  10.346999645999999   3.448999882000000   6.897999764000000 
175 2  10.346999645999999  12.071499586999998   5.173499822999999 
176 2  15.520499468999999   5.173499822999999   3.448999882000000 
177 2  10.346999645999999  10.346999645999999   0.000000000000000 
178 2  10.346999645999999   5.173499822999999   5.173499822999999 
179 2  10.346999645999999   3.448999882000000   3.448999882000000 
180 2  12.071499586999998   5.173499822999999   0.000000000000000 
181 2  15.520499468999999   3.448999882000000   5.173499822999999 
182 2  10.346999645999999   5.173499822999999   1.724499941000000 
183 2  13.795999527999999   5.173499822999999   5.173499822999999 
184 2  10.346999645999999   3.448999882000000   0.000000000000000 
185 2  12.071499586999998   1.724499941000001  13.795999527999999 
186 2  10.346999645999999   8.622499704999999   1.724499941000000 
187 2  12.071499586999998   8.622499704999999   6.897999764000000 
188 2  10.346999645999999   8.622499704999999   8.622499704999999 
189 2  13.795999527999999   3.448999882000000  10.346999645999999 
190 2  10.346999645999999   6.897999764000001  10.346999645999999 
191 2  10.346999645999999   8.622499704999999  12.071499586999998 
192 2  12.071499586999998   6.897999764000001  12.071499586999998 
193 2  10.346999645999999   6.897999764000000   3.448999882000000 
194 2  12.071499586999998   8.622499704999999   0.000000000000000 
195 2  10.346999645999999  12.071499586999998   8.622499704999999 
196 2  13.795999527999999   3.448999882000001  13.795999527999999 
197 2  12.071499586999998   8.622499704999999  10.346999645999999 
198 2  10.346999645999999   6.897999764000001  13.795999527999999 
199 2  13.795999528000001   5.173499823000000  15.520499468999999 
200 2  10.346999646000000   8.622499705000001  15.520499468999999 
201 2  12.071499586999998   5.173499823000000  10.346999645999999 
202 2  12.071499586999998   3.448999882000001  12.071499586999998 
203 2  13.795999527999999   5.173499822999999   1.724499941000000 
204 2  12.071499586999998   0.000000000000000   5.173499822999999 
205 2  10.346999645999999   1.724499941000000   5.173499822999999 
206 2  10.346999645999999   0.000000000000000   3.448999882000000 
207 2  15.520499468999999   5.173499822999999   0.000000000000000 
208 2  12.071499586999998   1.724499941000000   0.000000000000000 
209 2  12.071499587000000  15.520499468999999   0.000000000000000 
210 2   8.622499705000001  15.520499468999999  13.795999527999999 
211 2   8.622499705000001  13.795999528000001  15.520499468999999 
212 2  15.520499468999999   5.173499823000000  13.795999527999999 
213 2  12.071499586999998   6.897999764000001   8.622499704999999 
214 2   8.622499705000001  15.520499468999999  10.346999645999999 
215 2   8.622499704999999  13.795999527999999  12.071499586999998 
216 2   6.897999764000001  15.520499468999999  12.071499586999998 
217 2  13.795999527999999   8.622499704999999   1.724499941000000 
218 2  12.071499586999998  13.795999527999999   5.173499822999999 
219 2   8.622499704999999  13.795999527999999   8.622499704999999 
220 2  12.071499587000000  15.520499468999999   3.448999882000000 
221 2  10.346999645999999   1.724499941000001  12.071499586999998 
222 2  12.071499587000000   0.000000000000001  15.520499468999999 
223 2  10.346999646000000   1.724499941000001  15.520499468999999 
224 2  10.346999645999999   0.000000000000001  13.795999527999999 
225 2  12.071499586999998  10.346999645999999   8.622499704999999 
226 2  12.071499586999998   1.724499941000001  10.346999645999999 
227 2  12.071499586999998   0.000000000000001  12.071499586999998 
228 2  12.071499586999998  12.071499586999998   6.897999764000000 
229 2  10.346999645999999  10.346999645999999  10.346999645999999 
230 2  15.520499468999999   6.897999764000000   1.724499941000000 
231 2  10.346999645999999  12.071499586999998  12.071499586999998 
232 2  12.071499586999998  10.346999645999999  12.071499586999998 
233 2  12.071499586999998  12.071499586999998  10.346999645999999 
234 2  10.346999645999999  10.346999645999999  13.795999527999999 
235 2  12.071499586999998   1.724499941000000   6.897999764000000 
236 2  13.795999527999999   3.448999882000000   3.448999882000000 
237 2  10.346999645999999   0.000000000000000   6.897999764000000 
238 2   1.724499941000001  12.071499586999998   6.897999764000000 
239 2   0.000000000000001  15.520499468999999   5.173499822999999 
240 2   1.724499941000001  15.520499468999999   0.000000000000000 
241 2   1.724499941000001  13.795999527999999   1.724499941000000 
242 2   0.000000000000001  15.520499468999999   1.724499941000000 
243 2   1.724499941000001  12.071499586999998  13.795999527999999 
244 2   1.724499941000001  10.346999646000000  15.520499468999999 
245 2   0.000000000000001  10.346999645999999  13.795999527999999 
246 2   1.724499941000001  12.071499586999998  10.346999645999999 
247 2   0.000000000000001  12.071499586999998  12.071499586999998 
248 2   0.000000000000001  10.346999645999999  10.346999645999999 
249 2   1.724499941000001  13.795999527999999   5.173499822999999 
250 2   1.724499941000001  10.346999645999999   8.622499704999999 
251 2   0.000000000000001  12.071499586999998   8.622499704999999 
252 2   0.000000000000001  10.346999645999999   6.897999764000000 
253 2  13.795999527999999  13.795999527999999   3.448999882000000 
254 2   0.000000000000001  12.071499586999998   5.173499822999999 
255 2   0.000000000000001  10.346999645999999   3.448999882000000 
256 2   1.724499941000001  12.071499586999998   0.000000000000000 
257 2  15.520499469000001  15.520499468999999   3.448999882000000 
258 2   0.000000000000001  10.346999645999999   0.000000000000000 
259 2   3.448999882000000   0.000000000000000   0.000000000000000 
260 2  13.795999527999999  10.346999645999999  10.346999645999999 
261 2  15.520499468999999  10.346999645999999  12.071499586999998 
262 2   5.173499822999999   1.724499941000000   6.897999764000000 
263 2   5.173499823000000   0.000000000000001   8.622499704999999 
264 2   3.448999882000000   1.724499941000000   8.622499704999999 
265 2  15.520499468999999  12.071499586999998  10.346999645999999 
266 2  13.795999527999999  10.346999645999999  13.795999527999999 
267 2  13.795999528000001  12.071499587000000  15.520499468999999 
268 2  15.520499469000001  10.346999646000000  15.520499468999999 
269 2   3.448999882000000   1.724499941000000   1.724499941000000 
270 2  13.795999527999999  13.795999527999999   6.897999764000000 
271 2  13.795999527999999  13.795999527999999   0.000000000000000 
272 2   0.000000000000002  15.520499469000001  15.520499468999999 
273 2   1.724499941000001  15.520499468999999  10.346999645999999 
274 2  13.795999528000001  15.520499468999999   1.724499941000000 
275 2   0.000000000000002  15.520499468999999  12.071499586999998 
276 2   1.724499941000001  15.520499468999999   6.897999764000000 
277 2   1.724499941000001  13.795999527999999   8.622499704999999 
278 2   0.000000000000001  15.520499468999999   8.622499704999999 
279 2   0.000000000000001  13.795999527999999   6.897999764000000 
280 2   1.724499941000000   1.724499941000000   6.897999764000000 
281 2   0.000000000000001   5.173499822999999   5.173499822999999 
282 2   0.000000000000000   3.448999882000000   3.448999882000000 
283 2   1.724499941000000   5.173499822999999   0.000000000000000 
284 2   1.724499941000000   3.448999882000000   1.724499941000000 
285 2   0.000000000000000   5.173499822999999   1.724499941000000 
286 2  13.795999527999999  13.795999527999999  13.795999527999999 
287 2   1.724499941000001   0.000000000000001  15.520499468999999 
288 2   1.724499941000001   1.724499941000001  10.346999645999999 
289 2   1.724499941000001   0.000000000000001  12.071499586999998 
290 2   0.000000000000001   0.000000000000001  10.346999645999999 
291 2  15.520499469000001  15.520499468999999  10.346999645999999 
292 2   1.724499941000000   0.000000000000001   8.622499704999999 
293 2   0.000000000000001   1.724499941000000   8.622499704999999 
294 2   0.000000000000000   0.000000000000000   6.897999764000000 
295 2   1.724499941000000   1.724499941000000   3.448999882000000 
296 2   1.724499941000000   0.000000000000000   5.173499822999999 
297 2   0.000000000000000   1.724499941000000   5.173499822999999 
298 2   0.000000000000000   0.000000000000000   3.448999882000000 
299 2   1.724499941000000   1.724499941000000   0.000000000000000 
300 2   1.724499941000000   0.000000000000000   1.724499941000000 
301 2   1.724499941000001   6.897999764000000   5.173499822999999 
302 2   1.724499941000001   6.897999764000001  15.520499468999999 
303 2   0.000000000000001   6.897999764000001  13.795999527999999 
304 2   1.724499941000001   8.622499704999999  10.346999645999999 
305 2   1.724499941000001   6.897999764000001  12.071499586999998 
306 2   0.000000000000001   8.622499704999999  12.071499586999998 
307 2   0.000000000000001   6.897999764000001  10.346999645999999 
308 2   1.724499941000001   8.622499704999999   6.897999764000000 
309 2   0.000000000000001   8.622499704999999   8.622499704999999 
310 2  15.520499468999999  13.795999527999999   8.622499704999999 
311 2   1.724499941000001   8.622499704999999   3.448999882000000 
312 2   8.622499704999999   5.173499823000000  10.346999645999999 
313 2   1.724499941000000   8.622499704999999   0.000000000000000 
314 2   1.724499941000000   6.897999764000000   1.724499941000000 
315 2   1.724499941000001   5.173499823000000  13.795999527999999 
316 2   1.724499941000001   3.448999882000001  15.520499468999999 
317 2   0.000000000000001   5.173499823000000  15.520499468999999 
318 2   0.000000000000001   3.448999882000001  13.795999527999999 
319 2   1.724499941000001   3.448999882000001  12.071499586999998 
320 2  13.795999527999999  13.795999527999999  10.346999645999999 
321 2   0.000000000000001   3.448999882000000   6.897999764000000 
322 2   5.173499823000001  13.795999527999999   8.622499704999999 
323 2   8.622499704999999   0.000000000000000   5.173499822999999 
324 2   6.897999764000000   0.000000000000000   3.448999882000000 
325 2   8.622499704999999   1.724499941000000   0.000000000000000 
326 2   8.622499704999999   0.000000000000000   1.724499941000000 
327 2   6.897999764000000   1.724499941000000   1.724499941000000 
328 2  13.795999527999999   6.897999764000001  13.795999527999999 
329 2   5.173499823000001  13.795999528000001  15.520499468999999 
330 2   3.448999882000002  15.520499469000001  15.520499468999999 
331 2   5.173499823000001  13.795999527999999  12.071499586999998 
332 2   3.448999882000002  15.520499468999999  12.071499586999998 
333 2   6.897999764000000   0.000000000000000   6.897999764000000 
334 2   3.448999882000001  13.795999527999999   6.897999764000000 
335 2   5.173499823000000  13.795999527999999   5.173499822999999 
336 2  13.795999528000001   8.622499705000001  15.520499468999999 
337 2   3.448999882000001  13.795999527999999   3.448999882000000 
338 2   5.173499823000000  15.520499468999999   0.000000000000000 
339 2   5.173499823000000  13.795999527999999   1.724499941000000 
340 2   3.448999882000001  15.520499468999999   1.724499941000000 
341 2   3.448999882000001  13.795999527999999   0.000000000000000 
342 2  15.520499469000001   6.897999764000001  15.520499468999999 
343 2   6.897999764000000   5.173499822999999   1.724499941000000 
344 2   6.897999764000001   3.448999882000001  13.795999527999999 
345 2   8.622499704999999   3.448999882000001  12.071499586999998 
346 2   6.897999764000001   3.448999882000000  10.346999645999999 
347 2   8.622499704999999   5.173499822999999   6.897999764000000 
348 2  15.520499468999999   8.622499704999999   6.897999764000000 
349 2   8.622499704999999   5.173499822999999   3.448999882000000 
350 2   8.622499704999999   3.448999882000000   5.173499822999999 
351 2   6.897999764000000   5.173499822999999   5.173499822999999 
352 2   6.897999764000000   3.448999882000000   3.448999882000000 
353 2  13.795999527999999   6.897999764000001  10.346999645999999 
354 2   3.448999882000001   1.724499941000001  15.520499468999999 
355 2   8.622499704999999   1.724499941000001  13.795999527999999 
356 2   8.622499705000001   0.000000000000001  15.520499468999999 
357 2  15.520499468999999   6.897999764000001  12.071499586999998 
358 2   6.897999764000001   0.000000000000001  13.795999527999999 
359 2   6.897999764000001   1.724499941000001  12.071499586999998 
360 2   6.897999764000001   0.000000000000001  10.346999645999999 
361 2   8.622499704999999   1.724499941000000   6.897999764000000 
362 2   8.622499704999999   0.000000000000001   8.622499704999999 
363 2   6.897999764000001   1.724499941000000   8.622499704999999 
364 2   3.448999882000001   6.897999764000000   6.897999764000000 
365 2   5.173499823000001   8.622499704999999  10.346999645999999 
366 2  13.795999527999999  12.071499586999998   5.173499822999999 
367 2   5.173499823000000   1.724499941000001  13.795999527999999 
368 2   3.448999882000000   5.173499822999999   1.724499941000000 
369 2   5.173499822999999   3.448999882000000   1.724499941000000 
370 2   5.173499822999999   5.173499822999999   0.000000000000000 
371 2   5.173499823000000   6.897999764000001   8.622499704999999 
372 2   5.173499822999999   3.448999882000000   5.173499822999999 
373 2   3.448999882000001   8.622499704999999  12.071499586999998 
374 2   3.448999882000000   6.897999764000000   3.448999882000000 
375 2   3.448999882000001   5.173499823000000   8.622499704999999 
376 2   5.173499822999999   6.897999764000000   1.724499941000000 
377 2   3.448999882000000   8.622499704999999   1.724499941000000 
378 2   5.173499823000000   5.173499823000000  13.795999527999999 
379 2   3.448999882000001   5.173499823000000  15.520499468999999 
380 2   5.173499823000000   5.173499823000000  10.346999645999999 
381 2   3.448999882000000  10.346999645999999   3.448999882000000 
382 2   5.173499823000001  10.346999645999999  12.071499586999998 
383 2   3.448999882000001  10.346999645999999  10.346999645999999 
384 2  13.795999527999999  10.346999645999999   0.000000000000000 
385 2   3.448999882000001  10.346999645999999   6.897999764000000 
386 2   5.173499823000001  10.346999646000000  15.520499468999999 
387 2   5.173499823000000   1.724499941000001  10.346999645999999 
388 2   5.173499823000000  12.071499586999998   3.448999882000000 
389 2  13.795999527999999  12.071499586999998   1.724499941000000 
390 2   3.448999882000001   6.897999764000001  13.795999527999999 
391 2   5.173499823000000  10.346999645999999   1.724499941000000 
392 2   3.448999882000001  12.071499586999998   1.724499941000000 
393 2   3.448999882000000  10.346999645999999   0.000000000000000 
394 2   5.173499823000001   8.622499704999999  13.795999527999999 
395 2   3.448999882000001   8.622499705000001  15.520499468999999 
396 3   3.448999882000001   5.173499823000000  12.071499586999998 
397 3   3.448999882000001   0.000000000000001  13.795999527999999 
398 3   5.173499823000000   0.000000000000001  15.520499468999999 
399 3   3.448999882000000   3.448999882000000   0.000000000000000 
400 3   3.448999882000000   3.448999882000000   3.448999882000000 
401 3   5.173499822999999   5.173499822999999   3.448999882000000 
402 3   3.448999882000000   3.448999882000000   6.897999764000000 
403 3   5.173499823000000   3.448999882000000   8.622499704999999 
404 3   5.173499822999999   5.173499822999999   6.897999764000000 
405 3  10.346999645999999   0.000000000000001  10.346999645999999 
406 3  12.071499586999998   3.448999882000000   1.724499941000000 
407 3   5.173499823000000   3.448999882000001  12.071499586999998 
408 3   3.448999882000001   3.448999882000001  13.795999527999999 
409 3  15.520499469000001   3.448999882000001  15.520499468999999 
410 3   5.173499823000000   3.448999882000001  15.520499468999999 
411 3  10.346999645999999   1.724499941000000   8.622499704999999 
412 3  13.795999527999999  12.071499586999998   8.622499704999999 
413 3   3.448999882000001   8.622499704999999   5.173499822999999 
414 3  15.520499468999999  12.071499586999998   3.448999882000000 
415 3   5.173499823000000   8.622499704999999   3.448999882000000 
416 3   0.000000000000002  13.795999527999999  13.795999527999999 
417 3   0.000000000000001  13.795999527999999   0.000000000000000 
418 3  10.346999645999999   6.897999764000000   6.897999764000000 
419 3  15.520499468999999  13.795999527999999   1.724499941000000 
420 3  12.071499586999998   6.897999764000000   5.173499822999999 
421 3  13.795999527999999   5.173499823000000  12.071499586999998 
422 3   1.724499941000001  15.520499468999999   3.448999882000000 
423 3   0.000000000000001  13.795999527999999  10.346999645999999 
424 3  12.071499587000000   3.448999882000001  15.520499468999999 
425 3  10.346999645999999   3.448999882000001  13.795999527999999 
426 3   3.448999882000001   8.622499704999999   8.622499704999999 
427 3  15.520499468999999  12.071499586999998  13.795999527999999 
428 3  10.346999645999999   3.448999882000000  10.346999645999999 
429 3   5.173499822999999   0.000000000000000   1.724499941000000 
430 3  12.071499586999998   5.173499822999999   6.897999764000000 
431 3  12.071499586999998   3.448999882000000   8.622499704999999 
432 3  10.346999645999999   5.173499823000000   8.622499704999999 
433 3   5.173499822999999   0.000000000000000   5.173499822999999 
434 3   3.448999882000000   0.000000000000000   6.897999764000000 
435 3  12.071499586999998   5.173499822999999   3.448999882000000 
436 3   6.897999764000001   6.897999764000001  13.795999527999999 
437 3   6.897999764000001  10.346999645999999  10.346999645999999 
438 3   5.173499823000000  15.520499468999999   6.897999764000000 
439 3   3.448999882000001  13.795999527999999  10.346999645999999 
440 3   5.173499823000001  15.520499468999999  10.346999645999999 
441 3   3.448999882000002  13.795999527999999  13.795999527999999 
442 3  15.520499468999999   8.622499704999999  10.346999645999999 
443 3   8.622499704999999  12.071499586999998   0.000000000000000 
444 3   6.897999764000000   1.724499941000000   5.173499822999999 
445 3   8.622499705000001   6.897999764000001  15.520499468999999 
446 3   3.448999882000001  15.520499468999999   8.622499704999999 
447 3   8.622499704999999   0.000000000000001  12.071499586999998 
448 3   8.622499704999999   1.724499941000001  10.346999645999999 
449 3   8.622499704999999   6.897999764000001  12.071499586999998 
450 3   8.622499704999999   8.622499704999999   6.897999764000000 
451 3   8.622499704999999   3.448999882000000   1.724499941000000 
452 3   6.897999764000001   5.173499823000000   8.622499704999999 
453 3   8.622499704999999   3.448999882000000   8.622499704999999 
454 3   6.897999764000001   5.173499823000000  12.071499586999998 
455 3   8.622499704999999   5.173499823000000  13.795999527999999 
456 3   3.448999882000001  12.071499586999998   8.622499704999999 
457 3  12.071499586999998   0.000000000000000   1.724499941000000 
458 3  10.346999645999999   1.724499941000000   1.724499941000000 
459 3  10.346999645999999   0.000000000000000   0.000000000000000 
460 3  13.795999527999999  10.346999645999999   3.448999882000000 
461 3   6.897999764000001  15.520499469000001  15.520499468999999 
462 3   5.173499823000000  12.071499586999998   0.000000000000000 
463 3   8.622499705000001  15.520499468999999   6.897999764000000 
464 3   6.897999764000001  15.520499468999999   8.622499704999999 
465 3  15.520499468999999   8.622499704999999   0.000000000000000 
466 3  15.520499468999999   0.000000000000001  12.071499586999998 
467 3  15.520499468999999   8.622499704999999  13.795999527999999 
468 3   6.897999764000001  15.520499468999999   5.173499822999999 
469 3   3.448999882000002  12.071499586999998  12.071499586999998 
470 3   5.173499823000001  12.071499586999998  10.346999645999999 
471 3   3.448999882000001  10.346999645999999  13.795999527999999 
472 3   3.448999882000002  12.071499587000000  15.520499468999999 
473 3   5.173499823000000  15.520499468999999   3.448999882000000 
474 3   6.897999764000001  12.071499586999998  12.071499586999998 
475 3   0.000000000000001   6.897999764000000   3.448999882000000 
476 3  12.071499586999998  13.795999527999999   1.724499941000000 
477 3  13.795999528000001  15.520499468999999   5.173499822999999 
478 3   0.000000000000000   6.897999764000000   0.000000000000000 
479 3   0.000000000000001   8.622499704999999   1.724499941000000 
480 3  15.520499468999999  13.795999527999999   5.173499822999999 
481 3  10.346999645999999  13.795999527999999   0.000000000000000 
482 3  13.795999527999999   0.000000000000000   3.448999882000000 
483 3  12.071499586999998  12.071499586999998  13.795999527999999 
484 3   1.724499941000001   3.448999882000000   8.622499704999999 
485 3  15.520499469000001  15.520499468999999   6.897999764000000 
486 3  15.520499468999999   0.000000000000000   1.724499941000000 
487 3  15.520499469000001  13.795999528000001  15.520499468999999 
488 3  13.795999528000001  15.520499468999999   8.622499704999999 
489 3  12.071499587000000  10.346999646000000  15.520499468999999 
490 3   0.000000000000000   3.448999882000000   0.000000000000000 
491 3   1.724499941000001   6.897999764000001   8.622499704999999 
492 3   0.000000000000001   0.000000000000001  13.795999527999999 
493 3  15.520499468999999   3.448999882000000   1.724499941000000 
494 3   1.724499941000000   3.448999882000000   5.173499822999999 
495 3  15.520499469000001  15.520499468999999   0.000000000000000 
496 3   0.000000000000001   5.173499823000000  12.071499586999998 
497 3  13.795999527999999   1.724499941000001  12.071499586999998 
498 3   0.000000000000002  12.071499587000000  15.520499468999999 
499 3   1.724499941000001   5.173499823000000  10.346999645999999 
500 3  15.520499468999999   3.448999882000000   8.622499704999999 
