LAMMPS data file via write_data, version 29 Aug 2024, timestep = 31, units = metal

500 atoms
3 atom types

0 17.625966065438455 xlo xhi
0 17.625966065438455 ylo yhi
0 17.625966065438455 zlo zhi

Masses

1 55.5669
2 55.845
3 55.845

Atoms # atomic

1 2 0.001029995432541955 0.0010299954325424243 3.135045267522751e-16 0 0 0
2 3 1.7615666111113026 1.7615666111113026 0 0 0 0
3 1 1.7598525538504668 0.0027440526933799115 1.7569103758284155 0 0 0
4 1 0.002744052693378308 1.7598525538504666 1.7569103758284164 0 0 0
5 1 3.5196257091422 0.002724217601891151 0 0 0 0
8 1 3.523916498194918 1.7635253987132726 1.7611684881823737 0 0 0
21 1 0.0027242176018913524 3.5196257091422005 2.549534095389514e-16 0 0 0
23 1 1.763525398713273 3.5239164981949185 1.7611684881823735 0 0 0
25 1 3.519981198891747 3.519981198891747 0 0 0 0
52 1 1.7633449695092702 1.7633449695092693 3.5227466965165335 0 0 0
53 1 1.7621004822232285 0.0004961243206163739 5.286808186135638 0 0 0
54 1 0.0004961243206168724 1.7621004822232282 5.286808186135639 0 0 0
58 1 3.524671426972588 1.762229327864323 5.2869954243774355 0 0 0
73 1 1.7622293278643233 3.5246714269725885 5.2869954243774355 0 0 0
75 1 3.5265476719077435 3.5265476719077444 3.5266680458836857 0 0 0
6 1 5.2841584615931625 1.762209517486135 0 0 0 0
9 1 7.049952859938741 0.0005049868645774335 2.3377673445545377e-16 0 0 0
12 1 7.049711630943789 1.7625506732831777 1.762061794578612 0 0 0
27 1 5.288490330139446 3.526025558052872 1.7630652076237265 0 0 0
29 1 7.049829964736613 3.5245023341772117 0 0 0 0
56 1 5.2845582985108575 1.7622465582004496 3.5222117833296664 0 0 0
57 1 5.286732289401549 0.0003597083869975971 5.286487602199028 0 0 0
59 1 7.050041768213502 0.0003581410244789815 3.524923431406627 0 0 0
62 1 7.049310258578618 1.7624224872882113 5.286712379404377 0 0 0
77 1 5.28787994610146 3.5247678717403526 5.28764373619421 0 0 0
79 1 7.049905539519557 3.524699732567591 3.525056554391144 0 0 0
11 1 8.812774871677055 7.904467467555182e-05 1.7624730537191318 0 0 0
31 1 8.812782429837128 3.525003586545095 1.7625073288042352 0 0 0
60 1 8.812886924850314 1.762577563979477 3.5248165044375845 0 0 0
61 1 8.812865223053075 0.00016486273816349652 5.28747624331131 0 0 0
81 1 8.812876608766198 3.5248836915529993 5.2875498445746265 0 0 0
10 1 8.813025839488905 1.7625574541177895 3.9067478943738776e-19 0 0 0
13 1 10.575536832493395 3.91524260572292e-05 2.4097543224918987e-16 0 0 0
14 1 12.33860981204356 1.7620916196792666 0 0 0 0
15 1 12.33885104103851 4.593326066885125e-05 1.762061794578611 0 0 0
16 1 10.575787800305246 1.7625175618691693 1.762473053719132 0 0 0
33 1 10.575683409661425 3.524880607135097 1.2530498056947857e-18 0 0 0
35 1 12.3386516079237 3.5250875213254873 1.7621504214559895 0 0 0
63 1 10.575675747131987 1.9042564367771966e-05 3.524816504437584 0 0 0
64 1 12.338520903768798 1.762238465519367 3.524923431406627 0 0 0
65 1 12.339252413403683 0.00017411925563326947 5.286712379404378 0 0 0
66 1 10.575697448929224 1.762431743805682 5.2874762433113105 0 0 0
83 1 10.575836104973526 3.5250159842939035 3.5249100982116395 0 0 0
85 1 12.33825087392408 3.52493102312055 5.287719852606246 0 0 0
71 1 17.625210106510416 3.522779834886712 3.522878661000893 -1 0 0
17 1 14.104404210389136 0.0003870890577091637 4.226027488220549e-16 0 0 0
18 1 15.8689369628401 1.7598723889419545 4.816126789863076e-16 0 0 0
20 1 14.100329190432099 1.7633291219068583 1.7629113007500712 0 0 0
37 1 14.10435983467119 3.521575684582528 0 0 0 0
39 1 15.861867453869493 3.5266952181128066 1.7640031533528355 0 0 0
67 1 14.104004373471442 0.00035004834339436746 3.522211783329667 0 0 0
68 1 15.865782837095587 1.7633525654718836 3.522878661000894 0 0 0
69 1 15.863891245009713 0.00036727867952151275 5.2869954243774355 0 0 0
70 1 14.10183038258075 1.7622368981568464 5.286487602199028 0 0 0
87 1 14.100576492120569 3.5253148409307924 3.5256350180393743 0 0 0
89 1 15.863784297105717 3.5247783748765844 5.2872184946977425 0 0 0
22 1 1.7622095174861347 5.2841584615931625 0 0 0 0
28 1 3.526025558052872 5.288490330139446 1.763065207623727 0 0 0
41 1 0.0005049868645786153 7.04995285993874 0 0 0 0
42 1 1.762550673283177 7.049711630943789 1.7620617945786115 0 0 0
43 1 3.524502334177211 7.049829964736613 0 0 0 0
72 1 1.7622465582004507 5.284558298510857 3.5222117833296664 0 0 0
74 1 0.000359708386997494 5.286732289401548 5.286487602199028 0 0 0
78 1 3.524767871740353 5.28787994610146 5.28764373619421 0 0 0
91 1 0.00035814102447814697 7.050041768213502 3.5249234314066262 0 0 0
92 1 1.7624224872882115 7.049310258578618 5.286712379404377 0 0 0
93 1 3.5246997325675924 7.049905539519557 3.525056554391144 0 0 0
252 1 7.904467467570559e-05 8.812774871677055 1.762473053719132 0 0 0
254 1 3.525003586545095 8.812782429837128 1.7625073288042352 0 0 0
301 1 1.762577563979477 8.812886924850314 3.5248165044375845 0 0 0
302 1 0.00016486273816327104 8.812865223053075 5.28747624331131 0 0 0
304 1 3.5248836915529997 8.812876608766198 5.2875498445746265 0 0 0
26 1 5.283866011990318 5.283866011990317 0 0 0 0
32 1 7.050047737715579 5.287687543859786 1.762094591448457 0 0 0
44 1 5.287687543859786 7.050047737715579 1.7620945914484578 0 0 0
45 1 7.049114586115685 7.049114586115685 0 0 0 0
76 1 5.288433214876498 5.288433214876497 3.525679190444328 0 0 0
82 1 7.050496925870124 5.287663542734798 5.287841633805815 0 0 0
94 1 5.287663542734798 7.050496925870125 5.287841633805814 0 0 0
95 1 7.05050000483504 7.05050000483504 3.525000417032276 0 0 0
30 1 8.812896413900038 5.287351082057579 0 0 0 0
46 1 8.81288421154979 7.050195009393396 1.7622700999325571 0 0 0
80 1 8.812750071941819 5.287512159690829 3.5249116463162236 0 0 0
253 1 5.287351082057579 8.812896413900038 4.626649780846783e-19 0 0 0
256 1 7.050195009393397 8.81288421154979 1.7622700999325578 0 0 0
303 1 5.287512159690829 8.812750071941819 3.524911646316224 0 0 0
255 1 8.812659391767438 8.812659391767438 1.4458280565146197e-20 0 0 0
34 1 12.339291997666722 5.286517613966948 0 0 0 0
36 1 10.575711743576637 5.287533085011674 1.7624042862924356 0 0 0
47 1 10.575936503256886 7.049844492854365 0 0 0 0
48 1 12.338454956125648 7.050107715856648 1.7622544648543772 0 0 0
84 1 12.338382850535105 5.287687610107895 3.5249363574079027 0 0 0
86 1 10.57559734626947 5.287575540587209 5.287596933584847 0 0 0
96 1 8.813009925353796 7.0503022689269965 5.287660936444802 0 0 0
97 1 10.575592841561809 7.050251615026792 3.5249135580468502 0 0 0
98 1 12.338251822545221 7.050310849437078 5.287662602070401 0 0 0
257 1 12.338718179127937 8.812626168725414 1.8537838328221493e-18 0 0 0
258 1 10.575669327178108 8.812893344804191 1.7622645337370515 0 0 0
307 1 12.338311056955508 8.81296983042049 3.5249135580468494 0 0 0
308 1 10.575616833782277 8.812945838200022 5.287630134742745 0 0 0
100 1 15.86363164886175 7.05031179805822 5.287719852606246 0 0 0
99 1 14.100875061874405 7.0501798214471965 3.5249363574079022 0 0 0
90 1 14.100806587814825 5.287756084167475 5.287920202514194 0 0 0
88 1 15.863247831051508 5.287986179861731 3.5256350180393747 0 0 0
24 1 17.625233550075443 5.288233481550202 1.7629113007500712 -1 0 0
38 1 15.866986987399772 5.284202837311111 4.801354004342298e-19 0 0 0
40 1 14.101121197992235 5.2874414739900635 1.7618423517403032 0 0 0
49 1 14.10204505801535 7.049270674315578 3.507816873946965e-18 0 0 0
50 1 15.863475150656813 7.0499110640586 1.76215042145599 0 0 0
259 1 15.863682064847204 8.812879262320877 1.8072850706432744e-19 0 0 0
260 1 14.101029586970625 8.812850928405664 1.7624042862924365 0 0 0
309 1 15.863546687688396 8.812726567008774 3.524910098211638 0 0 0
310 1 14.100987131395092 8.812965325712831 5.287596933584847 0 0 0
101 1 7.351758500234779e-05 7.351758500237304e-05 7.050212198798353 0 0 0
102 1 1.7625230889588428 1.7625230889588428 7.050212198798353 0 0 0
103 1 1.7625407838919653 5.582265187975747e-05 8.812983032719227 0 0 0
104 1 5.582265188003807e-05 1.7625407838919651 8.812983032719227 0 0 0
105 1 3.5248422980912366 8.466563889848978e-05 7.050059419438024 0 0 0
108 1 3.525008801534713 1.7625746528945143 8.812983032719227 0 0 0
121 1 8.466563889777348e-05 3.5248422980912366 7.050059419438024 0 0 0
123 1 1.7625746528945152 3.525008801534713 8.812983032719227 0 0 0
125 1 3.524952693564536 3.5249526935645354 7.049902199216119 0 0 0
151 1 7.351758500260903e-05 7.351758500161481e-05 10.5757538666401 0 0 0
152 1 1.7625230889588426 1.7625230889588426 10.575753866640103 0 0 0
153 1 3.524842298091237 8.466563889922876e-05 10.57590664600043 0 0 0
161 1 8.466563889865179e-05 3.5248422980912366 10.57590664600043 0 0 0
163 1 3.5249526935645363 3.524952693564536 10.576063866222336 0 0 0
106 1 5.28738364060962 1.7624203909941127 7.050140446995196 0 0 0
107 1 5.287441889917877 2.8941326852002647e-05 8.812983032719227 0 0 0
109 1 7.049889205366734 0.0001673421611515812 7.049910210281291 0 0 0
112 1 7.050087839042432 1.7624195166967145 8.812983032719227 0 0 0
127 1 5.2875147242583616 3.5250143724793706 8.812983032719227 0 0 0
129 1 7.050275422548221 3.5248826171370022 7.050293453759492 0 0 0
154 1 5.28738364060962 1.7624203909941123 10.57582561844326 0 0 0
155 1 7.049889205366735 0.00016734216115150697 10.576055855157163 0 0 0
165 1 7.050275422548221 3.5248826171370027 10.575672611678963 0 0 0
110 1 8.812650923100481 1.7624233253226076 7.049987956589777 0 0 0
111 1 8.812876495370315 0.00017058918044063521 8.812983032719227 0 0 0
131 1 8.812920949017524 3.5248663563186424 8.812983032719227 0 0 0
156 1 8.812650923100483 1.762423325322607 10.575978108848677 0 0 0
113 1 10.575911748881818 0.00017328122123708956 7.049987956589777 0 0 0
114 1 12.338673466615566 1.7624292643826929 7.049910210281292 0 0 0
115 1 12.338474832939868 0.00017708984712946324 8.812983032719227 0 0 0
116 1 10.575686176611985 1.7624260173634043 8.812983032719227 0 0 0
133 1 10.575598783662059 3.52487719915522 7.050314312008827 0 0 0
135 1 12.33842264649463 3.5248670748970894 8.812983032719227 0 0 0
157 1 10.575911748881818 0.0001732812212382561 10.575978108848677 0 0 0
158 1 12.338673466615566 1.7624292643826922 10.576055855157163 0 0 0
167 1 10.575598783662059 3.52487719915522 10.575651753429627 0 0 0
117 1 14.10117903137268 0.00017621554973162342 7.050140446995196 0 0 0
118 1 15.863720373891063 1.7625119409049468 7.050059419438024 0 0 0
119 1 15.863553870447587 2.1953649330236916e-05 8.812983032719227 0 0 0
120 1 14.101120782064426 1.762567665216993 8.812983032719227 0 0 0
137 1 14.10108790958374 3.524849861223014 7.049991751274017 0 0 0
139 1 15.863538160845552 3.5250245111367473 8.812983032719227 0 0 0
159 1 14.10117903137268 0.0001762155497311217 10.575825618443258 0 0 0
160 1 15.863720373891063 1.7625119409049468 10.575906646000432 0 0 0
169 1 14.101087909583741 3.524849861223014 10.575974314164439 0 0 0
122 1 1.7624203909941127 5.28738364060962 7.050140446995196 0 0 0
124 1 2.894132685197614e-05 5.287441889917877 8.812983032719227 0 0 0
128 1 3.5250143724793706 5.2875147242583616 8.812983032719227 0 0 0
141 1 0.00016734216115234875 7.049889205366734 7.049910210281291 0 0 0
142 1 1.7624195166967156 7.050087839042432 8.812983032719227 0 0 0
143 1 3.5248826171370022 7.050275422548221 7.050293453759492 0 0 0
162 1 1.762420390994113 5.287383640609619 10.57582561844326 0 0 0
171 1 0.00016734216115153302 7.049889205366734 10.576055855157163 0 0 0
172 1 3.524882617137003 7.050275422548221 10.57567261167896 0 0 0
351 1 1.7624233253226076 8.812650923100481 7.049987956589778 0 0 0
352 1 0.0001705891804407576 8.812876495370315 8.812983032719227 0 0 0
354 1 3.5248663563186424 8.812920949017522 8.812983032719227 0 0 0
401 1 1.7624233253226078 8.812650923100483 10.575978108848679 0 0 0
126 1 5.287578433833781 5.28757843383378 7.050163484420374 0 0 0
132 1 7.050234672441573 5.287561526799605 8.812983032719227 0 0 0
144 1 5.287561526799604 7.050234672441572 8.812983032719227 0 0 0
145 1 7.050305432040044 7.050305432040044 7.050378425337002 0 0 0
164 1 5.287578433833781 5.28757843383378 10.57580258101808 0 0 0
173 1 7.050305432040044 7.050305432040043 10.575587640101451 0 0 0
146 1 8.812969743626137 7.05026291452292 8.812983032719227 0 0 0
356 1 7.0502629145229205 8.812969743626137 8.812983032719227 0 0 0
355 1 8.812956867668062 8.81295686766806 7.050323484973155 0 0 0
403 1 8.81295686766806 8.812956867668062 10.5756425804653 0 0 0
130 1 8.813012186021664 5.2875639509420935 7.050376638767728 0 0 0
134 1 12.338258949276215 5.287569346915368 7.050394598041801 0 0 0
136 1 10.575635538802917 5.287542627843996 8.812983032719227 0 0 0
147 1 10.575631495213536 7.050259927503322 7.050329569510605 0 0 0
148 1 12.33831127836528 7.05025139361702 8.812983032719227 0 0 0
166 1 8.813012186021666 5.2875639509420935 10.575589426670726 0 0 0
168 1 12.338258949276215 5.287569346915368 10.575571467396653 0 0 0
174 1 10.575631495213536 7.050259927503321 10.575636495927847 0 0 0
357 1 12.338302744478977 8.812931176768764 7.050329569510606 0 0 0
358 1 10.575627618237705 8.812935053744596 8.812983032719227 0 0 0
404 1 12.338302744478979 8.812931176768764 10.575636495927847 0 0 0
138 1 15.863712810759287 5.287474762398557 7.049991751274016 0 0 0
140 1 14.101077186245583 5.287485485736719 8.812983032719227 0 0 0
149 1 14.10099332506693 7.050303722706087 7.050394598041801 0 0 0
150 1 15.86369559708521 7.050140025487669 8.812983032719227 0 0 0
170 1 15.863712810759287 5.287474762398557 10.575974314164439 0 0 0
175 1 14.10099332506693 7.050303722706086 10.575571467396653 0 0 0
359 1 15.863685472827079 8.81296388832024 7.050314312008827 0 0 0
360 1 14.101020044138306 8.81292713317938 8.812983032719227 0 0 0
405 1 15.86368547282708 8.81296388832024 10.575651753429627 0 0 0
176 1 1.7621004822232276 0.0004961243206179275 12.339157879302816 0 0 0
177 1 0.0004961243206175147 1.7621004822232273 12.339157879302816 0 0 0
179 1 3.5246714269725885 1.762229327864323 12.338970641061017 0 0 0
186 1 1.762229327864323 3.524671426972588 12.338970641061017 0 0 0
202 1 1.7633449695092698 1.7633449695092691 14.10321936892192 0 0 0
203 1 1.7598525538504661 0.00274405269337899 15.869055689610038 0 0 0
204 1 0.0027440526933802194 1.759852553850466 15.869055689610038 0 0 0
208 1 3.5239164981949185 1.7635253987132729 15.86479757725608 0 0 0
223 1 1.7635253987132729 3.5239164981949185 15.86479757725608 0 0 0
225 1 3.5265476719077444 3.5265476719077444 14.099298019554768 0 0 0
178 1 5.286732289401549 0.0003597083869985649 12.339478463239427 0 0 0
181 1 7.049310258578617 1.7624224872882108 12.339253686034077 0 0 0
188 1 5.28787994610146 3.5247678717403526 12.338322329244244 0 0 0
206 1 5.2845582985108575 1.7622465582004498 14.103754282108788 0 0 0
209 1 7.050041768213502 0.00035814102447866337 14.101042634031828 0 0 0
212 1 7.04971163094379 1.762550673283178 15.863904270859843 0 0 0
227 1 5.288490330139446 3.526025558052872 15.862900857814727 0 0 0
229 1 7.049905539519558 3.5246997325675915 14.100909511047309 0 0 0
180 1 8.812865223053075 0.0001648627381613805 12.338489822127144 0 0 0
190 1 8.812876608766198 3.5248836915529993 12.338416220863829 0 0 0
210 1 8.812886924850314 1.7625775639794763 14.10114956100087 0 0 0
211 1 8.812774871677055 7.904467467588474e-05 15.863493011719324 0 0 0
231 1 8.81278242983713 3.5250035865450946 15.86345873663422 0 0 0
182 1 12.339252413403683 0.00017411925563361408 12.339253686034079 0 0 0
183 1 10.575697448929224 1.7624317438056825 12.338489822127144 0 0 0
192 1 12.33825087392408 3.5249310231205495 12.338246212832209 0 0 0
213 1 10.575675747131987 1.904256436833944e-05 14.10114956100087 0 0 0
214 1 12.3385209037688 1.7622384655193668 14.101042634031828 0 0 0
215 1 12.33885104103851 4.593326066901872e-05 15.863904270859843 0 0 0
216 1 10.575787800305246 1.7625175618691697 15.863493011719322 0 0 0
233 1 10.575836104973526 3.525015984293903 14.101055967226817 0 0 0
235 1 12.338651607923698 3.5250875213254873 15.863815643982464 0 0 0
221 1 17.625210106510416 3.5227798348867134 14.103087404437561 -1 0 0
184 1 15.863891245009713 0.0003672786795227983 12.338970641061017 0 0 0
185 1 14.10183038258075 1.762236898156847 12.339478463239427 0 0 0
194 1 15.863784297105715 3.524778374876584 12.338747570740711 0 0 0
217 1 14.104004373471442 0.0003500483433948185 14.103754282108788 0 0 0
218 1 15.865782837095587 1.7633525654718825 14.103087404437561 0 0 0
220 1 14.100329190432099 1.763329121906858 15.863054764688384 0 0 0
237 1 14.100576492120569 3.5253148409307915 14.10033104739908 0 0 0
239 1 15.861867453869491 3.526695218112807 15.86196291208562 0 0 0
187 1 0.00035970838699808124 5.286732289401549 12.339478463239427 0 0 0
189 1 3.5247678717403534 5.287879946101459 12.338322329244244 0 0 0
196 1 1.762422487288211 7.049310258578617 12.339253686034077 0 0 0
222 1 1.7622465582004503 5.2845582985108575 14.103754282108788 0 0 0
228 1 3.526025558052872 5.288490330139446 15.862900857814727 0 0 0
241 1 0.0003581410244788591 7.050041768213501 14.101042634031828 0 0 0
242 1 1.762550673283177 7.049711630943789 15.863904270859843 0 0 0
243 1 3.5246997325675924 7.049905539519556 14.10090951104731 0 0 0
426 1 0.00016486273816163045 8.812865223053075 12.338489822127144 0 0 0
427 1 3.524883691553 8.812876608766198 12.338416220863827 0 0 0
451 1 1.7625775639794765 8.812886924850314 14.10114956100087 0 0 0
452 1 7.904467467591432e-05 8.812774871677055 15.863493011719322 0 0 0
454 1 3.5250035865450946 8.812782429837128 15.86345873663422 0 0 0
191 1 7.050496925870126 5.287663542734798 12.338124431632641 0 0 0
197 1 5.287663542734798 7.050496925870125 12.33812443163264 0 0 0
226 1 5.288433214876497 5.288433214876497 14.100286874994127 0 0 0
232 1 7.050047737715579 5.287687543859786 15.863871473989997 0 0 0
244 1 5.287687543859786 7.050047737715579 15.863871473989997 0 0 0
245 1 7.050500004835041 7.05050000483504 14.100965648406179 0 0 0
230 1 8.812750071941819 5.287512159690829 14.101054419122232 0 0 0
246 1 8.81288421154979 7.050195009393396 15.863695965505897 0 0 0
453 1 5.287512159690829 8.812750071941819 14.101054419122232 0 0 0
456 1 7.050195009393396 8.81288421154979 15.863695965505897 0 0 0
193 1 10.57559734626947 5.287575540587209 12.338369131853607 0 0 0
198 1 8.813009925353796 7.050302268926996 12.338305128993653 0 0 0
199 1 12.338251822545221 7.0503108494370785 12.338303463368055 0 0 0
234 1 12.338382850535105 5.287687610107895 14.101029708030552 0 0 0
236 1 10.575711743576637 5.287533085011674 15.86356177914602 0 0 0
247 1 10.575592841561809 7.050251615026793 14.101052507391604 0 0 0
248 1 12.338454956125648 7.05010771585665 15.863711600584079 0 0 0
429 1 10.575616833782279 8.812945838200022 12.33833593069571 0 0 0
457 1 12.338311056955506 8.81296983042049 14.101052507391604 0 0 0
458 1 10.57566932717811 8.812893344804191 15.863701531701404 0 0 0
250 1 15.863475150656813 7.0499110640586 15.863815643982464 0 0 0
249 1 14.100875061874405 7.0501798214471965 14.101029708030552 0 0 0
240 1 14.101121197992235 5.287441473990064 15.864123713698152 0 0 0
238 1 15.863247831051508 5.287986179861732 14.100331047399079 0 0 0
224 1 17.625233550075443 5.2882334815502015 15.863054764688384 -1 0 0
195 1 14.100806587814825 5.287756084167475 12.33804586292426 0 0 0
200 1 15.86363164886175 7.05031179805822 12.338246212832209 0 0 0
430 1 14.10098713139509 8.81296532571283 12.338369131853607 0 0 0
459 1 15.863546687688396 8.812726567008772 14.101055967226817 0 0 0
460 1 14.101029586970625 8.812850928405663 15.86356177914602 0 0 0
251 1 1.762557454117789 8.813025839488905 2.572582367719692e-16 0 0 0
261 1 3.91524260568393e-05 10.575536832493395 0 0 0 0
262 1 1.7620916196792675 12.338609812043561 1.6784770968455183e-16 0 0 0
263 1 1.76251756186917 10.575787800305246 1.762473053719132 0 0 0
264 1 4.593326066793732e-05 12.33885104103851 1.7620617945786128 0 0 0
265 1 3.524880607135097 10.575683409661423 0 0 0 0
268 1 3.5250875213254877 12.3386516079237 1.7621504214559895 0 0 0
311 1 1.9042564369042688e-05 10.575675747131985 3.5248165044375845 0 0 0
312 1 1.762238465519367 12.338520903768798 3.524923431406627 0 0 0
313 1 1.7624317438056827 10.575697448929224 5.28747624331131 0 0 0
314 1 0.00017411925563404242 12.339252413403681 5.286712379404377 0 0 0
315 1 3.525015984293903 10.575836104973526 3.5249100982116386 0 0 0
318 1 3.52493102312055 12.33825087392408 5.287719852606246 0 0 0
266 1 5.286517613966948 12.339291997666722 1.6449848177142408e-16 0 0 0
267 1 5.287533085011674 10.575711743576637 1.7624042862924356 0 0 0
269 1 7.049844492854365 10.575936503256886 2.7509424566875405e-16 0 0 0
272 1 7.05010771585665 12.33845495612565 1.7622544648543774 0 0 0
306 1 7.0503022689269965 8.813009925353796 5.287660936444802 0 0 0
316 1 5.287687610107895 12.338382850535105 3.5249363574079027 0 0 0
317 1 5.287575540587209 10.57559734626947 5.287596933584848 0 0 0
319 1 7.050251615026793 10.575592841561809 3.5249135580468494 0 0 0
322 1 7.050310849437078 12.338251822545223 5.2876626020704 0 0 0
270 1 8.812626168725414 12.338718179127936 7.2326803185115e-18 0 0 0
271 1 8.812893344804191 10.57566932717811 1.762264533737052 0 0 0
320 1 8.812969830420492 12.338311056955506 3.5249135580468494 0 0 0
321 1 8.812945838200022 10.575616833782279 5.287630134742745 0 0 0
273 1 10.575903280214861 10.575903280214861 0 0 0 0
274 1 12.339448085866616 12.339448085866614 0 0 0 0
275 1 12.338367662588903 10.57567846043251 1.7622700999325585 0 0 0
276 1 10.57567846043251 12.338367662588903 1.7622700999325571 0 0 0
305 1 8.81299961853769 8.812999618537688 3.5249150839482306 0 0 0
323 1 10.575563053444611 10.575563053444611 3.5249150839482315 0 0 0
324 1 12.33806266714726 12.33806266714726 3.525000417032277 0 0 0
325 1 12.338260403055303 10.575552746628505 5.287660936444802 0 0 0
326 1 10.575552746628503 12.338260403055303 5.287660936444803 0 0 0
277 1 14.101211589924723 10.575666258082261 2.570277469917312e-16 0 0 0
278 1 15.864060337805089 12.338732707245688 0 0 0 0
279 1 15.863559085437206 10.575780242145171 1.762507328804235 0 0 0
280 1 14.100875128122514 12.338514934266723 1.7620945914484574 0 0 0
327 1 14.10105051229147 10.57581260004048 3.5249116463162236 0 0 0
328 1 15.863862939414709 12.338657132462744 3.525056554391144 0 0 0
329 1 15.863678980429299 10.575686063216102 5.2875498445746265 0 0 0
330 1 14.100899129247503 12.338065746112175 5.287841633805815 0 0 0
281 1 0.0003870890577097689 14.104404210389138 4.662807248438493e-19 0 0 0
282 1 1.759872388941954 15.868936962840099 0 0 0 0
283 1 1.763329121906858 14.100329190432099 1.7629113007500719 0 0 0
285 1 3.521575684582528 14.10435983467119 1.9417959683171402e-16 0 0 0
288 1 3.5266952181128075 15.861867453869491 1.7640031533528346 0 0 0
331 1 0.00035004834339512646 14.104004373471442 3.5222117833296664 0 0 0
332 1 1.7633525654718833 15.865782837095587 3.5228786610008944 0 0 0
333 1 1.7622368981568464 14.10183038258075 5.286487602199028 0 0 0
334 1 0.0003672786795213348 15.863891245009711 5.286995424377436 0 0 0
335 1 3.5253148409307924 14.100576492120569 3.5256350180393743 0 0 0
338 1 3.5247783748765835 15.863784297105717 5.287218494697742 0 0 0
55 1 3.522779834886713 17.625210106510416 3.522878661000894 0 -1 0
341 1 8.81296532571283 14.10098713139509 5.287596933584848 0 0 0
340 1 8.812726567008774 15.863546687688396 3.5249100982116377 0 0 0
286 1 5.28420283731111 15.866986987399773 0 0 0 0
287 1 5.287441473990064 14.101121197992235 1.7618423517403032 0 0 0
289 1 7.049270674315578 14.102045058015351 4.725030484522302e-16 0 0 0
292 1 7.0499110640586 15.863475150656813 1.762150421455989 0 0 0
336 1 5.287986179861732 15.863247831051508 3.5256350180393747 0 0 0
337 1 5.287756084167475 14.100806587814825 5.287920202514194 0 0 0
339 1 7.0501798214471965 14.100875061874405 3.5249363574079027 0 0 0
342 1 7.05031179805822 15.86363164886175 5.287719852606245 0 0 0
290 1 8.812879262320877 15.863682064847204 9.144862457454967e-19 0 0 0
291 1 8.812850928405664 14.101029586970625 1.7624042862924358 0 0 0
7 1 5.2882334815502015 17.625233550075443 1.7629113007500712 0 -1 0
346 1 10.575686063216104 15.863678980429299 5.2875498445746265 0 0 0
345 1 12.338065746112175 14.100899129247502 5.287841633805815 0 0 0
344 1 12.338657132462744 15.863862939414709 3.5250565543911447 0 0 0
343 1 10.57581260004048 14.10105051229147 3.5249116463162236 0 0 0
296 1 10.575780242145171 15.863559085437204 1.7625073288042359 0 0 0
295 1 12.338514934266723 14.100875128122514 1.7620945914484574 0 0 0
294 1 12.33873270724569 15.864060337805089 0 0 0 0
293 1 10.575666258082263 14.101211589924722 0 0 0 0
350 1 14.100682725880842 15.863794800241948 5.28764373619421 0 0 0
349 1 15.86379480024195 14.10068272588084 5.28764373619421 0 0 0
348 1 15.862015000074555 15.862015000074555 3.526668045883687 0 0 0
347 1 14.100129457105801 14.100129457105801 3.525679190444328 0 0 0
300 1 14.100072341842855 15.862537113929427 1.7630652076237265 0 0 0
299 1 15.862537113929427 14.100072341842854 1.7630652076237268 0 0 0
298 1 15.868581473090552 15.868581473090552 1.1781744440165464e-17 0 0 0
297 1 14.104696659991982 14.104696659991982 0 0 0 0
284 1 17.625037273269026 15.864646173787381 1.761168488182374 -1 0 0
51 1 17.62521770247303 17.62521770247303 3.522746696516534 -1 -1 0
19 1 15.864646173787381 17.625037273269026 1.7611684881823741 0 -1 0
361 1 0.00017328122123758154 10.575911748881818 7.049987956589777 0 0 0
362 1 1.7624292643826922 12.338673466615566 7.049910210281292 0 0 0
363 1 1.7624260173634043 10.575686176611985 8.812983032719227 0 0 0
364 1 0.00017708984713013997 12.338474832939868 8.812983032719227 0 0 0
365 1 3.524877199155221 10.575598783662059 7.050314312008827 0 0 0
368 1 3.52486707489709 12.338422646494632 8.812983032719227 0 0 0
406 1 0.00017328122123764174 10.575911748881817 10.575978108848677 0 0 0
407 1 1.7624292643826924 12.338673466615566 10.576055855157163 0 0 0
408 1 3.5248771991552195 10.575598783662059 10.575651753429627 0 0 0
353 1 5.2875639509420935 8.813012186021664 7.050376638767727 0 0 0
366 1 5.287569346915368 12.338258949276215 7.050394598041801 0 0 0
367 1 5.2875426278439965 10.575635538802919 8.812983032719227 0 0 0
369 1 7.050259927503322 10.575631495213536 7.050329569510606 0 0 0
372 1 7.05025139361702 12.338311278365278 8.812983032719227 0 0 0
402 1 5.287563950942093 8.813012186021664 10.575589426670726 0 0 0
409 1 5.287569346915368 12.338258949276215 10.575571467396653 0 0 0
410 1 7.050259927503322 10.575631495213534 10.575636495927847 0 0 0
370 1 8.812931176768764 12.338302744478979 7.050329569510605 0 0 0
371 1 8.812935053744594 10.575627618237705 8.812983032719227 0 0 0
411 1 8.812931176768766 12.338302744478977 10.575636495927847 0 0 0
373 1 10.57560580431424 10.57560580431424 7.0503234849731555 0 0 0
374 1 12.338257239942255 12.338257239942255 7.050378425337003 0 0 0
375 1 12.33829975745938 10.575592928356164 8.812983032719227 0 0 0
376 1 10.575592928356162 12.338299757459382 8.812983032719227 0 0 0
412 1 10.57560580431424 10.57560580431424 10.5756425804653 0 0 0
413 1 12.338257239942255 12.338257239942255 10.575587640101451 0 0 0
377 1 14.100998721040206 10.575550485960635 7.050376638767728 0 0 0
378 1 15.863680054845297 12.338287249434078 7.050293453759492 0 0 0
379 1 15.863696315663656 10.575641722964777 8.812983032719227 0 0 0
380 1 14.101001145182694 12.338327999540725 8.812983032719227 0 0 0
414 1 14.100998721040206 10.575550485960635 10.575589426670726 0 0 0
415 1 15.863680054845297 12.338287249434076 10.57567261167896 0 0 0
381 1 0.00017621554973187332 14.10117903137268 7.050140446995196 0 0 0
382 1 1.7625119409049466 15.863720373891063 7.050059419438024 0 0 0
383 1 1.7625676652169935 14.101120782064424 8.812983032719227 0 0 0
384 1 2.195364933063839e-05 15.863553870447586 8.812983032719227 0 0 0
385 1 3.524849861223014 14.101087909583741 7.049991751274017 0 0 0
388 1 3.5250245111367478 15.863538160845552 8.812983032719227 0 0 0
416 1 0.00017621554973361333 14.10117903137268 10.575825618443258 0 0 0
417 1 1.7625119409049461 15.863720373891063 10.57590664600043 0 0 0
418 1 3.524849861223015 14.101087909583741 10.575974314164439 0 0 0
421 1 8.81296388832024 15.86368547282708 10.575651753429627 0 0 0
386 1 5.287474762398558 15.863712810759287 7.049991751274016 0 0 0
387 1 5.287485485736718 14.101077186245583 8.812983032719227 0 0 0
389 1 7.050303722706087 14.10099332506693 7.050394598041801 0 0 0
392 1 7.050140025487669 15.86369559708521 8.812983032719227 0 0 0
419 1 5.287474762398558 15.863712810759285 10.575974314164437 0 0 0
420 1 7.0503037227060865 14.100993325066932 10.575571467396653 0 0 0
390 1 8.81296388832024 15.863685472827079 7.050314312008827 0 0 0
391 1 8.81292713317938 14.101020044138306 8.812983032719227 0 0 0
423 1 12.338287249434078 15.863680054845297 10.57567261167896 0 0 0
422 1 10.575550485960635 14.100998721040206 10.575589426670726 0 0 0
396 1 10.575641722964777 15.863696315663656 8.812983032719227 0 0 0
395 1 12.338327999540725 14.101001145182694 8.812983032719227 0 0 0
394 1 12.338287249434078 15.863680054845297 7.050293453759492 0 0 0
393 1 10.575550485960635 14.100998721040206 7.050376638767727 0 0 0
425 1 15.863609978417763 15.863609978417763 10.576063866222336 0 0 0
424 1 14.100984238148518 14.10098423814852 10.57580258101808 0 0 0
400 1 14.101047947723936 15.86354829950293 8.812983032719227 0 0 0
399 1 15.863548299502929 14.101047947723938 8.812983032719227 0 0 0
398 1 15.863609978417763 15.863609978417763 7.049902199216118 0 0 0
397 1 14.10098423814852 14.100984238148518 7.050163484420375 0 0 0
431 1 1.7624317438056831 10.575697448929224 12.338489822127144 0 0 0
432 1 0.0001741192556345175 12.339252413403681 12.339253686034077 0 0 0
434 1 3.5249310231205495 12.33825087392408 12.338246212832209 0 0 0
461 1 1.9042564369837496e-05 10.575675747131987 14.10114956100087 0 0 0
462 1 1.7622384655193661 12.338520903768798 14.101042634031828 0 0 0
463 1 1.7625175618691697 10.575787800305244 15.863493011719322 0 0 0
464 1 4.593326066767636e-05 12.33885104103851 15.863904270859843 0 0 0
465 1 3.525015984293903 10.575836104973526 14.101055967226817 0 0 0
468 1 3.5250875213254873 12.3386516079237 15.863815643982466 0 0 0
428 1 7.0503022689269965 8.813009925353796 12.338305128993653 0 0 0
433 1 5.287575540587208 10.57559734626947 12.338369131853607 0 0 0
436 1 7.050310849437078 12.338251822545223 12.338303463368055 0 0 0
466 1 5.287687610107895 12.338382850535105 14.101029708030552 0 0 0
467 1 5.287533085011674 10.575711743576637 15.86356177914602 0 0 0
469 1 7.050251615026793 10.575592841561809 14.101052507391604 0 0 0
472 1 7.050107715856649 12.33845495612565 15.863711600584079 0 0 0
435 1 8.812945838200022 10.575616833782279 12.33833593069571 0 0 0
470 1 8.812969830420492 12.338311056955506 14.101052507391604 0 0 0
471 1 8.812893344804191 10.57566932717811 15.863701531701404 0 0 0
437 1 12.338260403055303 10.575552746628503 12.338305128993651 0 0 0
438 1 10.575552746628503 12.338260403055305 12.338305128993651 0 0 0
455 1 8.812999618537688 8.812999618537688 14.101050981490223 0 0 0
473 1 10.575563053444611 10.575563053444611 14.101050981490223 0 0 0
474 1 12.33806266714726 12.33806266714726 14.100965648406179 0 0 0
475 1 12.338367662588903 10.57567846043251 15.863695965505896 0 0 0
476 1 10.57567846043251 12.338367662588903 15.863695965505897 0 0 0
439 1 15.863678980429299 10.575686063216102 12.338416220863827 0 0 0
440 1 14.100899129247502 12.338065746112175 12.338124431632641 0 0 0
477 1 14.101050512291472 10.575812600040482 14.101054419122232 0 0 0
478 1 15.863862939414707 12.338657132462744 14.10090951104731 0 0 0
479 1 15.863559085437204 10.575780242145171 15.86345873663422 0 0 0
480 1 14.100875128122514 12.338514934266723 15.863871473989997 0 0 0
441 1 1.7622368981568466 14.10183038258075 12.339478463239427 0 0 0
442 1 0.0003672786795219412 15.863891245009711 12.338970641061017 0 0 0
444 1 3.524778374876585 15.863784297105715 12.338747570740711 0 0 0
481 1 0.0003500483433950222 14.10400437347144 14.103754282108788 0 0 0
482 1 1.7633525654718827 15.865782837095587 14.103087404437561 0 0 0
483 1 1.763329121906858 14.100329190432099 15.863054764688384 0 0 0
485 1 3.525314840930792 14.100576492120569 14.10033104739908 0 0 0
488 1 3.526695218112807 15.861867453869493 15.86196291208562 0 0 0
205 1 3.522779834886714 17.625210106510416 14.103087404437561 0 -1 0
491 1 8.812850928405663 14.101029586970625 15.86356177914602 0 0 0
490 1 8.812726567008774 15.863546687688396 14.101055967226817 0 0 0
443 1 5.287756084167475 14.100806587814825 12.33804586292426 0 0 0
446 1 7.050311798058221 15.86363164886175 12.338246212832209 0 0 0
486 1 5.287986179861732 15.863247831051508 14.10033104739908 0 0 0
487 1 5.2874414739900635 14.101121197992235 15.864123713698152 0 0 0
489 1 7.0501798214471965 14.100875061874405 14.101029708030552 0 0 0
492 1 7.049911064058601 15.863475150656813 15.863815643982464 0 0 0
445 1 8.81296532571283 14.10098713139509 12.338369131853607 0 0 0
207 1 5.2882334815502015 17.625233550075443 15.863054764688384 0 -1 0
496 1 10.575780242145171 15.863559085437204 15.86345873663422 0 0 0
495 1 12.338514934266723 14.100875128122512 15.863871473989997 0 0 0
494 1 12.338657132462744 15.863862939414709 14.100909511047309 0 0 0
493 1 10.57581260004048 14.10105051229147 14.101054419122232 0 0 0
448 1 10.575686063216102 15.863678980429299 12.338416220863829 0 0 0
447 1 12.338065746112175 14.100899129247502 12.338124431632641 0 0 0
500 1 14.100072341842855 15.862537113929427 15.862900857814727 0 0 0
499 1 15.862537113929427 14.100072341842854 15.862900857814727 0 0 0
498 1 15.862015000074555 15.862015000074555 14.09929801955477 0 0 0
497 1 14.100129457105803 14.100129457105801 14.100286874994126 0 0 0
450 1 14.100682725880842 15.863794800241948 12.338322329244244 0 0 0
449 1 15.863794800241948 14.100682725880842 12.338322329244246 0 0 0
484 1 17.625037273269026 15.864646173787381 15.86479757725608 -1 0 0
201 1 17.62521770247303 17.62521770247303 14.10321936892192 -1 -1 0
219 1 15.864646173787381 17.625037273269026 15.86479757725608 0 -1 0

Velocities

1 -7.148688500191881e-10 -7.1487026706781e-10 -5.360388029198758e-16
2 7.148697683434219e-10 7.148707427142065e-10 -8.907505296493547e-16
3 -1.2004756963122858e-09 1.2004737583002616e-09 -4.598793770741645e-09
4 1.2004775126337816e-09 -1.2004755655853322e-09 -4.598795421395342e-09
5 -4.792647567555561e-09 2.8267166482774908e-09 -8.355699108465891e-16
8 -8.177160184715993e-10 1.9462025647230818e-09 1.2983698723643312e-10
21 2.826715647041562e-09 -4.792646808495831e-09 -1.067503048393294e-15
23 1.946201143594588e-09 -8.177182146241743e-10 1.2983665590083683e-10
25 1.2933881151642373e-09 1.2933881576354365e-09 -1.0810576864231186e-15
52 2.0023993403568598e-09 2.0024032356586158e-09 -6.118523516561726e-10
53 -3.0398760196425344e-10 3.0398559376932583e-10 -1.9359325691133294e-09
54 3.039858934774334e-10 -3.0398601396310473e-10 -1.9359353041380694e-09
58 -4.026666293907266e-09 -3.786546915578413e-10 -5.834889117784285e-10
73 -3.786554232070807e-10 -4.0266678108218685e-09 -5.834884093531788e-10
75 1.4174435552896975e-09 1.4174400672295113e-09 3.7460667387632476e-09
6 2.0632787687163973e-09 1.4288590280573597e-09 -2.482004830350097e-16
9 2.194652325985457e-09 1.813641653693741e-10 -3.4722464419733906e-16
12 -3.97242758333029e-09 -9.191731986048674e-10 -1.6114652847311638e-09
27 2.536362408317039e-09 -2.9433928822195838e-09 -2.209138402367314e-09
29 3.7204509076622677e-09 -2.8779356156290544e-09 -1.4217309222393757e-15
56 3.3885267098246523e-09 1.7994331980608705e-09 -2.286017121465628e-10
57 -5.904630487334034e-10 -1.895688608647969e-09 1.6272127867772574e-09
59 4.343504838542528e-09 5.480519685322904e-10 -1.2134168978118639e-09
62 -1.7565460483247842e-09 1.9837868536060406e-09 4.7449487336760595e-09
77 9.083938134301105e-10 -2.0716115748950465e-10 3.895950379048301e-09
79 -5.465993194807049e-10 8.194480352396913e-10 3.979975642558284e-10
11 -2.6214334517571582e-09 -6.762370357664631e-10 -2.447088651929459e-09
31 -1.4416247765149946e-09 2.6944725591404604e-09 -1.6015380466333706e-09
60 5.151429328680688e-09 -3.120922470403977e-09 -4.480930941403119e-10
61 -3.5635802364739785e-09 -2.4056450794281153e-09 5.190286504704467e-10
81 -2.403516144366745e-09 -3.2496040933482975e-09 -2.6907035821325093e-09
10 3.550880945502961e-09 -3.2346270443346283e-09 3.906747894373878e-16
13 -3.550879441107573e-09 3.2346251792164354e-09 -4.843523989323975e-16
14 -2.1946509850693577e-09 -1.8136038992039065e-10 -9.020088013889624e-16
15 3.972429911113461e-09 9.191696539164155e-10 -1.6114617954661208e-09
16 2.621429543305521e-09 6.76239898506015e-10 -2.44708876413174e-09
33 -5.428476869007295e-09 -1.7422813870475088e-09 1.2530498056947856e-15
35 3.8624175217838825e-09 -1.7741592618580538e-09 9.625243946004851e-10
63 -5.151429797492318e-09 3.1209238849057587e-09 -4.4808973364433014e-10
64 -4.343503353556628e-09 -5.480533083329561e-10 -1.2134146855443303e-09
65 1.7565436035493203e-09 -1.9837871087562173e-09 4.744947202285387e-09
66 3.5635825699110924e-09 2.4056429155054572e-09 5.190275570629789e-10
83 -1.6807169612974376e-09 -1.241979724033552e-09 2.5774148028812524e-09
85 3.955114036213977e-09 2.166801493224922e-10 5.967879427927284e-10
71 2.7644457971663487e-09 -8.473432932510654e-10 -1.0952826735949207e-10
17 -2.0632756746443564e-09 -1.4288561821858017e-09 -1.3322703112425336e-15
18 4.792644531316642e-09 -2.8267162759767663e-09 -8.337608459234305e-16
20 -2.045121535267588e-09 -2.6382698506569127e-09 -1.0922659575720016e-09
37 -1.7116608705443762e-10 -5.902310863579785e-09 -3.3555259478276795e-16
39 3.673962374340375e-09 -3.673964538263033e-09 -6.399763691549554e-09
67 -3.388529092560585e-09 -1.7994313489058525e-09 -2.2860291890532908e-10
68 8.473441962911724e-10 -2.7644447061685946e-09 -1.0952959614701438e-10
69 4.026667565031099e-09 3.7865671481347787e-10 -5.834880518119491e-10
70 5.904621368804284e-10 1.895692310356119e-09 1.6272135189312659e-09
87 -1.3608354259107037e-09 3.875051835811273e-09 -1.8561710293602817e-09
89 1.0599680166785175e-09 -1.059972519529271e-09 -5.174470447011448e-10
22 1.4288603805090209e-09 2.0632781494200465e-09 -5.512672463347532e-16
28 -2.943392101264672e-09 2.5363635193537727e-09 -2.2091402002412064e-09
41 1.8136138937950558e-10 2.1946549766702274e-09 -1.0813589006015592e-15
42 -9.191706370794939e-10 -3.9724282050363545e-09 -1.6114623656645604e-09
43 -2.877933651712611e-09 3.7204494847264886e-09 -4.563394803374267e-16
72 1.7994306747885212e-09 3.3885303010318687e-09 -2.2860091501172716e-10
74 -1.8956876005712246e-09 -5.904612139601857e-10 1.6272116393547926e-09
78 -2.0716049807371904e-10 9.08394662194011e-10 3.895951094142526e-09
91 5.480531155558818e-10 4.343503995142828e-09 -1.2134137892815423e-09
92 1.983786863244894e-09 -1.7565465796665949e-09 4.744947315258493e-09
93 8.194450352217776e-10 -5.466000243218825e-10 3.979971157479167e-10
252 -6.762371056481525e-10 -2.6214341120186375e-09 -2.4470898870581973e-09
254 2.6944725326336128e-09 -1.4416261621002155e-09 -1.6015373038404567e-09
301 -3.1209214486854835e-09 5.151427391120486e-09 -4.4809372164474916e-10
302 -2.4056444384443432e-09 -3.563580853360616e-09 5.190294944725747e-10
304 -3.2496055824994243e-09 -2.4035158369393234e-09 -2.690703510174089e-09
26 2.2470790435894844e-09 2.2470820007853553e-09 -1.2188328751491415e-15
32 -4.416645305535829e-10 1.2869834750953432e-09 1.0306333145110047e-09
44 1.2869840369539155e-09 -4.416643981964254e-10 1.0306308168445609e-09
45 5.089603503445342e-09 5.089603875143638e-09 -4.0121728568280687e-16
76 1.3788197363048778e-09 1.378819980255711e-09 1.1102487533659803e-09
82 -1.4576292912684684e-09 -4.890221718603722e-09 -4.753632566748418e-10
94 -4.890221883669092e-09 -1.457631435913419e-09 -4.753611240784585e-10
95 1.2741769402740146e-09 1.2741764066308966e-09 -2.6800859263822766e-09
30 4.907424628011501e-09 -1.0934095310563033e-09 -4.132658528204287e-16
46 -3.2282996684969236e-09 9.853211472915144e-10 3.0871811473131073e-09
80 5.921950957470463e-10 -4.325420172582117e-09 -1.7636205192543035e-09
253 -1.0934085575320786e-09 4.9074236109229075e-09 4.626649780846783e-16
256 9.853202147338886e-10 -3.228299466854082e-09 3.0871802213807227e-09
303 -4.325420123404537e-09 5.921962506969242e-10 -1.7636218094664085e-09
255 3.150296409521084e-09 3.150297196372528e-09 1.4458280565146196e-17
34 -3.6724973717234705e-09 -1.5050954116086865e-09 -3.3057880204410304e-16
36 1.3826472325509816e-09 6.244776360208209e-10 1.8848396586905863e-09
47 -1.887726082713336e-09 2.491095424856307e-09 -7.229140282573098e-18
48 2.1482491210268563e-09 -2.148243662916334e-09 -4.656821802672815e-12
84 4.4421944824585095e-09 2.3955161336046206e-09 -2.7674201012398784e-09
86 -1.3296901000475158e-09 -1.572342218819293e-09 -5.385030067718933e-09
96 3.6346230806256543e-10 -3.010742471047234e-09 -3.893334287232113e-09
97 -4.889316585579887e-10 5.4708142879001e-10 -2.3687303998109823e-09
98 -1.5380533828709099e-09 1.5380587406631421e-09 4.713736269930489e-10
257 -2.491097416832734e-09 1.8877274920126155e-09 1.853783832822149e-15
258 1.5273416561389961e-09 -1.527340444795588e-09 -6.033950373991914e-09
307 -5.470835105739421e-10 4.889315451088024e-10 -2.3687274929612025e-09
308 1.1736414113271304e-09 -1.173638370268785e-09 -1.987397760982917e-09
100 -2.1668074945409096e-10 -3.955112865818714e-09 5.967889358729307e-10
99 -2.3955181045156644e-09 -4.4421953112740304e-09 -2.767418751800359e-09
90 7.7634168471799e-10 -7.763409720452439e-10 -3.038327982614399e-09
88 -3.875051938450004e-09 1.3608358289352745e-09 -1.8561730438807072e-09
24 2.6382693459572607e-09 2.0451206939763875e-09 -1.0922658515446106e-09
38 5.902311075333352e-09 1.7116608705443762e-10 4.801354004342299e-16
40 1.4465074873393806e-09 -1.4465067104327108e-09 -8.306733273993696e-10
49 1.5050982246311322e-09 3.6724988207331016e-09 1.6599913373858474e-15
50 1.7741600347736357e-09 -3.862417859143763e-09 9.625221783521591e-10
259 1.7422806845972186e-09 5.428472436211323e-09 1.8072850706432743e-16
260 -6.244793101086288e-10 -1.3826507304343463e-09 1.8848363658171876e-09
309 1.2419802990890704e-09 1.6807177134129622e-09 2.5774179134788913e-09
310 1.572337374090447e-09 1.3296865656003459e-09 -5.385031381916393e-09
101 -2.388131985873189e-10 -2.3881444802373105e-10 -2.7587443929069772e-09
102 2.388120612025811e-10 2.388121503619779e-10 -2.7587437639717724e-09
103 -4.717476959606081e-09 4.7174759394689615e-09 -6.006893156477511e-16
104 4.7174764246497e-09 -4.717476546942656e-09 2.641648344923586e-16
105 1.4090044424717557e-11 -6.691612654219219e-10 -2.0620323667358595e-09
108 -3.8601036994570695e-09 -3.760801366776142e-09 2.469938613944207e-16
121 -6.691599676788742e-10 1.4090442629861455e-11 -2.062031665509252e-09
123 -3.7608033066508265e-09 -3.86010421858088e-09 4.518212676608185e-18
125 -4.98117636276934e-10 -4.981171655109417e-10 -9.699633273305852e-10
151 -2.3881469260964397e-10 -2.3880979848167267e-10 2.758744409774971e-09
152 2.388130925599281e-10 2.388134696800795e-10 2.7587400560252356e-09
153 1.4089550188728393e-11 -6.691671674013565e-10 2.0620352286768465e-09
161 -6.691648497582784e-10 1.4089334161684794e-11 2.0620347517497244e-09
163 -4.981188234467277e-10 -4.981193730955361e-10 9.699618988788216e-10
106 -5.755548544123316e-10 -1.3298591037926842e-09 1.1257868924897883e-09
107 -1.9604230240904184e-09 -2.432761281004155e-09 -5.964040733122805e-17
109 3.0731749386258182e-09 -5.100017744500866e-09 -1.6676303241378872e-09
112 3.0250167859247715e-10 -2.3316073958368723e-09 8.771356876188691e-16
127 -5.3760205634512864e-09 -7.115903664113415e-09 4.2345771693625687e-16
129 3.629124777049838e-09 -9.75951959259833e-10 1.344210884467869e-09
154 -5.755547584026654e-10 -1.3298575422983832e-09 -1.1257904263345298e-09
155 3.0731723280401857e-09 -5.100017573411212e-09 1.6676317073133946e-09
165 3.6291262700380805e-09 -9.759527325613454e-10 -1.3442130649655431e-09
110 2.693432491767811e-09 -7.302740448955586e-10 6.4692393517655766e-09
111 -6.843078475393807e-10 -2.1343999237350406e-09 -1.721137815609278e-15
131 6.979649053172128e-10 -4.601547235691521e-09 7.668430569763635e-17
156 2.6934281739431615e-09 -7.302723291795981e-10 -6.469237276701102e-09
113 -2.6934331690137692e-09 7.302721821870791e-10 6.469238483365101e-09
114 -3.0731732668824216e-09 5.100018855378756e-09 -1.667631376881441e-09
115 -3.025011569642353e-10 2.331612474000235e-09 -1.2731081990813685e-15
116 6.84308305746558e-10 2.1344005791770927e-09 -1.430164919235711e-15
133 9.562813116021654e-12 -1.0940526493540615e-09 -1.0770561387640654e-09
135 3.924262447213839e-09 -2.710537551793157e-09 6.768688522729226e-16
157 -2.693430751525251e-09 7.302705797276498e-10 -6.469236317635157e-09
158 -3.0731720906563505e-09 5.100020016860628e-09 1.6676319753940134e-09
167 9.563609186725349e-12 -1.094052594514255e-09 1.0770556160892221e-09
117 5.755548526050465e-10 1.3298619309889632e-09 1.1257880693335834e-09
118 -1.408924982171483e-11 6.691614739756771e-10 -2.0620339450981543e-09
119 3.8601047198012734e-09 3.76080382955864e-09 -3.638667275561792e-16
120 1.9604194889937556e-09 2.4327615267949247e-09 4.0121728568280687e-16
137 -2.6051651667178555e-09 2.7556857598530954e-09 -1.678294037105612e-09
139 -1.2104512345800486e-09 1.2104532376402157e-09 3.8796386183142287e-16
159 5.755539965543514e-10 1.3298631886334616e-09 -1.1257853605144767e-09
160 -1.4087614680547166e-11 6.691620864194054e-10 2.0620310582614685e-09
169 -2.6051699602822016e-09 2.7556855829973652e-09 1.6782913933446496e-09
122 -1.3298586941414015e-09 -5.755553625606506e-10 1.1257867864623976e-09
124 -2.4327609050888603e-09 -1.960423546038112e-09 3.9604957993393626e-17
128 -7.11590255761725e-09 -5.376021973100034e-09 -3.0723846200935664e-16
141 -5.1000220217422e-09 3.0731745139138267e-09 -1.6676305361926689e-09
142 -2.3316108128105125e-09 3.0250126240802365e-10 1.5633015861064323e-15
143 -9.759509100884912e-10 3.629123958953306e-09 1.344209424179767e-09
162 -1.3298581640044476e-09 -5.755534037807326e-10 -1.1257896172732465e-09
171 -5.1000161034860215e-09 3.0731739970302964e-09 1.667631231997421e-09
172 -9.759546242428638e-10 3.6291228775296917e-09 -1.34420851133255e-09
351 -7.30272864135979e-10 2.693433347332563e-09 6.469236708309947e-09
352 -2.1343998779504854e-09 -6.843079588309599e-10 -8.000248579380894e-16
354 -4.601545637411438e-09 6.979708591990271e-10 -2.847727084310185e-16
401 -7.302743051446087e-10 2.693427552272984e-09 -6.469241175014999e-09
126 -6.361359283208385e-10 -6.361339656092517e-10 4.390731293889119e-09
132 -4.585579260448759e-09 -3.178708564094882e-09 2.2892277561481474e-17
144 -3.178704470895411e-09 -4.585578075773395e-09 -1.3759463671164129e-15
145 -1.7981272162158748e-09 -1.7981266095705194e-09 -5.951287594394322e-10
164 -6.36134792452791e-10 -6.361339589825398e-10 -4.390729766733234e-09
173 -1.7981262722106396e-09 -1.7981247583081788e-09 5.951312555260254e-10
146 -2.019993509924912e-09 -9.94689029690572e-09 -2.2651306218729036e-16
356 -9.94689404039553e-09 -2.019995703968988e-09 -1.521734029481637e-15
355 2.3205512742950173e-09 2.3205554798473767e-09 -1.6569575660137165e-09
403 2.320555725336932e-09 2.3205501355548158e-09 1.6569602295000893e-09
130 9.965421196041642e-10 -3.022887497808503e-10 -2.180054580243551e-09
134 -3.5376124165676883e-09 1.6237654529875332e-09 3.4085754706537507e-09
136 -1.0289507985220635e-09 3.1676089821147337e-10 -1.4587949739111196e-15
147 -4.488680988232463e-09 -1.0842504214694223e-09 3.920240994347047e-10
148 1.8488755179101321e-09 -1.8488792648901346e-09 -7.023061543186498e-16
166 9.965389290560409e-10 -3.0228944931312796e-10 2.180053611468156e-09
168 -3.537611997711724e-09 1.623764726398339e-09 -3.408573618798355e-09
174 -4.48868150622559e-09 -1.0842453914938565e-09 -3.9202179032681277e-10
357 1.0842500036853567e-09 4.488683259086154e-09 3.920208074649485e-10
358 5.941490713183719e-10 -5.941515105507888e-10 9.855727918574655e-16
404 1.0842461080019356e-09 4.488682238271304e-09 -3.9202305783607566e-10
138 -2.7556886425386737e-09 2.6051699608846298e-09 -1.6782922638536251e-09
140 4.046824089516457e-09 -4.0468270615967554e-09 -7.792410796256917e-16
149 -1.623762817737048e-09 3.5376080547816527e-09 3.408572425577112e-09
150 2.7105379492793973e-09 -3.924260581892091e-09 -1.2205198510410913e-15
170 -2.7556870786346592e-09 2.605168746389062e-09 1.6782936982355428e-09
175 -1.623761450224678e-09 3.5376112687369368e-09 -3.408571705675225e-09
359 1.0940557562559437e-09 -9.562500434075461e-12 -1.0770558506344663e-09
360 -3.1676160308794944e-10 1.0289577338667355e-09 1.6898115410514614e-16
405 1.0940484216906988e-09 -9.562933881278236e-12 1.0770550831407394e-09
176 -3.039835223194207e-10 3.0398173431205745e-10 1.935935400827821e-09
177 3.0398388859586166e-10 -3.0398278103132754e-10 1.9359353499226247e-09
179 -4.026667359231218e-09 -3.786545258960457e-10 5.834907031438592e-10
186 -3.786548978895535e-10 -4.026667062907063e-09 5.834904729715154e-10
202 2.0024036657924623e-09 2.002403557355358e-09 6.11851640037676e-10
203 -1.2004736016688888e-09 1.2004748764072919e-09 4.598797190124998e-09
204 1.2004737655294018e-09 -1.2004731269553436e-09 4.598796843126265e-09
208 -8.177182498662332e-10 1.946202031573986e-09 -1.298360263632039e-10
223 1.9462025123118147e-09 -8.177178896140757e-10 -1.29836284804969e-10
225 1.4174400901217887e-09 1.4174400768683649e-09 -3.746067041940025e-09
178 -5.904624295853063e-10 -1.895695853839714e-09 -1.6272145069137712e-09
181 -1.7565418349408562e-09 1.983786665648393e-09 -4.744947596216018e-09
188 9.083949963238978e-10 -2.0715985292001352e-10 -3.89594846618413e-09
206 3.3885281002292997e-09 1.799433668555064e-09 2.2860185913913016e-10
209 4.343504826493961e-09 5.480520215459858e-10 1.2134163146612145e-09
212 -3.9724294821844705e-09 -9.191724949685466e-10 1.6114635063626543e-09
227 2.5363636598619505e-09 -2.9433932677759926e-09 2.2091412693232763e-09
229 -5.466009674234752e-10 8.194462028785403e-10 -3.979945921755297e-10
180 -3.5635801907176623e-09 -2.405641426302559e-09 -5.190270184920279e-10
190 -2.4035149822004133e-09 -3.249605303415075e-09 2.6907031843180027e-09
210 5.151428307564624e-09 -3.1209222969046102e-09 4.480906168043013e-10
211 -2.6214326854682884e-09 -6.762376863890885e-10 2.4470875659017384e-09
231 -1.441629289305816e-09 2.6944742610005685e-09 1.601538826640502e-09
182 1.756543008992537e-09 -1.9837878800792467e-09 -4.744952290994439e-09
183 3.563582446395336e-09 2.4056415757047914e-09 -5.190264199041518e-10
192 3.955113974013824e-09 2.1668073938694836e-10 -5.967883604632503e-10
213 -5.151430724271868e-09 3.120920436605844e-09 4.4809055897117903e-10
214 -4.343507170612117e-09 -5.480522563602507e-10 1.2134149630555415e-09
215 3.972429862919192e-09 9.191691960708643e-10 1.6114630656863112e-09
216 2.6214306818751132e-09 6.762361682696292e-10 2.4470912968911596e-09
233 -1.680716681030091e-09 -1.241978206295317e-09 -2.577419718956677e-09
235 3.862421824929636e-09 -1.7741594757201205e-09 -9.625232294219739e-10
221 2.7644434422739018e-09 -8.473451149944167e-10 1.0952894539260775e-10
184 4.026667275865488e-09 3.7865292433425633e-10 5.834905009844339e-10
185 5.904611880557663e-10 1.895690413309223e-09 -1.6272134796551726e-09
194 1.0599751519211632e-09 -1.059970556710612e-09 5.174463713792071e-10
217 -3.3885278994512242e-09 -1.7994323868899115e-09 2.2860186835460192e-10
218 8.473453065666341e-10 -2.7644427591201453e-09 1.0953002855879342e-10
220 -2.045121827445341e-09 -2.6382695266601764e-09 1.0922678865476003e-09
237 -1.3608355620595123e-09 3.875054580912569e-09 1.8561705474175963e-09
239 3.673966922599166e-09 -3.6739657864286977e-09 6.39976223005836e-09
187 -1.895693104356693e-09 -5.904635605692428e-10 -1.6272140249710857e-09
189 -2.0716130322863093e-10 9.083967215898291e-10 -3.8959496134259845e-09
196 1.9837884632946103e-09 -1.756543142812819e-09 -4.744947182950165e-09
222 1.7994334796949507e-09 3.3885273346746396e-09 2.286011535733565e-10
228 -2.9433927374290167e-09 2.5363627901142464e-09 2.209143133464876e-09
241 5.480521516705108e-10 4.343505812066752e-09 1.2134153555952702e-09
242 -9.191713334866744e-10 -3.972428318292885e-09 1.6114632955127294e-09
243 8.194446179648369e-10 -5.465973380938392e-10 -3.979999863190372e-10
426 -2.405641611850493e-09 -3.563581277470179e-09 -5.19026066655224e-10
427 -3.2496062984761137e-09 -2.403517120046421e-09 2.69070909772475e-09
451 -3.1209202149122087e-09 5.151425963214673e-09 4.4808887819606335e-10
452 -6.762385653320613e-10 -2.6214342541917297e-09 2.4470914491549268e-09
454 2.6944739832810963e-09 -1.4416267747698545e-09 1.6015380214502915e-09
191 -1.4576336739347649e-09 -4.890221057137386e-09 4.753612472750575e-10
197 -4.8902205705977935e-09 -1.4576326648790332e-09 4.753647286826463e-10
226 1.378822533233838e-09 1.3788207473370333e-09 -1.1102528299739624e-09
232 -4.4166384014656523e-10 1.286982405282594e-09 -1.0306310801061337e-09
244 1.286983865568931e-09 -4.4166462018951e-10 -1.0306299092866223e-09
245 1.2741730039661065e-09 1.2741760917126497e-09 2.6800861946652736e-09
230 5.921975278497472e-10 -4.325421091714404e-09 1.76362137599685e-09
246 -3.228298906445103e-09 9.853222211200605e-10 -3.0871809573975676e-09
453 -4.3254205947110096e-09 5.921956509842015e-10 1.7636199819776322e-09
456 9.853221980277578e-10 -3.2282992255062216e-09 -3.0871813593678888e-09
193 -1.3296883734125414e-09 -1.5723431649330276e-09 5.385033229262949e-09
198 3.634637704574017e-10 -3.010738828765388e-09 3.893330860619619e-09
199 -1.538054570319562e-09 1.538054437182895e-09 -4.713744631589018e-10
234 4.442194724631179e-09 2.3955171464743113e-09 2.7674197624774697e-09
236 1.3826477532533953e-09 6.244799696224776e-10 -1.88483999193701e-09
247 -4.889322876217548e-10 5.470791515584615e-10 2.3687308023272542e-09
248 2.1482483397946085e-09 -2.148248068474908e-09 4.655030783167807e-12
429 1.1736348754574602e-09 -1.1736394306544717e-09 1.9873950129283107e-09
457 -5.470769490815653e-10 4.889330282056014e-10 2.3687303888254894e-09
458 1.5273364878955329e-09 -1.5273396480087824e-09 6.033949918104255e-09
250 1.7741609884177247e-09 -3.862419010384352e-09 -9.6252196358645e-10
249 -2.395519559994195e-09 -4.442195636853244e-09 2.7674197630657788e-09
240 1.4465059245649193e-09 -1.4465080613783011e-09 8.306721656162833e-10
238 -3.875052368583851e-09 1.3608343213583114e-09 1.8561739487280992e-09
224 2.6382682302599436e-09 2.0451222726398965e-09 1.0922659238360135e-09
195 7.763404563665703e-10 -7.763408458365031e-10 3.038330192093348e-09
200 -2.1668108319940068e-10 -3.9551136842176375e-09 -5.967894705280974e-10
430 1.5723429385217571e-09 1.3296896734870574e-09 5.385033076857988e-09
459 1.2419798937395028e-09 1.6807228947985573e-09 -2.577418978139231e-09
460 -6.244800998922046e-10 -1.3826465631864879e-09 -1.884840724988778e-09
251 -3.2346273768750816e-09 3.550880269578345e-09 1.173982260472027e-16
261 3.2346273094031055e-09 -3.550878865920273e-09 -4.518212676608185e-16
262 -1.8136385692605536e-10 -2.1946556152442854e-09 1.5602894443220268e-16
263 6.762376767502348e-10 2.621430709503278e-09 -2.447089899709193e-09
264 9.191724106285765e-10 3.972429682190685e-09 -1.6114664772380963e-09
265 -1.7422816200225563e-09 -5.4284726411034425e-09 -4.741417089304168e-17
268 -1.774160580592553e-09 3.862417634954521e-09 9.625237936173092e-10
311 3.120920099245964e-09 -5.151427209337729e-09 -4.4809189756698806e-10
312 -5.48052744460014e-10 -4.34350352163414e-09 -1.2134150263681733e-09
313 2.405643421545277e-09 3.563581199756921e-09 5.190300649722286e-10
314 -1.98378795002565e-09 1.7565453952924453e-09 4.74494784057602e-09
315 -1.2419781480997963e-09 -1.6807170382236303e-09 2.5774171697216657e-09
318 2.166800787630709e-10 3.955114392941065e-09 5.9678834362879e-10
266 -1.5050945329501613e-09 -3.672497733952346e-09 4.357816126588595e-16
267 6.244796439057097e-10 1.3826479102828831e-09 1.8848394207313854e-09
269 2.4910951127984183e-09 -1.887725613421646e-09 7.277334551123584e-16
272 -2.1482476624381953e-09 2.148246291311255e-09 -4.656430224240842e-12
306 -3.010740217362751e-09 3.634637222631332e-10 -3.893334388440077e-09
316 2.3955167297857744e-09 4.4421937555533936e-09 -2.767420532969219e-09
317 -1.5723409248031826e-09 -1.3296887153659374e-09 -5.385032954555618e-09
319 5.470802467732142e-10 -4.88931447234197e-10 -2.3687284227352447e-09
322 1.5380572716415536e-09 -1.5380594120362662e-09 4.713747396735176e-10
270 1.8877266045416027e-09 -2.4910927127238443e-09 2.0713181239325651e-16
271 -1.5273401807201763e-09 1.5273370602024718e-09 -6.033952199349835e-09
320 4.889290398366476e-10 -5.470777756120944e-10 -2.3687280984781814e-09
321 -1.1736406281702666e-09 1.173636930465012e-09 -1.987396604320472e-09
273 -3.1502941691700347e-09 -3.1502962023657392e-09 -7.229140282573098e-18
274 -5.0896062890858306e-09 -5.089605931331442e-09 -3.4758410096106404e-16
275 -9.853209445084817e-10 3.2283008333022013e-09 3.087178437559589e-09
276 3.228302355347446e-09 -9.853209286100207e-10 3.0871807650723147e-09
305 2.12458424713622e-09 2.124587789942083e-09 -1.463784130098641e-09
323 -2.1245853007081127e-09 -2.124587355591238e-09 -1.4637858409951744e-09
324 -1.2741778050188968e-09 -1.2741770700563014e-09 -2.6800879136192866e-09
325 3.0107426983203915e-09 -3.634666198058655e-10 -3.893333759303082e-09
326 -3.634621839623239e-10 3.0107429794967672e-09 -3.893335486064543e-09
277 1.0934063918021355e-09 -4.907422826561187e-09 -3.8525293422545797e-16
278 2.8779340553396104e-09 -3.7204513624956773e-09 -4.506164109470564e-16
279 -2.6944755791138134e-09 1.4416280633641098e-09 -1.6015364141784952e-09
280 -1.2869838209927624e-09 4.4166151162094836e-10 1.0306327383212032e-09
327 4.325421865307718e-09 -5.92193469289907e-10 -1.7636213015969478e-09
328 -8.194465800739953e-10 5.465968422953014e-10 3.9799820614324264e-10
329 3.249608743572794e-09 2.403516466301052e-09 -2.6907040089135836e-09
330 4.890219320938862e-09 1.4576325763102986e-09 -4.753620092716253e-10
281 -1.428858411170722e-09 -2.063281121199131e-09 4.662807248438492e-16
282 -2.826714876385086e-09 4.7926478687697395e-09 -1.4217309222393757e-16
283 -2.6382695122274873e-09 -2.0451218003360647e-09 -1.0922668582023951e-09
285 -5.902309480103064e-09 -1.711643701336205e-10 -2.0904175737432533e-16
288 -3.6739670663536326e-09 3.6739663639221685e-09 -6.399760482413697e-09
331 -1.799432161581706e-09 -3.388528898578654e-09 -2.2860143069040067e-10
332 -2.764444227840479e-09 8.473452704209327e-10 -1.0953127317577874e-10
333 1.8956924344563602e-09 5.90461035641392e-10 1.627213515467303e-09
334 3.786575003800552e-10 4.0266716019035186e-09 -5.834900985622916e-10
335 3.875052158712872e-09 -1.3608356596529063e-09 -1.8561713329841735e-09
338 -1.0599699332290314e-09 1.059967980532816e-09 -5.174451961497317e-10
55 -8.473429691446094e-10 2.764443777224068e-09 -1.0953089816412658e-10
341 1.3296906622196567e-09 1.5723437749905748e-09 -5.385034880753223e-09
340 1.6807175197298942e-09 1.2419787237253861e-09 2.577419381745051e-09
286 1.7116893422968813e-10 5.90230746653785e-09 -1.0699115852029339e-15
287 -1.446507609835892e-09 1.4465074229107269e-09 -8.306735569449121e-10
289 3.672497845939582e-09 1.505095263046265e-09 2.828407018646147e-16
292 -3.862418038667413e-09 1.7741612399315638e-09 9.625246883699082e-10
336 1.3608343497430412e-09 -3.875052239397091e-09 -1.8561737900199958e-09
337 -7.763420106605582e-10 7.763428487131179e-10 -3.038327893809752e-09
339 -4.442193661133926e-09 -2.395518233825824e-09 -2.767420671889551e-09
342 -3.955111958561609e-09 -2.166820386507747e-10 5.967892732328106e-10
290 5.428475140512216e-09 1.7422794014248185e-09 9.144862457454967e-16
291 -1.3826499753002918e-09 -6.244800408683451e-10 1.884837944118887e-09
7 2.0451228256714814e-09 2.63826959995847e-09 -1.092265348869918e-09
346 2.403511948088375e-09 3.2496073603972867e-09 -2.69070374625482e-09
345 1.457633541617024e-09 4.8902212669648305e-09 -4.753614258268215e-10
344 5.466006347288904e-10 -8.194475714916364e-10 3.9799544063468625e-10
343 -5.921944975380412e-10 4.325420394747153e-09 -1.7636200400078379e-09
296 1.4416282061037436e-09 -2.694473417299655e-09 -1.601539852538342e-09
295 4.416630577992144e-10 -1.2869836689201956e-09 1.0306329575787633e-09
294 -3.7204550023678093e-09 2.8779330432599706e-09 -1.561494301035789e-15
293 -4.907425299531857e-09 1.0934098193841627e-09 -8.849672562583233e-16
350 -9.083975915018964e-10 2.0715815989865888e-10 3.895951439635189e-09
349 2.071577475364486e-10 -9.083956058980321e-10 3.895951474576033e-09
348 -1.4174393367851284e-09 -1.4174405557989087e-09 3.746064464054956e-09
347 -1.3788179865375958e-09 -1.3788185265393142e-09 1.1102498184651982e-09
300 -2.5363654398953744e-09 2.943392744658157e-09 -2.2091371816847956e-09
299 2.9433928362272672e-09 -2.536362036175158e-09 -2.209139314370308e-09
298 -1.2933880681748255e-09 -1.2933881025132417e-09 -1.5006490369907988e-15
297 -2.2470778327837904e-09 -2.247079161063014e-09 -1.377753652187056e-15
284 -1.9462015186062403e-09 8.177173594771217e-10 1.2983720772521174e-10
51 -2.0024038850175535e-09 -2.002404837002611e-09 -6.11852453857202e-10
19 8.177172651970838e-10 -1.9462012502244072e-09 1.2983706141042455e-10
361 7.302714761410447e-10 -2.6934335997500444e-09 6.46923803274869e-09
362 5.100021433772124e-09 -3.073173728949678e-09 -1.6676323302243157e-09
363 2.1344020587411375e-09 6.843081955853041e-10 -6.699003328517736e-16
364 2.331609668196634e-09 -3.0250034370477943e-10 -1.4699251907898632e-16
365 -1.0940547566484539e-09 9.562587208467828e-12 -1.0770544266626753e-09
368 -2.710538521106276e-09 3.924258721822766e-09 -1.5707142787789925e-16
406 7.302728544971253e-10 -2.693428775503763e-09 -6.469238216489338e-09
407 5.100021106051098e-09 -3.073174022934716e-09 1.66763175309795e-09
408 -1.0940510059859815e-09 9.564394698858291e-12 1.0770529447877532e-09
353 -3.0228825036774243e-10 9.965420194343382e-10 -2.1800504436692384e-09
366 1.6237658316861176e-09 -3.5376109404134826e-09 3.4085745289557197e-09
367 3.1675666859727824e-10 -1.0289570452911236e-09 -8.900878972918125e-17
369 -1.0842480048280686e-09 -4.488681532526484e-09 3.920198842434916e-10
372 -1.848878363609904e-09 1.8488822089101058e-09 1.408789302127393e-15
402 -3.0228549365558137e-10 9.965423471553642e-10 2.1800517181064276e-09
409 1.6237660898266685e-09 -3.537611642543732e-09 -3.4085731710822035e-09
410 -1.0842498482588407e-09 -4.488677385409675e-09 -3.920195685710326e-10
370 4.488681785847608e-09 1.0842457421071602e-09 3.9202409220556443e-10
371 -5.941472778891534e-10 5.94149169514194e-10 -1.5205291727678747e-15
411 4.48867672906398e-09 1.084249935008524e-09 -3.920224686611426e-10
373 -2.320555568103131e-09 -2.3205534089998997e-09 -1.6569589467795105e-09
374 1.7981285075210578e-09 1.7981288873521368e-09 -5.9513095182683e-10
375 9.946894650540147e-09 2.0199901592066247e-09 1.9807773777177215e-17
376 2.019992558949052e-09 9.94689165718895e-09 -1.2952721501723238e-15
412 -2.3205537728666274e-09 -2.3205549174805057e-09 1.656959293778244e-09
413 1.7981280983960082e-09 1.7981286030059523e-09 5.951310819513551e-10
377 3.0228819012490675e-10 -9.965422016689161e-10 -2.1800523768618356e-09
378 9.759534116440043e-10 -3.629124233563644e-09 1.3442102171725682e-09
379 4.601547839447102e-09 -6.979710219164559e-10 -7.927957176555163e-16
380 3.178705581472087e-09 4.585581559616583e-09 3.630383885654677e-16
414 3.0228814795492175e-10 -9.965428428032948e-10 2.1800522494482383e-09
415 9.759514639931265e-10 -3.6291181559651656e-09 -1.344206861044192e-09
381 1.3298583423232412e-09 5.755524495183309e-10 1.1257875870896838e-09
382 6.691613267572473e-10 -1.4088913064263333e-11 -2.0620333157111286e-09
383 2.4327625629716985e-09 1.960423157782449e-09 -3.297353959616349e-16
384 3.76080415246024e-09 3.860106315031562e-09 -2.2482626278802332e-15
385 2.7556854899934305e-09 -2.6051678109344932e-09 -1.6782954236250673e-09
388 1.2104518849485245e-09 -1.2104504138990753e-09 -1.1446021118952284e-16
416 1.3298542988241099e-09 5.755523555395072e-10 -1.1257857454661968e-09
417 6.691662377532126e-10 -1.4088999663339636e-11 2.062034560779935e-09
418 2.7556823799523316e-09 -2.6051697967559754e-09 1.6782924856555094e-09
421 -9.560346744757441e-12 1.0940497871698731e-09 1.0770552819420973e-09
386 2.6051680695608034e-09 -2.755689767272416e-09 -1.6782930650833398e-09
387 -4.046823067745898e-09 4.046822745183459e-09 -1.7404155230294732e-15
389 3.5376066406910987e-09 -1.6237625880541773e-09 3.4085746527275786e-09
392 -3.9242600397065705e-09 2.7105384191735155e-09 -2.041027273113138e-15
419 2.6051675055684348e-09 -2.755682080813707e-09 1.6782969477341e-09
420 3.5376112098701558e-09 -1.6237674718773292e-09 -3.4085731604755812e-09
390 -9.560872672655169e-12 1.094054153194086e-09 -1.0770569669342115e-09
391 1.028956578549753e-09 -3.1676115797811017e-10 7.020178829369391e-16
423 -3.629125490394217e-09 9.759512010331487e-10 -1.3442058447475538e-09
422 -9.965421577336412e-10 3.0229079053514807e-10 2.1800527541272993e-09
396 -6.979700405418366e-10 4.601546533382424e-09 -5.855603628884208e-16
395 4.585581476180256e-09 3.1787057615546308e-09 -1.2496729123661748e-15
394 -3.6291238709017733e-09 9.759502305210658e-10 1.3442092653357642e-09
393 -9.96542043013379e-10 3.022895286924769e-10 -2.1800507102214307e-09
425 4.981182055717312e-10 4.981159235731154e-10 9.699624760993168e-10
424 6.361367685577892e-10 6.361316826316898e-10 -4.390729446241348e-09
400 5.376023522812217e-09 7.115898259159142e-09 -1.4042604998898241e-15
399 7.115902113495769e-09 5.376019652812453e-09 8.193025653582843e-16
398 4.981192116270872e-10 4.981171639731022e-10 -9.699611756071015e-10
397 6.361325956871682e-10 6.361365515329737e-10 4.390729232379281e-09
431 2.4056414455802665e-09 3.5635811395140855e-09 -5.190269049342827e-10
432 -1.983790264555397e-09 1.7565456627706357e-09 -4.744948095102001e-09
434 2.1668048166056693e-10 3.955114671367097e-09 -5.967879617856943e-10
461 3.1209161714130773e-09 -5.151430660047358e-09 4.480888318090799e-10
462 -5.480497564153639e-10 -4.343503572238122e-09 1.2134163303243517e-09
463 6.762382309843231e-10 2.621434901802213e-09 2.4470924323180053e-09
464 9.191721323066757e-10 3.972429265310262e-09 1.6114646344097525e-09
465 -1.2419781431768271e-09 -1.6807171951856327e-09 -2.5774180691183755e-09
468 -1.774160348911785e-09 3.8624168840040415e-09 -9.625266636177701e-10
428 -3.0107421264582137e-09 3.634625680104014e-10 3.893331142556089e-09
433 -1.572339727175609e-09 -1.329688982844128e-09 5.38503205573251e-09
436 1.5380574911934503e-09 -1.5380589680465672e-09 -4.713761339939496e-10
466 2.3955161704310448e-09 4.442194656786215e-09 2.7674208161105466e-09
467 6.244790829931383e-10 1.3826477801583582e-09 -1.8848400659321557e-09
469 5.470796419351439e-10 -4.889304206962768e-10 2.368730558946198e-09
472 -2.148246100943894e-09 2.1482458431045573e-09 4.654172322759252e-12
435 -1.1736389992039894e-09 1.1736366858790991e-09 1.9873961970789027e-09
470 4.889282420141242e-10 -5.470776930794095e-10 2.3687308023272542e-09
471 -1.527340590131429e-09 1.5273369240536633e-09 6.033949528182501e-09
437 3.0107426168137172e-09 -3.6346091443574965e-10 3.8933360105416155e-09
438 -3.634604739694329e-10 3.010738372124694e-09 3.893335953548947e-09
455 2.1245892574575607e-09 2.124588785153729e-09 1.463787139830712e-09
473 -2.1245865055648263e-09 -2.1245868115984315e-09 1.4637850216926091e-09
474 -1.2741782857096607e-09 -1.2741782918410446e-09 2.6800850426587055e-09
475 -9.853190926437126e-10 3.2283004573869063e-09 -3.0871777778997555e-09
476 3.2283006730662597e-09 -9.853208755963254e-10 -3.087180611754298e-09
439 3.249608066443321e-09 2.403515446992272e-09 2.690708629539081e-09
440 4.890222174641988e-09 1.457632681735261e-09 4.753581206443082e-10
477 4.325417516904534e-09 -5.922009553658838e-10 1.7636198705283862e-09
478 -8.194411805086325e-10 5.465971811612522e-10 -3.979992170180255e-10
479 -2.6944721790081673e-09 1.441626458494967e-09 1.601537318724673e-09
480 -1.2869843523345733e-09 4.4166234417693756e-10 -1.0306295466557686e-09
441 1.8956933356891822e-09 5.904611350420709e-10 -1.627213542576579e-09
442 3.78654988253807e-10 4.026670124146759e-09 5.834917202994282e-10
444 -1.05997227087932e-09 1.0599753143138454e-09 5.17445288482467e-10
481 -1.7994323302616458e-09 -3.388526570795483e-09 2.2860255843628474e-10
482 -2.7644432428701157e-09 8.473445499166179e-10 1.0952963939007487e-10
483 -2.6382694423457976e-09 -2.04512175455151e-09 1.09226573361926e-09
485 3.875052839682826e-09 -1.360836094907394e-09 1.8561705880815102e-09
488 -3.673966888034839e-09 3.673963275573197e-09 6.399763315333045e-09
205 -8.473454222328787e-10 2.7644441877789935e-09 1.0952842007508055e-10
491 -1.3826460053237468e-09 -6.244811636606679e-10 -1.88483875614904e-09
490 1.6807189373854967e-09 1.2419803732724749e-09 -2.5774178576224872e-09
443 -7.763403258008135e-10 7.763421151965859e-10 3.038330799996787e-09
446 -3.955116769274271e-09 -2.1668058013524754e-10 -5.967876966848603e-10
486 1.3608357137820353e-09 -3.875052157819231e-09 1.8561702806812633e-09
487 -1.4465065844287015e-09 1.4465077605200496e-09 8.306734784844259e-10
489 -4.442194499172366e-09 -2.3955185060622574e-09 2.7674200964175097e-09
492 -3.862420422825877e-09 1.77416186826434e-09 -9.62522537700674e-10
445 1.3296893473679965e-09 1.5723430123139217e-09 5.385031972437377e-09
207 2.0451245234699047e-09 2.638269931670584e-09 1.0922659567207185e-09
496 1.4416281380428703e-09 -2.69447347626233e-09 1.6015379524793045e-09
495 4.416640665913836e-10 -1.2869792601223928e-09 -1.0306322619982073e-09
494 5.465997975229022e-10 -8.194486453587023e-10 -3.979932160926749e-10
493 -5.92195562842579e-10 4.325421031424504e-09 1.7636213826041477e-09
448 2.4035163424675697e-09 3.2496082003789113e-09 2.6907028765683e-09
447 1.4576324176786753e-09 4.890222789055375e-09 4.753597987839314e-10
500 -2.5363669772925413e-09 2.9433918880050336e-09 2.209141268949112e-09
499 2.9433933229893795e-09 -2.5363629795779648e-09 2.209142664173186e-09
498 -1.4174380117439575e-09 -1.4174385418809117e-09 -3.746070894676452e-09
497 -1.378823348978311e-09 -1.378817793685218e-09 -1.1102482030535594e-09
450 -9.083978150028168e-10 2.0716063196342134e-10 -3.895949532822806e-09
449 2.0716139102315102e-10 -9.083999072365002e-10 -3.8959562012289214e-09
484 -1.9462011194974536e-09 8.177166895767888e-10 -1.2983679566421562e-10
201 -2.0024051453565067e-09 -2.0024060285164783e-09 6.118506351871768e-10
219 8.177170371779508e-10 -1.946200618578275e-09 -1.2983532573902484e-10
