LAMMPS data file via write_data, version 29 Aug 2024, timestep = 30, units = metal

500 atoms
3 atom types

0 17.68045744068905 xlo xhi
0 17.68045744068905 ylo yhi
0 17.68045744068905 zlo zhi

Masses

1 54.7531
2 55.845
3 55.845

Atoms # atomic

1 2 0.002254535284905378 0.002254535284904886 8.810472832168522e-19 0 0 0
2 3 1.7657912087840006 1.765791208784 5.799469296337488e-19 0 0 0
3 1 1.7646446636881963 0.0034010803807071194 1.7609546731504273 0 0 0
4 1 0.0034010803807093004 1.7646446636881972 1.7609546731504273 0 0 0
5 1 3.531333369372892 0.0033563448074457646 0 0 0 0
8 1 3.5338938490749645 1.7687259633721808 1.7656495067199263 0 0 0
21 1 0.003356344807445915 3.531333369372893 4.3041313989233566e-19 0 0 0
23 1 1.7687259633721808 3.5338938490749645 1.765649506719927 0 0 0
25 1 3.5302100598759876 3.5302100598759876 0 0 0 0
52 1 1.7685800993942693 1.7685800993942693 3.53494453139784 0 0 0
53 1 1.7677367926889425 0.0003089513799634445 5.303790673995272 0 0 0
54 1 0.00030895137996259667 1.7677367926889416 5.303790673995273 0 0 0
58 1 3.5357214411087914 1.7676915165645666 5.3036502066271956 0 0 0
73 1 1.7676915165645661 3.535721441108792 5.3036502066271956 0 0 0
75 1 3.537083800802698 3.5370838008026984 3.5372561764286425 0 0 0
6 1 5.302290595891512 1.7678284722023874 0 0 0 0
9 1 7.072148116041817 0.0003111779259602661 0 0 0 0
12 1 7.071922481550416 1.768047168652128 1.7677435663789098 0 0 0
27 1 5.304661106041161 3.536678044291682 1.7683206480774762 0 0 0
29 1 7.072045935601679 3.535678136465691 0 0 0 0
56 1 5.301050043270613 1.7677074731289995 3.5332252690042734 0 0 0
57 1 5.303124341002634 0.00033668180703694695 5.302896984022328 0 0 0
59 1 7.0719394888997 0.0003339882609844641 3.535897636862558 0 0 0
62 1 7.071144516425214 1.767889313175894 5.30312007068946 0 0 0
77 1 5.304144262762325 3.535674585907586 5.303928485968707 0 0 0
79 1 7.071702436885656 3.5356428210990476 3.5359488127043313 0 0 0
11 1 8.840113135823465 2.4036872766926612e-05 1.7680069432954695 0 0 0
31 1 8.840116652568057 3.5360135695773596 1.7680401431224835 0 0 0
61 1 8.840094695258518 0.00014565974085332167 5.303903223109904 0 0 0
81 1 8.840096696539671 3.5358196656663967 5.303922074231964 0 0 0
10 1 8.840341933410159 1.7680375576990268 0 0 0 0
13 1 10.608161251347797 8.186369878836035e-06 0 0 0 0
14 1 12.37635506871614 1.7677345661429449 0 0 0 0
16 1 10.60839004893449 1.768021707196139 1.7680069432954697 0 0 0
33 1 10.608272871297638 3.5359187346493433 0 0 0 0
35 1 12.376695066576316 3.5360258863099827 1.7676800758472766 0 0 0
60 1 8.840232989160592 1.768058327080671 3.53587478439569 0 0 0
64 1 12.376563695858255 1.7677117558079198 3.5358976368625585 0 0 0
65 1 12.377358668332743 0.0001564308930101621 5.3031200706894595 0 0 0
66 1 10.608408489499437 1.7679000843280526 5.303903223109904 0 0 0
83 1 10.60850867775874 3.535978789209807 3.5359023996700425 0 0 0
85 1 12.3764470725131 3.53584928437473 5.304036172281105 0 0 0
71 1 17.679891443296984 3.533665997002124 3.533792173730209 -1 0 0
17 1 14.146212588866444 0.00021727186651699187 4.854691189776282e-16 0 0 0
18 1 15.917169815385062 1.7646893992614596 3.3534640862485764e-16 0 0 0
20 1 14.143729082588843 1.7686002192992378 1.7683424742865022 0 0 0
37 1 14.147411557796762 3.5328795652199636 1.610628259425526e-16 0 0 0
39 1 15.911178617548199 3.537324567209755 1.7690886653030125 0 0 0
67 1 14.147453141487343 0.00033827093990545766 3.5332252690042725 0 0 0
68 1 15.91483718775583 1.7686117414609732 3.533792173730209 0 0 0
69 1 15.912781743649163 0.0003542275043399069 5.303650206627196 0 0 0
70 1 14.145378843755323 1.7677090622618683 5.302896984022328 0 0 0
87 1 14.144296003658816 3.5361028041295515 3.5363773817229323 0 0 0
89 1 15.912829501700237 3.5356736830577167 5.3035502375889445 0 0 0
22 1 1.7678284722023871 5.302290595891512 0 0 0 0
28 1 3.536678044291681 5.30466110604116 1.7683206480774767 0 0 0
41 1 0.00031117792595937904 7.0721481160418165 7.963254470309194e-19 0 0 0
42 1 1.7680471686521286 7.071922481550417 1.76774356637891 0 0 0
43 1 3.535678136465691 7.07204593560168 0 0 0 0
72 1 1.7677074731289988 5.301050043270612 3.5332252690042725 0 0 0
74 1 0.00033668180703602674 5.303124341002634 5.302896984022327 0 0 0
78 1 3.5356745859075858 5.304144262762325 5.303928485968708 0 0 0
91 1 0.0003339882609837744 7.0719394888997 3.535897636862558 0 0 0
92 1 1.7678893131758937 7.071144516425214 5.3031200706894595 0 0 0
93 1 3.5356428210990467 7.071702436885657 3.535948812704331 0 0 0
252 1 2.4036872766660935e-05 8.840113135823465 1.7680069432954697 0 0 0
254 1 3.53601356957736 8.840116652568057 1.7680401431224837 0 0 0
302 1 0.00014565974085318503 8.840094695258516 5.303903223109904 0 0 0
304 1 3.5358196656663963 8.840096696539671 5.303922074231963 0 0 0
26 1 5.300407931121435 5.300407931121435 0 0 0 0
32 1 7.071807853181996 5.304002403686734 1.7675791084286132 0 0 0
44 1 5.304002403686734 7.071807853181996 1.7675791084286128 0 0 0
45 1 7.0709909822785155 7.070990982278516 6.080196983280224e-19 0 0 0
76 1 5.304578951947462 5.3045789519474615 3.5364198464533896 0 0 0
82 1 7.072228586682604 5.304005320680681 5.304144465415932 0 0 0
94 1 5.304005320680682 7.072228586682604 5.304144465415932 0 0 0
95 1 7.072228018159232 7.072228018159232 3.535906988690379 0 0 0
46 1 8.840103292014712 7.071996978389853 1.767763204867675 0 0 0
80 1 8.840002704649208 5.303908419278648 3.535860586268562 0 0 0
256 1 7.071996978389853 8.840103292014712 1.7677632048676757 0 0 0
303 1 5.303908419278649 8.840002704649208 3.5358605862685626 0 0 0
255 1 8.839931495010672 8.839931495010672 3.430426399320973e-16 0 0 0
305 1 8.84022634655529 8.84022634655529 3.535844367639063 0 0 0
30 1 8.84023771089615 5.303872885562209 4.603698651135385e-19 0 0 0
34 1 12.37724506010043 5.303056323968471 6.38833642434613e-19 0 0 0
36 1 10.608415195453798 5.303952588340977 1.7679097371972372 0 0 0
47 1 10.608588542986684 7.071754923042598 1.468814273115651e-16 0 0 0
48 1 12.376592997086407 7.071910187671548 1.7677505473425632 0 0 0
84 1 12.376539991512248 5.304031813584799 3.535874371742462 0 0 0
86 1 10.608292846860836 5.303949202638877 5.303976028328716 0 0 0
96 1 8.840237401882765 7.072101008706766 5.3040220798012685 0 0 0
97 1 10.608294066283076 7.072058190320442 3.535851881387706 0 0 0
98 1 12.37639596827513 7.072107216482826 5.3040267002658 0 0 0
257 1 12.376748261715358 8.839914641771271 1.7391214605571688e-16 0 0 0
258 1 10.60835552938199 8.840147655375965 1.7677637787288512 0 0 0
307 1 12.376444994437515 8.840209118474878 3.535851881387706 0 0 0
308 1 10.608308078290252 8.840195106467704 5.303995498579815 0 0 0
100 1 15.912653900383226 7.072056112244854 5.304036172281105 0 0 0
99 1 14.144471371173157 7.071963193245707 3.535874371742462 0 0 0
90 1 14.14444030021356 5.304062884544393 5.304185631276054 0 0 0
88 1 15.912400380628403 5.304207181099137 3.5363773817229327 0 0 0
50 1 15.912477298447971 7.071808118181639 1.7676800758472773 0 0 0
49 1 14.145446860789486 7.071258124657526 9.436685815679262e-19 0 0 0
24 1 17.67990296545872 5.304774102169113 1.7683424742865022 -1 0 0
38 1 15.91562361953799 5.301091626961194 3.6377246908514166e-19 0 0 0
40 1 14.144706586961787 5.303796597796168 1.7673489657342156 0 0 0
260 1 14.144550596416979 8.840087989304157 1.7679097371972374 0 0 0
309 1 15.912524395548147 8.839994506999215 3.535902399670043 0 0 0
310 1 14.144553982119078 8.840210337897119 5.303976028328716 0 0 0
101 1 2.400991113284724e-05 2.40099111336585e-05 7.072163184422572 0 0 0
102 1 1.7680217341577715 1.7680217341577718 7.072163184422572 0 0 0
103 1 1.768021714515107 2.4029553797471524e-05 8.840228720344525 0 0 0
104 1 2.402955379747855e-05 1.7680217145151074 8.840228720344525 0 0 0
105 1 3.5358930656377106 3.0476807368389813e-05 7.072045617310206 0 0 0
108 1 3.535994186435904 1.7680530194656614 8.840228720344525 0 0 0
121 1 3.0476807368150533e-05 3.5358930656377106 7.072045617310207 0 0 0
123 1 1.768053019465661 3.535994186435904 8.840228720344525 0 0 0
125 1 3.535926623012871 3.535926623012871 7.071799413266676 0 0 0
151 1 2.400991113329075e-05 2.4009911132574438e-05 10.608294256266477 0 0 0
152 1 1.768021734157772 1.7680217341577709 10.608294256266477 0 0 0
153 1 3.5358930656377097 3.047680736852204e-05 10.608411823378843 0 0 0
161 1 3.0476807367200026e-05 3.5358930656377097 10.608411823378844 0 0 0
163 1 3.5359266230128714 3.5359266230128705 10.608658027422374 0 0 0
106 1 5.303832225728893 1.7678864543960051 7.072017545178534 0 0 0
109 1 7.071723604626805 0.00014812450181413714 7.0717219714290485 0 0 0
112 1 7.071956105610575 1.7678901847182318 8.840228720344525 0 0 0
127 1 5.303935124984606 3.535960022726393 8.840228720344525 0 0 0
129 1 7.072051344145989 3.535807542248913 7.072051434140081 0 0 0
154 1 5.303832225728892 1.7678864543960053 10.608439895510518 0 0 0
155 1 7.071723604626805 0.00014812450181433848 10.60873546926 0 0 0
165 1 7.072051344145988 3.535807542248913 10.608406006548968 0 0 0
110 1 8.839922235166155 1.7678944327914983 7.071815265173038 0 0 0
111 1 8.840129030836644 0.0001485269861764745 8.840228720344525 0 0 0
131 1 8.840159918241223 3.5357975504163193 8.840228720344525 0 0 0
156 1 8.839922235166155 1.7678944327914985 10.608642175516012 0 0 0
113 1 10.6085809495918 0.00015131127740667662 7.071815265173038 0 0 0
114 1 12.37677958013115 1.767897619567091 7.071721971429049 0 0 0
115 1 12.37654707914738 0.00015555935067299782 8.840228720344525 0 0 0
116 1 10.60837415392131 1.7678972170827285 8.840228720344525 0 0 0
133 1 10.608302281923981 3.5358095421733933 7.072100756718746 0 0 0
135 1 12.376540757121013 3.5358080888726646 8.840228720344525 0 0 0
157 1 10.6085809495918 0.00015131127740709505 10.608642175516012 0 0 0
158 1 12.37677958013115 1.767897619567091 10.60873546926 0 0 0
167 1 10.608302281923981 3.535809542173393 10.608356683970305 0 0 0
117 1 14.144670959029062 0.00015928967289888756 7.072017545178534 0 0 0
118 1 15.912610119120245 1.7680152672615361 7.072045617310207 0 0 0
120 1 14.144582828745172 1.7680495230487918 8.840228720344525 0 0 0
137 1 14.144645041330344 3.53579840404285 7.071785945754378 0 0 0
139 1 15.912488480902399 3.5360147038555567 8.840228720344525 0 0 0
159 1 14.144670959029062 0.0001592896728982923 10.608439895510516 0 0 0
160 1 15.912610119120245 1.7680152672615368 10.608411823378844 0 0 0
169 1 14.144645041330344 3.535798404042851 10.60867149493467 0 0 0
122 1 1.7678864543960051 5.303832225728893 7.072017545178534 0 0 0
128 1 3.535960022726393 5.303935124984605 8.840228720344525 0 0 0
141 1 0.00014812450181494593 7.071723604626805 7.0717219714290485 0 0 0
142 1 1.767890184718231 7.071956105610575 8.840228720344525 0 0 0
143 1 3.535807542248913 7.072051344145988 7.07205143414008 0 0 0
162 1 1.7678864543960056 5.303832225728893 10.608439895510518 0 0 0
171 1 0.00014812450181432587 7.071723604626805 10.60873546926 0 0 0
172 1 3.5358075422489126 7.07205134414599 10.608406006548968 0 0 0
351 1 1.7678944327914983 8.839922235166155 7.071815265173037 0 0 0
352 1 0.00014852698617640788 8.840129030836644 8.840228720344525 0 0 0
354 1 3.535797550416318 8.840159918241225 8.840228720344525 0 0 0
401 1 1.7678944327914992 8.839922235166155 10.608642175516012 0 0 0
126 1 5.303950421591409 5.303950421591409 7.071958923850428 0 0 0
132 1 7.072042878400862 5.303927673309329 8.840228720344527 0 0 0
144 1 5.30392767330933 7.072042878400863 8.840228720344525 0 0 0
145 1 7.072101791983703 7.072101791983703 7.072168327404291 0 0 0
164 1 5.30395042159141 5.303950421591409 10.608498516838624 0 0 0
173 1 7.072101791983702 7.072101791983703 10.60828911328476 0 0 0
146 1 8.840209802704182 7.072064322207897 8.840228720344525 0 0 0
356 1 7.072064322207896 8.840209802704182 8.840228720344525 0 0 0
355 1 8.840203052881536 8.840203052881535 7.072130384885545 0 0 0
403 1 8.840203052881535 8.840203052881535 10.608327055803507 0 0 0
130 1 8.840232442922673 5.303925323261911 7.072159766298002 0 0 0
134 1 12.376410186900081 5.3039345512102765 7.072168378369481 0 0 0
136 1 10.608323045821722 5.303907329135341 8.840228720344525 0 0 0
147 1 10.608317611163084 7.072065729871219 7.07213464461562 0 0 0
148 1 12.376446302710946 7.072056882047009 8.840228720344525 0 0 0
166 1 8.840232442922673 5.303925323261912 10.608297674391048 0 0 0
168 1 12.376410186900081 5.3039345512102765 10.608289062319567 0 0 0
174 1 10.608317611163084 7.072065729871218 10.60832279607343 0 0 0
357 1 12.376437454886737 8.840185573594873 7.07213464461562 0 0 0
358 1 10.60831784735974 8.840185337398216 8.840228720344525 0 0 0
404 1 12.376437454886737 8.840185573594871 10.60832279607343 0 0 0
175 1 14.14456863354768 7.072092997857874 10.608289062319567 0 0 0
170 1 15.912704780715107 5.303858143427612 10.60867149493467 0 0 0
124 1 17.680453661709166 5.303920356012782 8.840228720344525 -1 0 0
138 1 15.912704780715107 5.303858143427612 7.071785945754378 0 0 0
140 1 14.144627866694702 5.3038753180632545 8.840228720344525 0 0 0
149 1 14.144568633547678 7.072092997857874 7.072168378369482 0 0 0
150 1 15.91269509588529 7.071962427636943 8.840228720344525 0 0 0
359 1 15.912693642584562 8.840200902833974 7.072100756718746 0 0 0
360 1 14.144595855622615 8.840180138936233 8.840228720344525 0 0 0
405 1 15.912693642584562 8.840200902833974 10.608356683970305 0 0 0
176 1 1.7677367926889416 0.00030895137996287515 12.376666766693777 0 0 0
177 1 0.00030895137996185816 1.7677367926889425 12.376666766693779 0 0 0
179 1 3.535721441108792 1.7676915165645664 12.376807234061854 0 0 0
186 1 1.7676915165645661 3.5357214411087914 12.376807234061856 0 0 0
202 1 1.7685800993942686 1.7685800993942697 14.14551290929121 0 0 0
203 1 1.7646446636881965 0.0034010803807086533 15.919502767538622 0 0 0
204 1 0.003401080380708661 1.7646446636881967 15.919502767538622 0 0 0
208 1 3.533893849074964 1.7687259633721808 15.914807933969124 0 0 0
223 1 1.7687259633721804 3.5338938490749645 15.914807933969124 0 0 0
225 1 3.537083800802697 3.5370838008026984 14.143201264260409 0 0 0
178 1 5.303124341002634 0.0003366818070364559 12.377560456666723 0 0 0
181 1 7.071144516425213 1.767889313175894 12.37733736999959 0 0 0
188 1 5.304144262762325 3.5356745859075853 12.376528954720342 0 0 0
206 1 5.301050043270613 1.7677074731289988 14.147232171684776 0 0 0
209 1 7.0719394888997 0.00033398826098524656 14.144559803826493 0 0 0
212 1 7.071922481550417 1.7680471686521284 15.912713874310139 0 0 0
227 1 5.30466110604116 3.5366780442916816 15.912136792611573 0 0 0
229 1 7.071702436885657 3.5356428210990467 14.144508627984719 0 0 0
180 1 8.840094695258516 0.00014565974085302917 12.376554217579146 0 0 0
190 1 8.840096696539671 3.5358196656663963 12.37653536645709 0 0 0
211 1 8.840113135823465 2.4036872767189274e-05 15.91245049739358 0 0 0
231 1 8.840116652568057 3.5360135695773596 15.912417297566567 0 0 0
182 1 12.377358668332743 0.00015643089301056547 12.37733736999959 0 0 0
183 1 10.608408489499439 1.7679000843280528 12.376554217579146 0 0 0
192 1 12.3764470725131 3.535849284374729 12.376421268407947 0 0 0
210 1 8.840232989160592 1.7680583270806707 14.14458265629336 0 0 0
214 1 12.376563695858255 1.7677117558079203 14.144559803826493 0 0 0
216 1 10.60839004893449 1.7680217071961388 15.912450497393579 0 0 0
233 1 10.608508677758742 3.535978789209807 14.144555041019007 0 0 0
235 1 12.376695066576318 3.5360258863099823 15.912777364841773 0 0 0
221 1 17.679891443296984 3.5336659970021236 14.146665266958841 -1 0 0
184 1 15.912781743649164 0.00035422750433946275 12.376807234061856 0 0 0
185 1 14.145378843755323 1.7677090622618683 12.377560456666723 0 0 0
194 1 15.912829501700239 3.5356736830577162 12.376907203100105 0 0 0
217 1 14.147453141487343 0.0003382709399063177 14.147232171684776 0 0 0
218 1 15.914837187755833 1.7686117414609723 14.146665266958841 0 0 0
220 1 14.143729082588843 1.768600219299238 15.912114966402548 0 0 0
237 1 14.144296003658818 3.5361028041295524 14.144080058966118 0 0 0
239 1 15.911178617548199 3.537324567209755 15.911368775386038 0 0 0
187 1 0.00033668180703609656 5.303124341002634 12.377560456666723 0 0 0
189 1 3.535674585907585 5.304144262762325 12.376528954720342 0 0 0
196 1 1.7678893131758942 7.071144516425213 12.37733736999959 0 0 0
222 1 1.7677074731289986 5.301050043270612 14.147232171684776 0 0 0
228 1 3.536678044291682 5.304661106041161 15.912136792611573 0 0 0
241 1 0.0003339882609842756 7.0719394888997 14.144559803826493 0 0 0
242 1 1.7680471686521282 7.071922481550416 15.912713874310139 0 0 0
243 1 3.5356428210990463 7.071702436885657 14.14450862798472 0 0 0
426 1 0.0001456597408514217 8.840094695258518 12.376554217579146 0 0 0
427 1 3.5358196656663954 8.840096696539671 12.37653536645709 0 0 0
452 1 2.4036872765963333e-05 8.840113135823465 15.91245049739358 0 0 0
454 1 3.5360135695773605 8.840116652568058 15.912417297566567 0 0 0
191 1 7.072228586682604 5.304005320680681 12.37631297527312 0 0 0
197 1 5.304005320680681 7.072228586682604 12.376312975273118 0 0 0
226 1 5.304578951947463 5.3045789519474615 14.14403759423566 0 0 0
232 1 7.071807853181996 5.304002403686735 15.912878332260437 0 0 0
244 1 5.304002403686735 7.071807853181996 15.912878332260437 0 0 0
245 1 7.072228018159231 7.072228018159231 14.144550451998672 0 0 0
230 1 8.840002704649208 5.303908419278649 14.144596854420488 0 0 0
246 1 8.840103292014712 7.071996978389853 15.912694235821377 0 0 0
453 1 5.303908419278648 8.84000270464921 14.144596854420488 0 0 0
456 1 7.071996978389853 8.840103292014712 15.912694235821375 0 0 0
455 1 8.84022634655529 8.840226346555292 14.144613073049987 0 0 0
193 1 10.608292846860836 5.3039492026388775 12.376481412360336 0 0 0
198 1 8.840237401882767 7.072101008706765 12.37643536088778 0 0 0
199 1 12.37639596827513 7.072107216482827 12.376430740423249 0 0 0
234 1 12.376539991512248 5.304031813584799 14.144583068946588 0 0 0
236 1 10.608415195453798 5.303952588340977 15.912547703491814 0 0 0
247 1 10.608294066283076 7.072058190320441 14.144605559301345 0 0 0
248 1 12.376592997086409 7.0719101876715476 15.912706893346488 0 0 0
429 1 10.60830807829025 8.840195106467704 12.376461942109236 0 0 0
457 1 12.376444994437515 8.840209118474878 14.144605559301345 0 0 0
458 1 10.60835552938199 8.840147655375965 15.9126936619602 0 0 0
250 1 15.912477298447973 7.071808118181639 15.912777364841773 0 0 0
249 1 14.144471371173156 7.071963193245707 14.144583068946588 0 0 0
240 1 14.144706586961787 5.303796597796169 15.913108474954836 0 0 0
238 1 15.912400380628403 5.304207181099137 14.144080058966118 0 0 0
200 1 15.912653900383228 7.072056112244854 12.376421268407947 0 0 0
195 1 14.14444030021356 5.304062884544394 12.376271809412998 0 0 0
224 1 17.67990296545872 5.304774102169112 15.912114966402548 -1 0 0
430 1 14.144553982119076 8.840210337897119 12.376481412360334 0 0 0
459 1 15.912524395548148 8.839994506999215 14.144555041019007 0 0 0
460 1 14.144550596416979 8.840087989304157 15.912547703491814 0 0 0
251 1 1.7680375576990273 8.840341933410157 0 0 0 0
261 1 8.1863698785035e-06 10.608161251347797 0 0 0 0
262 1 1.7677345661429447 12.376355068716139 0 0 0 0
263 1 1.7680217071961384 10.60839004893449 1.7680069432954697 0 0 0
265 1 3.535918734649344 10.608272871297638 7.529173036610957e-19 0 0 0
268 1 3.5360258863099827 12.376695066576316 1.7676800758472775 0 0 0
301 1 1.7680583270806707 8.84023298916059 3.5358747843956904 0 0 0
312 1 1.7677117558079203 12.376563695858255 3.535897636862558 0 0 0
313 1 1.7679000843280526 10.608408489499439 5.303903223109904 0 0 0
314 1 0.0001564308930115378 12.377358668332743 5.3031200706894595 0 0 0
315 1 3.535978789209808 10.608508677758742 3.535902399670043 0 0 0
318 1 3.535849284374729 12.3764470725131 5.304036172281105 0 0 0
253 1 5.303872885562209 8.840237710896147 4.95810262211133e-18 0 0 0
266 1 5.303056323968471 12.37724506010043 0 0 0 0
267 1 5.303952588340977 10.608415195453798 1.7679097371972377 0 0 0
269 1 7.071754923042598 10.608588542986684 0 0 0 0
272 1 7.071910187671547 12.376592997086409 1.7677505473425625 0 0 0
306 1 7.072101008706764 8.840237401882765 5.3040220798012685 0 0 0
316 1 5.304031813584798 12.376539991512248 3.535874371742462 0 0 0
317 1 5.303949202638877 10.608292846860836 5.303976028328716 0 0 0
319 1 7.072058190320441 10.608294066283076 3.5358518813877065 0 0 0
322 1 7.072107216482826 12.37639596827513 5.3040267002658 0 0 0
270 1 8.839914641771271 12.376748261715358 6.871467630110264e-19 0 0 0
271 1 8.840147655375965 10.60835552938199 1.7677637787288503 0 0 0
320 1 8.84020911847488 12.376444994437517 3.535851881387707 0 0 0
321 1 8.840195106467704 10.608308078290252 5.303995498579814 0 0 0
273 1 10.608571689747281 10.608571689747283 2.2141579535979406e-16 0 0 0
274 1 12.37751220247944 12.37751220247944 0 0 0 0
275 1 12.376506206368102 10.608399892743243 1.7677632048676748 0 0 0
276 1 10.608399892743243 12.3765062063681 1.7677632048676752 0 0 0
323 1 10.608276838202665 10.608276838202665 3.535844367639063 0 0 0
324 1 12.376275166598722 12.376275166598722 3.535906988690379 0 0 0
325 1 12.37640217605119 10.60826578287519 5.3040220798012685 0 0 0
326 1 10.608265782875188 12.37640217605119 5.304022079801268 0 0 0
264 1 17.680456016105826 12.376580703207539 1.7677435663789107 -1 0 0
311 1 17.680444857677283 10.608270195597365 3.535874784395689 -1 0 0
259 1 15.91258445010861 8.840230313460317 1.2521109524140674e-18 0 0 0
277 1 14.144630299195745 10.608265473861808 0 0 0 0
278 1 15.912825048292262 12.376457249156276 3.2352947965800247e-16 0 0 0
279 1 15.912489615180595 10.608386532189899 1.768040143122485 0 0 0
280 1 14.14450078107122 12.376695331575961 1.7675791084286128 0 0 0
327 1 14.144594765479306 10.608500480108747 3.5358605862685626 0 0 0
328 1 15.91286036365891 12.3768007478723 3.5359488127043295 0 0 0
329 1 15.912683519091559 10.608406488218286 5.303922074231963 0 0 0
330 1 14.144497864077275 12.376274598075351 5.304144465415932 0 0 0
281 1 0.0002172718665179315 14.146212588866442 3.3294286678016686e-16 0 0 0
282 1 1.7646893992614587 15.917169815385062 1.2693996680099975e-16 0 0 0
283 1 1.7686002192992374 14.143729082588843 1.7683424742865017 0 0 0
285 1 3.5328795652199645 14.147411557796762 0 0 0 0
288 1 3.5373245672097546 15.9111786175482 1.769088665303012 0 0 0
331 1 0.00033827093990543896 14.147453141487343 3.5332252690042734 0 0 0
332 1 1.7686117414609739 15.914837187755833 3.5337921737302085 0 0 0
333 1 1.767709062261868 14.145378843755323 5.302896984022329 0 0 0
334 1 0.0003542275043384681 15.912781743649163 5.3036502066271956 0 0 0
335 1 3.536102804129552 14.144296003658816 3.5363773817229314 0 0 0
338 1 3.5356736830577167 15.912829501700239 5.3035502375889445 0 0 0
55 1 3.5336659970021236 17.679891443296984 3.5337921737302085 0 -1 0
341 1 8.840210337897119 14.144553982119078 5.303976028328715 0 0 0
340 1 8.839994506999213 15.912524395548147 3.5359023996700425 0 0 0
286 1 5.301091626961194 15.91562361953799 1.8821469811608048e-19 0 0 0
287 1 5.303796597796168 14.144706586961787 1.7673489657342152 0 0 0
289 1 7.0712581246575255 14.145446860789486 1.1750767451743408e-18 0 0 0
292 1 7.071808118181639 15.912477298447971 1.7676800758472768 0 0 0
336 1 5.3042071810991365 15.912400380628403 3.5363773817229323 0 0 0
337 1 5.304062884544394 14.144440300213562 5.304185631276054 0 0 0
339 1 7.071963193245708 14.144471371173157 3.535874371742462 0 0 0
342 1 7.072056112244854 15.912653900383226 5.304036172281105 0 0 0
291 1 8.840087989304157 14.144550596416979 1.7679097371972383 0 0 0
7 1 5.304774102169112 17.67990296545872 1.7683424742865017 0 -1 0
346 1 10.608406488218286 15.912683519091559 5.303922074231963 0 0 0
345 1 12.376274598075351 14.144497864077273 5.3041444654159315 0 0 0
344 1 12.3768007478723 15.91286036365891 3.5359488127043313 0 0 0
343 1 10.608500480108745 14.144594765479304 3.535860586268562 0 0 0
296 1 10.608386532189899 15.912489615180595 1.7680401431224844 0 0 0
290 1 8.840230313460317 15.91258445010861 8.852815718240086e-19 0 0 0
293 1 10.608265473861808 14.144630299195745 2.8216167375797413e-16 0 0 0
294 1 12.376457249156276 15.912825048292264 1.2751744555037377e-16 0 0 0
295 1 12.37669533157596 14.14450078107122 1.7675791084286132 0 0 0
15 1 12.376580703207539 17.680456016105826 1.7677435663789103 0 -1 0
63 1 10.608270195597363 17.680444857677283 3.53587478439569 0 -1 0
350 1 14.14435892199563 15.91282859885037 5.303928485968708 0 0 0
349 1 15.91282859885037 14.144358921995632 5.303928485968707 0 0 0
348 1 15.911419383955256 15.911419383955257 3.5372561764286434 0 0 0
347 1 14.143924232810493 14.143924232810495 3.536419846453389 0 0 0
300 1 14.143842078716792 15.911825140466275 1.768320648077477 0 0 0
299 1 15.911825140466274 14.143842078716794 1.7683206480774771 0 0 0
298 1 15.918293124881968 15.918293124881968 8.278116355315661e-19 0 0 0
297 1 14.14809525363652 14.14809525363652 1.062263767163902e-16 0 0 0
284 1 17.679777221385777 15.914609335682991 1.7656495067199265 -1 0 0
51 1 17.679923085363686 17.679923085363683 3.5349445313978407 -1 -1 0
19 1 15.91460933568299 17.679777221385777 1.7656495067199272 0 -1 0
361 1 0.00015131127740682128 10.6085809495918 7.071815265173037 0 0 0
362 1 1.7678976195670895 12.37677958013115 7.0717219714290485 0 0 0
363 1 1.7678972170827287 10.60837415392131 8.840228720344525 0 0 0
364 1 0.00015555935067500056 12.37654707914738 8.840228720344525 0 0 0
365 1 3.5358095421733924 10.608302281923981 7.072100756718745 0 0 0
368 1 3.5358080888726637 12.376540757121012 8.840228720344525 0 0 0
406 1 0.00015131127740510296 10.6085809495918 10.608642175516012 0 0 0
407 1 1.7678976195670901 12.37677958013115 10.60873546926 0 0 0
408 1 3.535809542173392 10.608302281923981 10.608356683970305 0 0 0
353 1 5.303925323261912 8.840232442922673 7.072159766298002 0 0 0
366 1 5.3039345512102765 12.376410186900081 7.072168378369482 0 0 0
367 1 5.303907329135342 10.608323045821722 8.840228720344525 0 0 0
369 1 7.072065729871216 10.608317611163084 7.07213464461562 0 0 0
372 1 7.072056882047009 12.376446302710946 8.840228720344525 0 0 0
402 1 5.303925323261912 8.840232442922673 10.608297674391048 0 0 0
409 1 5.303934551210276 12.376410186900083 10.608289062319567 0 0 0
410 1 7.072065729871218 10.608317611163084 10.60832279607343 0 0 0
370 1 8.840185573594873 12.376437454886737 7.07213464461562 0 0 0
371 1 8.840185337398216 10.60831784735974 8.840228720344525 0 0 0
411 1 8.840185573594873 12.376437454886736 10.60832279607343 0 0 0
373 1 10.608300131876419 10.60830013187642 7.072130384885544 0 0 0
374 1 12.376401392774252 12.376401392774252 7.072168327404291 0 0 0
375 1 12.37643886255006 10.608293382053773 8.840228720344525 0 0 0
376 1 10.608293382053771 12.376438862550058 8.840228720344525 0 0 0
412 1 10.608300131876419 10.60830013187642 10.608327055803507 0 0 0
413 1 12.376401392774252 12.376401392774252 10.60828911328476 0 0 0
377 1 14.144577861496044 10.608270741835282 7.072159766298002 0 0 0
378 1 15.912695642509041 12.376451840611965 7.07205143414008 0 0 0
379 1 15.912705634341636 10.60834326651673 8.840228720344525 0 0 0
380 1 14.144575511448625 12.376460306357092 8.840228720344523 0 0 0
414 1 14.144577861496042 10.608270741835282 10.608297674391048 0 0 0
415 1 15.912695642509043 12.376451840611965 10.60840600654897 0 0 0
381 1 0.00015928967290164398 14.144670959029062 7.072017545178533 0 0 0
382 1 1.7680152672615366 15.912610119120245 7.072045617310207 0 0 0
383 1 1.7680495230487916 14.144582828745172 8.840228720344523 0 0 0
385 1 3.5357984040428496 14.144645041330344 7.071785945754379 0 0 0
388 1 3.5360147038555563 15.912488480902399 8.840228720344525 0 0 0
416 1 0.0001592896729013367 14.144670959029062 10.608439895510518 0 0 0
417 1 1.7680152672615363 15.912610119120245 10.608411823378843 0 0 0
418 1 3.53579840404285 14.144645041330344 10.608671494934672 0 0 0
421 1 8.840200902833972 15.912693642584562 10.608356683970305 0 0 0
386 1 5.303858143427612 15.912704780715107 7.071785945754378 0 0 0
387 1 5.3038753180632545 14.144627866694702 8.840228720344525 0 0 0
389 1 7.072092997857873 14.14456863354768 7.072168378369481 0 0 0
392 1 7.071962427636943 15.91269509588529 8.840228720344525 0 0 0
419 1 5.303858143427612 15.912704780715107 10.60867149493467 0 0 0
420 1 7.072092997857874 14.14456863354768 10.608289062319567 0 0 0
390 1 8.840200902833972 15.912693642584562 7.072100756718745 0 0 0
391 1 8.840180138936232 14.144595855622613 8.840228720344525 0 0 0
107 1 5.303920356012782 17.680453661709166 8.840228720344525 0 -1 0
423 1 12.376451840611967 15.912695642509043 10.608406006548968 0 0 0
422 1 10.608270741835282 14.144577861496042 10.608297674391048 0 0 0
396 1 10.608343266516732 15.912705634341636 8.840228720344525 0 0 0
395 1 12.376460306357092 14.144575511448625 8.840228720344525 0 0 0
394 1 12.376451840611965 15.912695642509043 7.072051434140081 0 0 0
393 1 10.608270741835282 14.144577861496042 7.072159766298002 0 0 0
425 1 15.912576561745082 15.912576561745084 10.608658027422374 0 0 0
424 1 14.144552763166548 14.144552763166546 10.608498516838624 0 0 0
400 1 14.144568059773349 15.912543162031564 8.840228720344525 0 0 0
399 1 15.912543162031563 14.144568059773349 8.840228720344525 0 0 0
398 1 15.912576561745082 15.912576561745084 7.0717994132666755 0 0 0
397 1 14.144552763166548 14.144552763166546 7.071958923850427 0 0 0
384 1 17.680450165292292 15.912508998322052 8.840228720344525 -1 0 0
119 1 15.91250899832205 17.680450165292292 8.840228720344525 0 -1 0
431 1 1.7679000843280521 10.608408489499437 12.376554217579146 0 0 0
432 1 0.00015643089301035055 12.377358668332743 12.377337369999589 0 0 0
434 1 3.5358492843747293 12.376447072513102 12.376421268407945 0 0 0
451 1 1.7680583270806713 8.840232989160592 14.14458265629336 0 0 0
462 1 1.7677117558079207 12.376563695858255 14.144559803826494 0 0 0
463 1 1.768021707196139 10.60839004893449 15.91245049739358 0 0 0
465 1 3.5359787892098082 10.60850867775874 14.144555041019007 0 0 0
468 1 3.5360258863099827 12.376695066576316 15.912777364841771 0 0 0
428 1 7.072101008706764 8.840237401882767 12.37643536088778 0 0 0
433 1 5.3039492026388775 10.608292846860836 12.376481412360334 0 0 0
436 1 7.072107216482826 12.37639596827513 12.376430740423247 0 0 0
466 1 5.304031813584798 12.376539991512248 14.144583068946588 0 0 0
467 1 5.303952588340976 10.6084151954538 15.912547703491812 0 0 0
469 1 7.072058190320442 10.608294066283076 14.144605559301343 0 0 0
472 1 7.0719101876715476 12.376592997086409 15.912706893346488 0 0 0
435 1 8.840195106467704 10.608308078290252 12.376461942109238 0 0 0
470 1 8.84020911847488 12.376444994437515 14.144605559301343 0 0 0
471 1 8.840147655375965 10.608355529381992 15.9126936619602 0 0 0
437 1 12.37640217605119 10.60826578287519 12.376435360887779 0 0 0
438 1 10.60826578287519 12.37640217605119 12.37643536088778 0 0 0
473 1 10.608276838202663 10.608276838202665 14.144613073049987 0 0 0
474 1 12.376275166598722 12.376275166598724 14.144550451998672 0 0 0
475 1 12.3765062063681 10.608399892743243 15.912694235821375 0 0 0
476 1 10.608399892743243 12.376506206368102 15.912694235821375 0 0 0
461 1 17.680444857677283 10.608270195597363 14.14458265629336 -1 0 0
464 1 17.680456016105826 12.376580703207539 15.912713874310139 -1 0 0
439 1 15.91268351909156 10.608406488218284 12.37653536645709 0 0 0
440 1 14.144497864077273 12.376274598075351 12.37631297527312 0 0 0
477 1 14.144594765479304 10.608500480108747 14.144596854420488 0 0 0
478 1 15.91286036365891 12.376800747872299 14.14450862798472 0 0 0
479 1 15.912489615180595 10.608386532189899 15.912417297566565 0 0 0
480 1 14.14450078107122 12.376695331575961 15.912878332260437 0 0 0
441 1 1.7677090622618687 14.145378843755323 12.377560456666723 0 0 0
442 1 0.0003542275043393148 15.912781743649163 12.376807234061856 0 0 0
444 1 3.5356736830577162 15.912829501700237 12.376907203100107 0 0 0
481 1 0.0003382709399059471 14.147453141487343 14.147232171684777 0 0 0
482 1 1.7686117414609732 15.91483718775583 14.146665266958841 0 0 0
483 1 1.7686002192992374 14.143729082588843 15.912114966402548 0 0 0
485 1 3.5361028041295515 14.144296003658818 14.144080058966118 0 0 0
488 1 3.537324567209756 15.9111786175482 15.911368775386038 0 0 0
205 1 3.533665997002124 17.67989144329698 14.146665266958841 0 -1 0
491 1 8.840087989304156 14.14455059641698 15.912547703491814 0 0 0
490 1 8.839994506999215 15.912524395548147 14.144555041019007 0 0 0
443 1 5.304062884544393 14.144440300213562 12.376271809412996 0 0 0
446 1 7.072056112244855 15.912653900383226 12.376421268407945 0 0 0
486 1 5.304207181099137 15.912400380628405 14.14408005896612 0 0 0
487 1 5.303796597796168 14.144706586961787 15.913108474954836 0 0 0
489 1 7.071963193245708 14.144471371173157 14.144583068946588 0 0 0
492 1 7.071808118181638 15.912477298447971 15.912777364841773 0 0 0
445 1 8.840210337897119 14.144553982119078 12.376481412360334 0 0 0
207 1 5.304774102169112 17.67990296545872 15.912114966402548 0 -1 0
496 1 10.608386532189899 15.912489615180595 15.912417297566565 0 0 0
495 1 12.376695331575961 14.14450078107122 15.912878332260437 0 0 0
494 1 12.376800747872299 15.91286036365891 14.14450862798472 0 0 0
493 1 10.608500480108747 14.144594765479306 14.144596854420488 0 0 0
448 1 10.608406488218286 15.912683519091559 12.37653536645709 0 0 0
447 1 12.376274598075351 14.144497864077273 12.37631297527312 0 0 0
213 1 10.608270195597365 17.680444857677283 14.144582656293359 0 -1 0
215 1 12.376580703207539 17.680456016105826 15.912713874310139 0 -1 0
500 1 14.143842078716794 15.911825140466275 15.912136792611575 0 0 0
499 1 15.911825140466274 14.143842078716794 15.912136792611573 0 0 0
498 1 15.911419383955257 15.911419383955257 14.143201264260409 0 0 0
497 1 14.143924232810493 14.143924232810493 14.14403759423566 0 0 0
450 1 14.14435892199563 15.91282859885037 12.376528954720342 0 0 0
449 1 15.91282859885037 14.14435892199563 12.376528954720342 0 0 0
484 1 17.679777221385777 15.914609335682991 15.914807933969124 -1 0 0
201 1 17.679923085363683 17.679923085363683 14.14551290929121 -1 -1 0
219 1 15.914609335682991 17.679777221385777 15.914807933969124 0 -1 0

Velocities

1 -4.517061345473543e-09 -4.517055538211679e-09 8.810472832168521e-16
2 4.5170566219781374e-09 4.517058502759517e-09 5.799469296337488e-16
3 -1.4994156272043053e-09 1.4994174457609595e-09 3.555523208204173e-09
4 1.4994144084136883e-09 -1.4994179935595012e-09 3.5555237242108346e-09
5 1.8608234821574382e-09 6.375098809246243e-09 -5.591094353157232e-16
8 4.398378008575045e-09 4.374336061715903e-11 1.5372832239349134e-09
21 6.375097898897997e-09 1.8608216698674526e-09 4.3041313989233568e-16
23 4.374340830497851e-11 4.398377670174941e-09 1.5372809874984565e-09
25 5.240998486285566e-09 5.2409989280092786e-09 -7.871547125161678e-16
52 -4.225463571471691e-09 -4.225463951751482e-09 -1.3634031875694567e-08
53 4.728090322595962e-10 -4.728110791675399e-10 -2.575049255603175e-09
54 -4.728107514666266e-10 4.728115242538551e-10 -2.575053298062949e-09
58 6.634181505755905e-09 -1.943666065023706e-09 -4.947236212122057e-10
73 -1.9436668396450814e-09 6.634180454178347e-09 -4.947228594298587e-10
75 5.497867085024743e-09 5.497866173453733e-09 2.2920209953549346e-09
6 -8.982615262105665e-09 -2.5312383849295765e-09 -8.828360426200749e-16
9 -8.007149205515782e-09 -4.741909269577572e-09 -2.222374664074773e-16
12 6.098101406894634e-09 -1.3082617017790905e-09 3.492116763219592e-09
27 -4.037365512011534e-09 6.9052253716584855e-09 1.3944245053584475e-09
29 5.113993693805625e-09 8.437005887247525e-09 -9.635385063498879e-16
56 -5.925192235355976e-10 -8.134325081142025e-10 9.458314899688696e-09
57 1.853513932326367e-10 3.144633847442755e-10 -4.614511207040462e-09
59 1.4763211660921278e-09 1.3251222561438591e-09 1.1316207556585184e-08
62 3.466512449371594e-09 -9.96402892397645e-10 1.5082857233375916e-09
77 1.77605129350679e-09 7.608381554458241e-10 4.5422902662785655e-09
79 2.3874947905904306e-10 -1.97827222483394e-09 4.2125001075942465e-09
11 -9.40234909388322e-10 -2.4098740679974903e-09 -1.412998024391585e-09
31 -5.913975197519999e-09 -5.7132518943100285e-09 1.8544226969296749e-09
61 1.4100810313945417e-09 3.316007038620992e-09 3.048128303633236e-09
81 -1.4632597434855082e-09 -6.704617639721751e-09 -3.1223230139236775e-09
10 -1.364377225252354e-08 2.2365472590345635e-09 -1.0026669736128275e-16
13 1.3643773489961318e-08 -2.2365487654805533e-09 -7.247937178158578e-16
14 8.00714546413179e-09 4.74190820949456e-09 -3.805251800063273e-16
16 9.402353569201661e-10 2.4098698656612447e-09 -1.4129988314162223e-09
33 7.193351132179875e-10 8.151811591137824e-09 -9.983872975059434e-16
35 -8.594413441932217e-10 2.104508666886797e-09 -3.7869830049015463e-10
60 -2.829419488868585e-09 3.8395039384171634e-09 2.552683609575898e-09
64 -1.4763220097997034e-09 -1.3251215261533918e-09 1.1316206673749142e-08
65 -3.4665130984967514e-09 9.964083508012152e-10 1.5082878609784785e-09
66 -1.4100795842526354e-09 -3.31601023981872e-09 3.0481292109245703e-09
83 2.8128077906385353e-09 5.806419240567908e-09 1.2021433274654598e-09
85 -2.1475267064689057e-09 6.971220354047334e-09 -3.090366113018769e-09
71 -1.124343361469716e-09 2.634921749483144e-09 -4.88091239884484e-09
17 8.98261429337041e-09 2.5312423638055914e-09 -4.750440478641261e-16
18 -1.86082182332441e-09 -6.375098364159928e-09 -6.064912425755639e-16
20 2.449191783760641e-09 -1.3526993095401562e-09 2.4120808933755043e-09
37 -1.702150859342382e-09 2.123156200009995e-09 2.671740655297595e-16
39 1.0519394779779063e-09 -1.0519357045263446e-09 -9.496255140972115e-10
67 5.92518559846078e-10 8.134328977444412e-10 9.458318417822708e-09
68 -2.6349190441164624e-09 1.1243397170198199e-09 -4.880912392252181e-09
69 -6.634178896376244e-09 1.943665250051099e-09 -4.947248913589359e-10
70 -1.8535274773385484e-10 -3.144633737950401e-10 -4.6145092911945385e-09
87 5.4222897381934545e-09 -3.4621044114107804e-09 -9.306144940204626e-10
89 -1.6213595226357688e-09 1.6213604513254842e-09 -5.098445944759818e-09
22 -2.5312373247640083e-09 -8.982614285728131e-09 -1.2105369559471942e-16
28 6.905227470070968e-09 -4.037363106603995e-09 1.3944233362467844e-09
41 -4.7419083794049424e-09 -8.007147562120156e-09 7.963254470309193e-16
42 -1.3082632864820145e-09 6.098099073859774e-09 3.492116667843953e-09
43 8.437005706278364e-09 5.113990825199869e-09 -1.1145499346927954e-15
72 -8.134303170997488e-10 -5.925156056467995e-10 9.458317910548644e-09
74 3.144641050082721e-10 1.853514687220812e-10 -4.61450842792273e-09
78 7.608388627755513e-10 1.77605198079498e-09 4.542286492109383e-09
91 1.3251221289763407e-09 1.476321117181544e-09 1.1316206343602698e-08
92 -9.96402975545638e-10 3.4665098522195793e-09 1.5082866135102217e-09
93 -1.978268362655522e-09 2.3874567564974866e-10 4.212501183321405e-09
252 -2.409873481987555e-09 -9.40235535443798e-10 -1.4129982004696877e-09
254 -5.713252146810919e-09 -5.913973167425069e-09 1.854424215030065e-09
302 3.3160072244812113e-09 1.410085364260909e-09 3.0481275797565912e-09
304 -6.704615784176467e-09 -1.463259139745486e-09 -3.122321357994715e-09
26 2.30249349086531e-09 2.3024938951188647e-09 -3.686452614019244e-16
32 -2.6444612344538466e-09 -7.107966504030177e-10 -3.0179643749369886e-09
44 -7.10797734833269e-10 -2.6444625014279492e-09 -3.01796146659158e-09
45 -1.921169650130381e-09 -1.921172518430446e-09 6.080196983280224e-16
76 -1.8972865253484923e-09 -1.897282511919974e-09 2.045840418272033e-09
82 -8.902154360425175e-10 9.305386184482098e-10 1.1799597513804197e-09
94 9.305358892094074e-10 -8.902163318387504e-10 1.1799585157894767e-09
95 1.3529283649864845e-09 1.3529277635993784e-09 4.1717473795674186e-09
46 9.220867807070539e-10 -9.866135796122274e-10 -4.862735969928818e-10
80 -2.5704736800739743e-09 -1.920902993630568e-09 8.386955362185692e-10
256 -9.866133658918719e-10 9.220874318864982e-10 -4.862743593866111e-10
303 -1.9209058717468906e-09 -2.570474063542551e-09 8.386945335001587e-10
255 -7.660588935194978e-09 -7.660587889198673e-09 -7.74009993045024e-16
305 2.5406349210072977e-09 2.5406355713546943e-09 -4.663586198816362e-09
30 -1.2130649763869344e-09 1.0119028708124216e-08 4.603698651135385e-16
34 -4.027122409297864e-09 2.311627057616211e-09 6.38833642434613e-16
36 1.8637518471733593e-09 -2.2633279477550575e-09 5.3578431267051625e-09
47 1.1043546816642305e-09 -8.333885118521469e-09 -2.5983747791795833e-17
48 2.44785352177342e-11 -2.4478516618804713e-11 -4.484724593525374e-09
84 -4.910905867617298e-09 4.563679374853839e-09 4.884967390417059e-09
86 4.531540267539785e-09 -2.2123598833264844e-09 -7.531359131173651e-09
96 -3.978061292554013e-09 -3.829620875046948e-09 -5.457699704377095e-09
97 9.221009577365754e-10 -2.0723639283971676e-09 -5.447583425415987e-09
98 2.113072964667377e-09 -2.113072720312405e-09 2.2855048680218268e-10
257 8.333884963757712e-09 -1.1043531460876638e-09 -2.5209884972322283e-16
258 -2.9900191170245287e-10 2.990025836408945e-10 -1.7336535698383305e-09
307 2.0723620084011787e-09 -9.220977652821524e-10 -5.44758383773633e-09
308 3.943230042998664e-09 -3.9432282325702524e-09 -3.888419900214557e-09
100 -6.971221533174525e-09 2.1475270338641276e-09 -3.0903642510539714e-09
99 -4.563680587224974e-09 4.910904299129103e-09 4.884968102473098e-09
90 -4.902862556703816e-09 4.902865450987628e-09 6.660234362507373e-09
88 3.462104970825586e-09 -5.422291020926063e-09 -9.306154655069389e-10
50 -2.104505863087565e-09 8.594435002329061e-10 -3.7869901336191754e-10
49 -2.3116290688421014e-09 4.027121174662131e-09 9.436685815679262e-16
24 1.3526950476741412e-09 -2.449195488737385e-09 2.412080086962249e-09
38 -2.1231532488676285e-09 1.7021501122332103e-09 3.6377246908514163e-16
40 2.1756632082237884e-09 -2.1756643253720977e-09 -1.0904378954206518e-08
260 2.263328107506148e-09 -1.8637512141453016e-09 5.357842115928044e-09
309 -5.806414481857648e-09 -2.8128067705293234e-09 1.2021425998403673e-09
310 2.212361069131265e-09 -4.531540193307427e-09 -7.531358000486344e-09
101 3.958004792540951e-10 3.9579863777060454e-10 -1.3292517437429774e-08
102 -3.958011591112138e-10 -3.9580152349506517e-10 -1.3292516014131778e-08
103 2.497903532864625e-09 -2.4979031048970143e-09 -2.34419572207412e-15
104 -2.497904334998204e-09 2.4979027845326886e-09 2.442472292428808e-16
105 3.839897222921299e-09 -1.6524251946322893e-09 3.370968016018538e-11
108 -6.5941072612538415e-09 1.91053913368582e-09 -6.724502280876917e-16
121 -1.6524265645495658e-09 3.839898003656497e-09 3.370634506973352e-11
123 1.9105393611200356e-09 -6.5941069090976355e-09 1.4257435258933618e-15
125 -4.71173928812701e-10 -4.711741433147484e-10 -3.436249596198292e-10
151 3.957983614258045e-10 3.9580478093996484e-10 1.3292518070821838e-08
152 -3.9580336008749735e-10 -3.95799142466694e-10 1.3292517832994122e-08
153 3.839899603643979e-09 -1.652426962865135e-09 -3.3704837400979296e-11
161 -1.6524228705777033e-09 3.839899153055223e-09 -3.370889881360473e-11
163 -4.711751686936192e-10 -4.711723666595741e-10 3.436217710395483e-10
106 3.82645288546575e-09 -3.156178093328374e-09 1.2974781052941712e-09
109 -6.239105691829343e-09 -3.0177273774095355e-10 -2.521180018689436e-09
112 -3.6791171141114853e-09 -5.4112494437312735e-09 9.458084196213682e-16
127 -6.5391172827552314e-09 -2.1486053783503386e-09 1.5775413477061746e-16
129 9.0384191730641e-10 -2.66139091861014e-09 5.4081367675539655e-09
154 3.8264553676122165e-09 -3.1561800424151493e-09 -1.297480855291761e-09
155 -6.239106548987328e-09 -3.0177156388693566e-10 2.521179959996735e-09
165 9.038445419099375e-10 -2.6613919619441864e-09 -5.40813482751926e-09
110 -3.731239034470806e-09 -2.628630577918205e-09 -1.8125474057624362e-09
111 -5.455473797146085e-09 -1.8263041054664537e-09 1.60182162857659e-16
131 3.438280757990823e-09 2.433907226236055e-09 7.923516859694127e-16
156 -3.731239431869302e-09 -2.6286299958822546e-09 1.8125465333198927e-09
113 3.7312384475437976e-09 2.6286315659120035e-09 -1.8125478227251655e-09
114 6.2391051149901415e-09 3.0177311435245097e-10 -2.5211837444531784e-09
115 3.6791150153559046e-09 5.411249218533263e-09 4.1367110129403094e-16
116 5.455474487208146e-09 1.8263046777202875e-09 5.25788778845751e-16
133 1.3110073431028632e-10 1.3025703842904676e-09 -1.1006413700707427e-09
135 3.1498194860556213e-09 -4.5542435345990305e-10 -2.803160236306474e-16
157 3.731238846012212e-09 2.6286303529295184e-09 1.8125467992711936e-09
158 6.239106261637647e-09 3.0177305565975005e-10 2.521180814709192e-09
167 1.3109997862498403e-10 1.3025723165851267e-09 1.1006429546451512e-09
117 -3.8264543665393745e-09 3.1561821030791947e-09 1.2974783226405792e-09
118 -3.839900240704337e-09 1.6524274178864124e-09 3.370852189641617e-11
120 1.0691632169676778e-09 4.837015876709959e-09 4.249106991834848e-16
137 -8.86913094384043e-10 4.27283473981428e-09 1.805488567630473e-10
139 -4.352609234381749e-10 4.3525964931745967e-10 -4.132944354647996e-16
159 -3.826453083859307e-09 3.156183606468273e-09 -1.297475691556847e-09
160 -3.839900226031162e-09 1.6524247463750255e-09 -3.370938669668091e-11
169 -8.869129690713952e-10 4.272833600753826e-09 -1.8054554957930177e-10
122 -3.156179115559581e-09 3.8264529398787755e-09 1.29747743277364e-09
128 -2.1486046789289864e-09 -6.53911462732808e-09 1.416573015273496e-15
141 -3.0177694405118434e-10 -6.239106273865293e-09 -2.521181314819914e-09
142 -5.411247462852618e-09 -3.6791169111325613e-09 1.265561363035703e-16
143 -2.661390953458931e-09 9.038451999619072e-10 5.408138552789613e-09
162 -3.1561800424151493e-09 3.826451572407327e-09 -1.29748002870289e-09
171 -3.0177218994241186e-10 -6.239104800433947e-09 2.5211809602181795e-09
172 -2.661389608122328e-09 9.038413703642511e-10 -5.408137499871298e-09
351 -2.628630396949044e-09 -3.731239161026943e-09 -1.8125463911735077e-09
352 -1.8263025036448251e-09 -5.4554739536599545e-09 4.670960779513415e-16
354 2.433910343674408e-09 3.438276738152194e-09 -1.4624264639523677e-15
401 -2.628634608150333e-09 -3.73123941536198e-09 1.8125465953751962e-09
126 6.152259600202522e-10 6.152244193368538e-10 2.304587682283272e-09
132 -5.24227842249307e-09 -4.905220780212314e-09 -3.8926707557249885e-15
144 -4.905225074465769e-09 -5.242279592748575e-09 -4.891058407867451e-18
145 1.6354312796943337e-09 1.635429666429237e-09 -3.6159237694848237e-09
164 6.1522193661856e-10 6.152255844909161e-10 -2.304588524872268e-09
173 1.635433032088804e-09 1.6354308399775638e-09 3.61592648539785e-09
146 -1.0013749347496536e-08 2.442111611108637e-09 1.442862230320898e-16
356 2.442114995721055e-09 -1.0013748552699545e-08 -2.3477080357763766e-16
355 -5.417041024248964e-09 -5.417033906536216e-09 2.393290407454072e-09
403 -5.417036794094824e-09 -5.417034866941388e-09 -2.393292120394434e-09
130 1.343282833046441e-09 -6.326985131427786e-09 -6.958111163606579e-09
134 -2.202865796622352e-09 -1.2614162361311968e-09 -2.418313696520105e-09
136 3.35260589543822e-09 -7.177551125468985e-09 -5.008602476498542e-16
147 -2.7267583794238154e-09 -4.723142674642316e-10 -4.634469839340828e-09
148 2.5704432005819582e-09 -2.5704408993945426e-09 -2.2113571699118483e-16
166 1.3432833533856579e-09 -6.326988683542722e-09 6.958113478983e-09
168 -2.2028658641359147e-09 -1.2614159296123816e-09 2.4183173570029172e-09
174 -2.7267585571765794e-09 -4.723120414212737e-10 4.634469562384646e-09
357 4.723113468909798e-10 2.7267563572192112e-09 -4.634469385695161e-09
358 3.799165616500924e-10 -3.799140036265451e-10 1.193418251519658e-15
404 4.723098694856495e-10 2.7267582998864724e-09 4.634468765142125e-09
175 1.2614152226054704e-09 2.2028649895884608e-09 2.4183167091641476e-09
170 -4.272836519281275e-09 8.869136030748414e-10 -1.8054593475015141e-10
124 -4.83701720623115e-09 -1.0691578154050486e-09 2.372163327815714e-16
138 -4.272835526396419e-09 8.869146693255743e-10 1.8054812349878892e-10
140 3.131729141323498e-09 -3.1317301011937105e-09 -1.2236816754183378e-15
149 1.2614174761606318e-09 2.202865445068275e-09 -2.4183161191802273e-09
150 4.554245880694085e-10 -3.149821362627918e-09 -1.2765662444534046e-15
359 -1.3025699376756966e-09 -1.3110121469007582e-10 -1.1006438418893856e-09
360 7.177550535589997e-09 -3.3526073676205626e-09 -4.371383452031534e-17
405 -1.3025724840829801e-09 -1.3110001607507473e-10 1.1006432036062633e-09
176 4.728103503998371e-10 -4.728101932745858e-10 2.5750537229736483e-09
177 -4.728075282591358e-10 4.728079794592739e-10 2.5750488765461484e-09
179 6.634179366026515e-09 -1.9436683209790648e-09 4.94728085415835e-10
186 -1.943667614877839e-09 6.6341797645391115e-09 4.947212698358761e-10
202 -4.225462241103804e-09 -4.225467550347705e-09 1.3634031188806552e-08
203 -1.4994163501638761e-09 1.499414824153653e-09 -3.555525886058651e-09
204 1.4994151151716282e-09 -1.4994163648370514e-09 -3.5555240078922222e-09
208 4.398378388243454e-09 4.374202596959599e-11 -1.5372835180098002e-09
223 4.374394754416798e-11 4.398377942851448e-09 -1.5372812760709024e-09
225 5.497869437623837e-09 5.497866189961055e-09 -2.2920230758554696e-09
178 1.8535069463566536e-10 3.1446177197341155e-10 4.614508882791162e-09
181 3.4665132750433915e-09 -9.964033179197265e-10 -1.5082877696341529e-09
188 1.7760506717716269e-09 7.608407400249064e-10 -4.542286300746724e-09
206 -5.925206794016429e-10 -8.134304180584306e-10 -9.458315166251902e-09
209 1.476322508687661e-09 1.3251211116361918e-09 -1.1316205580597587e-08
212 6.098099125215887e-09 -1.3082617482441453e-09 -3.492114821469404e-09
227 -4.037362651048057e-09 6.905226154227831e-09 -1.3944236423924041e-09
229 2.3874703964366215e-10 -1.978269681483568e-09 -4.212496726038739e-09
180 1.410085405223523e-09 3.3160082711677106e-09 -3.048127851210333e-09
190 -1.4632580061312235e-09 -6.704616738699473e-09 3.1223186464052484e-09
211 -9.40234777329745e-10 -2.4098755793345383e-09 1.4129957402673086e-09
231 -5.913975091750861e-09 -5.713250787708064e-09 -1.854423651908829e-09
182 -3.4665116985983077e-09 9.964040220671267e-10 -1.5082890446146577e-09
183 -1.4100848293676684e-09 -3.3160111471100547e-09 -3.0481282156706072e-09
192 -2.1475242753389718e-09 6.9712238116757555e-09 3.090363606919058e-09
210 -2.829417654721682e-09 3.839503896843167e-09 -2.552685191833293e-09
214 -1.476319433505587e-09 -1.3251209077534018e-09 -1.1316205861203331e-08
216 9.40236313122085e-10 2.409870407040272e-09 1.4130012842820139e-09
233 2.812804202741502e-09 5.806419895969734e-09 -1.2021415474258905e-09
235 -8.594438374102451e-10 2.104510261371838e-09 3.786982766462449e-10
221 -1.1243432202404047e-09 2.634923886264286e-09 4.880914465223877e-09
184 -6.634183021984011e-09 1.943665347872267e-09 4.947213670456619e-10
185 -1.8535074667958372e-10 -3.144625050207904e-10 4.6145086732777905e-09
194 -1.6213644189863056e-09 1.6213629788891772e-09 5.098447757410274e-09
217 5.925198899082737e-10 8.134313142642817e-10 -9.458314886040401e-09
218 -2.6349253700891307e-09 1.1243439954731622e-09 4.8809131311876965e-09
220 2.4491937090035068e-09 -1.3527009424015267e-09 -2.4120824261109327e-09
237 5.422288114414604e-09 -3.462106553785115e-09 9.306136197437722e-10
239 1.051939426927484e-09 -1.0519365853300186e-09 9.49627682670233e-10
187 3.1446389469276056e-10 1.853505467575713e-10 4.614509528410872e-09
189 7.608421987830766e-10 1.776051462799721e-09 -4.5422866455663415e-09
196 -9.964055091138932e-10 3.466514880227623e-09 -1.5082863292174517e-09
222 -8.134307334510957e-10 -5.925167550455254e-10 -9.45831510063559e-09
228 6.905225420717495e-09 -4.0373643339539645e-09 -1.3944230216905905e-09
241 1.325124554941311e-09 1.4763222176696857e-09 -1.1316206172415654e-08
242 -1.3082621346377595e-09 6.098101548735328e-09 -3.492115135108524e-09
243 -1.9782673088617034e-09 2.387469219525692e-10 -4.212500712557033e-09
426 3.3160146637810497e-09 1.4100799871535717e-09 -3.0481280199518483e-09
427 -6.704614040656542e-09 -1.4632592723620837e-09 3.1223190794907976e-09
452 -2.4098685875665444e-09 -9.402346330435218e-10 1.4129981417769868e-09
454 -5.71325272640134e-09 -5.913978742008889e-09 -1.8544225568072997e-09
191 -8.902153731913024e-10 9.305385279354184e-10 -1.1799620449938092e-09
197 9.305366203779116e-10 -8.902158000145864e-10 -1.1799560848774742e-09
226 -1.897288713456492e-09 -1.8972842725064363e-09 -2.045842912829926e-09
232 -2.6444607138752513e-09 -7.108004286871267e-10 3.017964200081692e-09
244 -7.10800096095155e-10 -2.6444607508026824e-09 3.0179624826323857e-09
245 1.3529312209887173e-09 1.3529326821924165e-09 -4.171749757720979e-09
230 -2.5704736026046276e-09 -1.9209049663642255e-09 -8.386924398381013e-10
246 9.220868649058368e-10 -9.866131210755017e-10 4.862708978928685e-10
453 -1.920902973424353e-09 -2.5704784331307395e-09 -8.386939999101357e-10
456 -9.86613539047176e-10 9.220891434512498e-10 4.862739032954146e-10
455 2.54063312502835e-09 2.540629669495585e-09 4.663587313321219e-09
193 4.531541441750086e-09 -2.2123632798132426e-09 7.531354399750281e-09
198 -3.978066888230523e-09 -3.82961736815807e-09 5.457700784078239e-09
199 2.1130714257227462e-09 -2.1130742619252405e-09 -2.285517787925085e-10
234 -4.910904779142237e-09 4.563678926175134e-09 -4.884965133776178e-09
236 1.8637528524703513e-09 -2.26332913026515e-09 -5.3578444743603466e-09
247 9.221021271479074e-10 -2.0723602364143126e-09 5.447585726802857e-09
248 2.4473598977282445e-11 -2.4476625001965468e-11 4.484723836634085e-09
429 3.943233594584144e-09 -3.943228545801399e-09 3.88841811082469e-09
457 2.0723591384009556e-09 -9.220978369245344e-10 5.447583544191552e-09
458 -2.9900215857734975e-10 2.9900123049901687e-10 1.7336526877665159e-09
250 -2.104511108136325e-09 8.594426476602874e-10 3.78697448223227e-10
249 -4.563674866149683e-09 4.91090513142039e-09 -4.88496693944007e-09
240 2.175664898543005e-09 -2.17566625764586e-09 1.0904378073816004e-08
238 3.4621053902338445e-09 -5.4222897682037276e-09 9.306145349830767e-10
200 -6.971227648220299e-09 2.14752680062178e-09 3.0903645900654573e-09
195 -4.902861860950757e-09 4.9028639922294585e-09 -6.6602370478656135e-09
224 1.3526958057881943e-09 -2.4491947856477387e-09 -2.4120814955870707e-09
430 2.2123671710242224e-09 -4.531540381918867e-09 7.531358694710946e-09
459 -5.806423154637399e-09 -2.8128083075622707e-09 -1.2021434815337996e-09
460 2.2633291486902067e-09 -1.8637509928409034e-09 -5.357844441014935e-09
251 2.236545116750981e-09 -1.3643769451169837e-08 -6.758067109495604e-16
261 -2.236546016705728e-09 1.3643772668263505e-08 -5.380164248654196e-17
262 4.741910996121191e-09 8.007149006816534e-09 -2.084813646353501e-16
263 2.409871709284573e-09 9.402337575440668e-10 -1.4129983789933195e-09
265 8.15181113871492e-09 7.193345544145644e-10 7.529173036610957e-16
268 2.104508334294825e-09 -8.594410495069526e-10 -3.787015298114684e-10
301 3.839504571809227e-09 -2.829414196743388e-09 2.552682540879636e-09
312 -1.3251211067451333e-09 -1.4763199041990586e-09 1.1316206979440292e-08
313 -3.3160110957539412e-09 -1.4100847504330787e-09 3.048126696920549e-09
314 9.9640054224408e-10 -3.466512667940767e-09 1.5082862136661969e-09
315 5.8064164673377904e-09 2.8128022145262593e-09 1.202142476726988e-09
318 6.971223040690433e-09 -2.147523640080975e-09 -3.090364691249228e-09
253 1.0119029435973055e-08 -1.2130590693436782e-09 -5.795904213322929e-16
266 2.311625886707381e-09 -4.027122763777549e-09 -1.448975307014447e-16
267 -2.2633275751778475e-09 1.8637512449614194e-09 5.357841400161768e-09
269 -8.333886775978887e-09 1.1043534327355707e-09 -2.359935681796045e-16
272 -2.4473801638499527e-11 2.4474499225704948e-11 -4.4847224004970604e-09
306 -3.829615812801496e-09 -3.9780607438383974e-09 -5.457698962158982e-09
316 4.563682080688312e-09 -4.910903747043534e-09 4.884968581645394e-09
317 -2.2123617242008316e-09 4.531541134605242e-09 -7.531358741151746e-09
319 -2.0723605329347286e-09 9.221041691647928e-10 -5.447585341632007e-09
322 -2.11307293858825e-09 2.1130733378208924e-09 2.2855049641813218e-10
270 -1.1043546200399993e-09 8.333887455836006e-09 6.871467630110264e-16
271 2.9900009393931934e-10 -2.9900045648902386e-10 -1.7336506165561257e-09
320 -9.221045082608735e-10 2.0723556803934057e-09 -5.447587806343331e-09
321 -3.9432308761873215e-09 3.943227995353919e-09 -3.888417572070755e-09
273 7.660592713329824e-09 7.660588517699678e-09 -1.283902832065206e-16
274 1.9211691179220877e-09 1.9211693673660665e-09 -3.6438385138612506e-16
275 9.866114700950643e-10 -9.220873921156765e-10 -4.86272957897371e-10
276 -9.220870612797124e-10 9.866138742984966e-10 -4.862736147229685e-10
323 -2.540635064266139e-09 -2.540635443390035e-09 -4.663586956273955e-09
324 -1.3529275588206753e-09 -1.3529284367537184e-09 4.1717473858633425e-09
325 3.829618791810865e-09 3.978061568114584e-09 -5.457700524625089e-09
326 3.978065079761676e-09 3.829618089589185e-09 -5.457698134347346e-09
264 1.3082641705408218e-09 -6.098100042289338e-09 3.4921138074918578e-09
311 -3.839503348433243e-09 2.829414595364648e-09 2.552686800991509e-09
259 -8.151810817280675e-09 -7.193326114416119e-10 1.2521109524140674e-15
277 -1.011902611372163e-08 1.213061139254881e-09 -6.241444587266893e-16
278 -8.437003173932873e-09 -5.1139938136365555e-09 -2.476098318982897e-16
279 5.713250043655803e-09 5.913973903529359e-09 1.854418971777315e-09
280 7.107965993585661e-10 2.6444602879218734e-09 -3.017960930360541e-09
327 1.9209022394599006e-09 2.5704744615913124e-09 8.386946299395969e-10
328 1.9782679271220555e-09 -2.387465664337612e-10 4.212504941488409e-09
329 6.704617689243717e-09 1.4632552489085225e-09 -3.1223222139299365e-09
330 -9.305398845927443e-10 8.902171486455044e-10 1.179956885538571e-09
281 2.5312353769286558e-09 8.982616725067088e-09 -1.01917429573938e-15
282 -6.375095672243657e-09 -1.860823558121689e-09 -1.1322800214213149e-15
283 -1.352698582075223e-09 2.4491928033934733e-09 2.412081948544933e-09
285 2.1231524644641364e-09 -1.7021517349612476e-09 -5.6757650163885e-16
288 -1.0519364537753544e-09 1.0519354994075826e-09 -9.496257824940415e-10
331 8.134327210549562e-10 5.925210506175721e-10 9.45831451615411e-09
332 1.1243408187307263e-09 -2.6349268667530035e-09 -4.8809114865693065e-09
333 -3.1446079865278837e-10 -1.8535024412333232e-10 -4.614512597550022e-09
334 1.9436666513393327e-09 -6.634178477579368e-09 -4.947218665450019e-10
335 -3.462106526793542e-09 5.422291906365257e-09 -9.306122080620393e-10
338 1.621360775587372e-09 -1.6213644604649227e-09 -5.0984465833486306e-09
55 2.6349247000141287e-09 -1.1243399991727518e-09 -4.8809123110183396e-09
341 -4.531540981178865e-09 2.2123622841556717e-09 -7.531354935282071e-09
340 -2.812803107197939e-09 -5.8064145652509546e-09 1.2021433750070012e-09
286 1.7021506213009219e-09 -2.1231522380798356e-09 1.8821469811608047e-16
287 -2.175665535627842e-09 2.1756652095100148e-09 -1.0904378104286942e-08
289 4.027122610601979e-09 -2.3116288266923196e-09 1.1750767451743408e-15
292 8.594425207984599e-10 -2.104506127816101e-09 -3.7869933617177245e-10
336 -5.422288579518913e-09 3.4621055170643265e-09 -9.306154698645304e-10
337 4.90286246881817e-09 -4.902865856398576e-09 6.660234364554518e-09
339 4.910900476999696e-09 -4.56368151606004e-09 4.8849679483198275e-09
342 2.1475267064689057e-09 -6.971220325083098e-09 -3.090367462033816e-09
291 -1.863751270530528e-09 2.2633275914511247e-09 5.3578387935237406e-09
7 -2.4491935434472698e-09 1.3526966699780842e-09 2.4120820602281053e-09
346 1.4632540860593861e-09 6.704614835311136e-09 -3.122321893565611e-09
345 8.902158531929801e-10 -9.305371444424994e-10 1.1799607567164815e-09
344 -2.3874964318944066e-10 1.9782667994740193e-09 4.212499991053674e-09
343 2.570478600070647e-09 1.9209080155091153e-09 8.386949524569331e-10
296 5.913973465168249e-09 5.713252300573568e-09 1.8544216691960269e-09
290 -7.193317555063905e-10 -8.151808870639429e-09 8.852815718240086e-16
293 1.2130606139561461e-09 -1.0119026360767248e-08 -1.03445889057978e-15
294 -5.113996124050271e-09 -8.437007110012127e-09 -7.617823470253554e-16
295 2.6444625179845284e-09 7.107978656441546e-10 -3.017962146313326e-09
15 -6.0981016820166695e-09 1.3082659236795697e-09 3.4921157128647984e-09
63 2.8294174881125423e-09 -3.83950356899105e-09 2.552683731715036e-09
350 -1.776053764579266e-09 -7.608384072957371e-10 4.54228772924147e-09
349 -7.60836646209019e-10 -1.7760567437687959e-09 4.542289505001363e-09
348 -5.497863361095148e-09 -5.4978657534340925e-09 2.2920176781232344e-09
347 1.897285018023193e-09 1.8972817578506567e-09 2.0458409925438973e-09
300 4.037368880817571e-09 -6.9052306370312865e-09 1.3944224888709152e-09
299 -6.90522584990787e-09 4.037368034345341e-09 1.394422506601002e-09
298 -5.2409963452247484e-09 -5.240999434539515e-09 8.278116355315661e-16
297 -2.302492882318414e-09 -2.30249016839238e-09 1.1108816408868947e-15
284 -4.374678466373569e-11 -4.39837886023059e-09 1.5372833749463418e-09
51 4.225459033365957e-09 4.225468721030477e-09 -1.3634033435691438e-08
19 -4.398372725620582e-09 -4.3746004539919634e-11 1.537282341098871e-09
361 2.628630326028697e-09 3.731238678034925e-09 -1.8125459054302695e-09
362 3.017780445393261e-10 6.239104195165469e-09 -2.5211816101175656e-09
363 1.826301865361703e-09 5.45547366814442e-09 2.476098318982897e-16
364 5.41124404644832e-09 3.6791151601336512e-09 -3.692749097939925e-16
365 1.3025720986064393e-09 1.311007976630141e-10 -1.1006406229615708e-09
368 -4.55423896381087e-10 3.149823267659345e-09 -1.9378139665710258e-16
406 2.628633933184273e-09 3.731238207270553e-09 1.8125447034526658e-09
407 3.0177559411906375e-10 6.239104588895671e-09 2.521180902136861e-09
408 1.3025743065551083e-09 1.311006439388753e-10 1.1006438721401221e-09
353 -6.326990326343197e-09 1.3432822717974886e-09 -6.958111481678222e-09
366 -1.2614176883102903e-09 -2.20286472363716e-09 -2.418316289450198e-09
367 -7.177554219779743e-09 3.352606184290119e-09 7.016376131661104e-16
369 -4.723059966844639e-10 -2.7267592420265984e-09 -4.634470263028763e-09
372 -2.5704410715583265e-09 2.5704433385638983e-09 6.597577762854883e-17
402 -6.326990480411537e-09 1.3432841548549757e-09 6.95811174564253e-09
409 -1.2614147252459685e-09 -2.202868737973348e-09 2.418314837417233e-09
410 -4.723110638209745e-10 -2.726758247918977e-09 4.6344696712106955e-09
370 2.7267524312277654e-09 4.723116336292789e-10 -4.634470842313493e-09
371 -3.799175325251864e-10 3.799140525371292e-10 -1.1121044054888617e-15
411 2.726753882649348e-09 4.72314920420529e-10 4.634470953279381e-09
373 5.417039805764038e-09 5.41703603047833e-09 2.3932927172564055e-09
374 -1.63543150852411e-09 -1.635431167372786e-09 -3.6159257321748553e-09
375 -2.4421180391427437e-09 1.00137497828785e-08 1.0868999611622598e-16
376 1.0013754138467732e-08 -2.4421134550376567e-09 4.25253631516617e-17
412 5.417039413256601e-09 5.417033770809345e-09 -2.393292481262837e-09
413 -1.6354303894481587e-09 -1.6354297832032566e-09 3.6159229477870112e-09
377 6.326987065230003e-09 -1.3432836584125472e-09 -6.958113268901533e-09
378 2.661396005626725e-09 -9.038392693489738e-10 5.4081371599427385e-09
379 -2.4339063861967734e-09 -3.4382766170984982e-09 3.594927929782576e-16
380 4.905221986879368e-09 5.242279677025744e-09 4.570694082152133e-15
414 6.326992480243044e-09 -1.3432820441340044e-09 6.958112947008751e-09
415 2.6613876798225504e-09 -9.0384140460166e-10 -5.408140850857689e-09
381 3.1561719110305466e-09 -3.826452462389198e-09 1.2974799773467767e-09
382 1.6524263627934065e-09 -3.839897354368494e-09 3.3706957980490255e-11
383 4.8370181703810385e-09 1.0691626076601361e-09 4.747154298773476e-15
385 4.2728363551513975e-09 -8.869138348229765e-10 1.8054589797086392e-10
388 4.352607216820156e-10 -4.352614583638055e-10 -9.879937983892251e-16
416 3.156174963050993e-09 -3.826451354258777e-09 -1.2974813859715983e-09
417 1.6524284023647625e-09 -3.839901697934051e-09 -3.3706093180225516e-11
418 4.272832740938655e-09 -8.869126569607305e-10 -1.80552604625364e-10
421 -1.31094321416875e-10 -1.3025714721688493e-09 1.100642268191343e-09
386 8.869127303266067e-10 -4.272836137167337e-09 1.8054919219505104e-10
387 -3.1317315167168826e-09 3.131729338772666e-09 -5.245660142437841e-16
389 2.202867050666637e-09 1.2614129746733544e-09 -2.4183140767455196e-09
392 -3.1498221986932148e-09 4.554247812662156e-10 -9.048458054554783e-16
419 8.869125834615624e-10 -4.272835844374983e-09 -1.805467315083126e-10
420 2.202865687905862e-09 1.2614129596658296e-09 2.4183151523480404e-09
390 -1.3109525707524388e-10 -1.3025720496958554e-09 -1.100640852841316e-09
391 -3.3526036507234308e-09 7.177554622777999e-09 6.670735416729274e-17
107 -1.0691573175061093e-09 -4.8370171289648006e-09 -6.260554762070337e-16
423 -9.038444463115604e-10 2.661388293191844e-09 -5.408135205964905e-09
422 -1.3432832790950837e-09 6.326991877843405e-09 6.958111966828175e-09
396 -3.4382835014769526e-09 -2.4339079880184023e-09 3.6805214519202565e-16
395 5.242280991340368e-09 4.905220651466635e-09 2.626753455931164e-17
394 -9.038402503118757e-10 2.661387341422447e-09 5.408136863728014e-09
393 -1.3432835492665648e-09 6.326990848141274e-09 -6.958112131364982e-09
425 4.711781332887849e-10 4.71172108727591e-10 3.4362271584678463e-10
424 -6.152281247721345e-10 -6.15224933127255e-10 -2.304590076456362e-09
400 6.539117628367847e-09 2.148599646641267e-09 -1.0693076444200214e-15
399 2.148607721167316e-09 6.539118645096614e-09 5.429074832732871e-16
398 4.711792398907497e-10 4.711730245782779e-10 -3.436223108060102e-10
397 -6.152286867853146e-10 -6.152223608126464e-10 2.304588611278678e-09
384 -1.910539013854889e-09 6.5941028782541255e-09 -1.5700297489254518e-15
119 6.594107873247525e-09 -1.910535421372488e-09 1.6874151507142705e-16
431 -3.3160099096722775e-09 -1.410078925182515e-09 -3.0481273728036827e-09
432 9.964078189162264e-10 -3.4665121861715135e-09 -1.5082805204742102e-09
434 6.9712214357930864e-09 -2.1475301676093422e-09 3.0903685422240207e-09
451 3.83950149044243e-09 -2.8294186989626526e-09 -2.552683477517321e-09
462 -1.3251220103681743e-09 -1.4763219315427688e-09 -1.1316211645510013e-08
463 2.4098701221361197e-09 9.402343126791962e-10 1.4129981760143958e-09
465 5.80641499512921e-09 2.8128089773315815e-09 -1.2021457253068442e-09
468 2.1045080701776715e-09 -8.594395782154453e-10 3.787031016753642e-10
428 -3.829615812801496e-09 -3.9780665348515526e-09 5.457700484500911e-09
433 -2.212365039677196e-09 4.531542886140772e-09 7.531356197214247e-09
436 -2.1130733439347154e-09 2.1130739886373517e-09 -2.2854847885653895e-10
466 4.563682069683431e-09 -4.910902680792428e-09 -4.8849694002863705e-09
467 -2.2633238885425724e-09 1.8637491638171865e-09 -5.357840678730803e-09
469 -2.072363434249438e-09 9.221049101601416e-10 5.447588699343605e-09
472 -2.4476313767774663e-11 2.4475296468225432e-11 4.484721820906639e-09
435 -3.943229384414507e-09 3.9432293819689785e-09 3.888413006267731e-09
470 -9.221031188099997e-10 2.0723636430364937e-09 5.447587688117279e-09
471 2.9900027093449547e-10 -2.9900362589487213e-10 1.7336528129470419e-09
437 3.829615500943833e-09 3.978060692750697e-09 5.4577053264213386e-09
438 3.9780615520857995e-09 3.829618128717652e-09 5.4577009134620185e-09
473 -2.5406288459636256e-09 -2.540634171714849e-09 4.6635853810474564e-09
474 -1.352929802945832e-09 -1.352933180268e-09 -4.171747637000041e-09
475 9.866136443423287e-10 -9.220864774877543e-10 4.862741143266893e-10
476 -9.220881144033389e-10 9.866138058236788e-10 4.862742123491678e-10
461 -3.839500816699134e-09 2.8294190853562666e-09 -2.552684722291686e-09
464 1.3082634992430552e-09 -6.098100996045728e-09 -3.492113333364883e-09
439 6.704609680135574e-09 1.4632575794978537e-09 3.1223199163552496e-09
440 -9.305354001035667e-10 8.902150143098917e-10 -1.179960422997908e-09
477 1.9209051866282824e-09 2.5704730486868146e-09 -8.386951190454376e-10
478 1.9782677715252597e-09 -2.3874484478120165e-10 -4.212502106508679e-09
479 5.7132497624199455e-09 5.913974595614124e-09 -1.8544185609284088e-09
480 7.107974491799646e-10 2.644458775362061e-09 3.017962559673402e-09
441 -3.144643642343677e-10 -1.8535175362623343e-10 4.614511013458481e-09
442 1.943665821082168e-09 -6.63418050553446e-09 4.947227958460993e-10
444 1.6213621032804613e-09 -1.6213591722334068e-09 5.098442470274201e-09
481 8.134315325277631e-10 5.92518001348346e-10 -9.458318927888793e-09
482 1.1243393226782358e-09 -2.6349205523965987e-09 4.880914120404259e-09
483 -1.3526975066537556e-09 2.4491936014002218e-09 -2.4120802691541747e-09
485 -3.4621035999536214e-09 5.4222879484434145e-09 9.306153120499813e-10
488 -1.0519398481698895e-09 1.0519347657488213e-09 9.496296296171704e-10
205 2.6349205817429493e-09 -1.12433383429932e-09 4.880912550680202e-09
491 -1.8637475376879104e-09 2.2633240749741718e-09 -5.357844128504133e-09
490 -2.8128072537588992e-09 -5.806413894641068e-09 -1.202143210080058e-09
443 4.902866687339665e-09 -4.902863150235724e-09 -6.660230910717693e-09
446 2.1475240826993224e-09 -6.97122195967678e-09 3.090368891425784e-09
486 -5.422287904722415e-09 3.4621004050020385e-09 9.306098497713878e-10
487 -2.1756655317096813e-09 2.1756639337205362e-09 1.0904377410495242e-08
489 4.910901257244453e-09 -4.5636813502978195e-09 -4.8849686722183015e-09
492 8.594442746978536e-10 -2.1045048420026994e-09 3.786988427862556e-10
445 -4.531539525058362e-09 2.212361110838703e-09 7.531357000026674e-09
207 -2.449193751409795e-09 1.3526977810890308e-09 -2.4120795318058126e-09
496 5.913973992423988e-09 5.713252426671167e-09 -1.8544175753801395e-09
495 2.644459954281141e-09 7.107994861302578e-10 3.0179636665792663e-09
494 -2.387428092129368e-10 1.9782671909726512e-09 -4.212500775824578e-09
493 2.570472465456834e-09 1.9209025297458886e-09 -8.386938518852039e-10
448 1.4632552924393077e-09 6.704615903052636e-09 3.1223171558596763e-09
447 8.902165090696131e-10 -9.305357274574429e-10 -1.179961941571953e-09
213 2.829414168146936e-09 -3.839503669408951e-09 -2.5526822376340144e-09
215 -6.0981007605823425e-09 1.308265239160661e-09 -3.492114306685506e-09
500 4.037365824809705e-09 -6.905229357105574e-09 -1.3944277944465232e-09
499 -6.905225608411861e-09 4.037366098403285e-09 -1.3944225059896196e-09
498 -5.497868963191172e-09 -5.497868143938889e-09 -2.292021380602207e-09
497 1.8972866800938907e-09 1.897287646617662e-09 -2.0458411961350706e-09
450 -1.7760529966066731e-09 -7.608377448630139e-10 -4.542285836560383e-09
449 -7.608373578580174e-10 -1.7760521339462463e-09 -4.542285966931987e-09
484 -4.3745257125056687e-11 -4.398379214679479e-09 -1.5372811048838582e-09
201 4.225470784560078e-09 4.225466707862895e-09 1.363403328462508e-08
219 -4.398378135436872e-09 -4.3746008208213445e-11 -1.5372802397779023e-09
