LAMMPS data file via write_data, version 29 Aug 2024, timestep = 28, units = metal

500 atoms
3 atom types

0 17.565162386252876 xlo xhi
0 17.565162386252876 ylo yhi
0 17.565162386252876 zlo zhi

Masses

1 55.6285
2 58.71
3 58.71

Atoms # atomic

1 2 0.0027771570627496164 0.0027771570627490457 2.2464217782663855e-17 0 0 0
2 3 1.753739081562537 1.7537390815625387 0 0 0 0
3 1 1.7521902422591724 0.0043259963661133865 1.7475984859359115 0 0 0
4 1 0.004325996366115951 1.7521902422591724 1.747598485935911 0 0 0
5 1 3.507082077948032 0.004260282850843204 3.691430850241153e-16 0 0 0
8 1 3.5078828973578906 1.7558988783257534 1.751673709325801 0 0 0
21 1 0.004260282850844455 3.507082077948032 0 0 0 0
23 1 1.7558988783257532 3.5078828973578906 1.7516737093258006 0 0 0
25 1 3.508455304681771 3.5084553046817706 5.999512273687168e-16 0 0 0
51 1 0.0007047542511247409 0.0007047542511245933 3.5099269643813606 0 0 0
52 1 1.755811484374163 1.7558114843741623 3.5099269643813606 0 0 0
53 1 1.75613471455424 0.000381524071046365 5.26879227410967 0 0 0
54 1 0.00038152407104616494 1.7561347145542399 5.26879227410967 0 0 0
55 1 3.511628146926588 0.0006857430887447903 3.5112015175290505 0 0 0
58 1 3.512247749366694 1.7563157496390829 5.268742443254504 0 0 0
71 1 0.0006857430887445674 3.511628146926589 3.5112015175290514 0 0 0
73 1 1.7563157496390827 3.5122477493666944 5.268742443254505 0 0 0
75 1 3.5119238677369378 3.511923867736938 3.5115390753982743 0 0 0
6 1 5.267281919118637 1.7562166890110078 4.955081733020525e-17 0 0 0
7 1 5.268212848720998 0.0006777435178987749 1.7554800622143978 0 0 0
9 1 7.025753670473907 0.0003837173782388823 1.2035225204338034e-20 0 0 0
12 1 7.025629598196226 1.756437557310435 1.7560509683360135 0 0 0
27 1 5.268193598948261 3.512036432176333 1.7557043412021525 0 0 0
29 1 7.02556376689367 3.512510464753522 3.230049606973686e-16 0 0 0
56 1 5.268503751292724 1.7563309886425522 3.5119755984864147 0 0 0
57 1 5.268801912670981 0.00019427221915387864 5.268785569876105 0 0 0
59 1 7.025511920170657 0.00019124664279731915 3.5124584487445722 0 0 0
62 1 7.0255764026749565 1.7564273258263579 5.2690352830533 0 0 0
77 1 5.268906916838161 3.5126351647010785 5.2688977305933955 0 0 0
79 1 7.0255324180420295 3.512694577610721 3.5125090238491072 0 0 0
11 1 8.782482847966307 9.760144561117531e-05 1.7563901419439316 0 0 0
31 1 8.78248874694446 3.512843064023087 1.756361919205735 0 0 0
60 1 8.782416392962375 1.7564548176768422 3.512745857850002 0 0 0
61 1 8.78241566077697 8.609230186307894e-05 5.269217422781534 0 0 0
81 1 8.782423406942183 3.512832959216063 5.269242446833902 0 0 0
10 1 8.782619828858413 1.7564969568222992 3.4888260487057123e-16 0 0 0
13 1 10.539058796019749 1.9281802986661126e-05 3.706849362936114e-19 0 0 0
14 1 12.295924954404256 1.7561325212470464 0 0 0 0
15 1 12.296049026681937 7.868131485265442e-05 1.7560509683360142 0 0 0
16 1 10.539195776911855 1.7564186371796762 1.756390141943931 0 0 0
33 1 10.539267633532429 3.512822952780402 1.7823122497309018e-19 0 0 0
35 1 12.29609506302018 3.512553091149028 1.7562300399611916 0 0 0
63 1 10.539262231915789 6.142094844412425e-05 3.512745857850002 0 0 0
64 1 12.296166704707506 1.7563249919824888 3.5124584487445714 0 0 0
65 1 12.296102222203205 8.891279892949269e-05 5.269035283053299 0 0 0
66 1 10.539262964101193 1.7564301463234235 5.2692174227815345 0 0 0
83 1 10.539258680779048 3.512811383826478 3.5127759056479837 0 0 0
85 1 12.296049662744654 3.512732397966295 5.269093186785768 0 0 0
17 1 14.054396705759526 0.0002995496142806304 4.385716252918234e-16 0 0 0
18 1 15.814596546930131 1.7522559557744426 0 0 0 0
19 1 15.81379572752027 0.000617360299534099 1.7516737093258004 0 0 0
20 1 14.053465776157164 1.7558384951073875 1.7554800622143973 0 0 0
37 1 14.05311348088636 3.5120122427583422 0 0 0 0
39 1 15.810385888682793 3.51129273619537 1.7551024595292977 0 0 0
67 1 14.053174873585439 0.00018524998273584015 3.5119755984864134 0 0 0
68 1 15.810050477951574 1.7558304955365414 3.511201517529052 0 0 0
69 1 15.809430875511469 0.00020048898620413265 5.268742443254505 0 0 0
70 1 14.052876712207182 1.7563219664061314 5.268785569876104 0 0 0
87 1 14.05300657533635 3.512367872818316 3.5121526501316125 0 0 0
89 1 15.809253583089166 3.5124250417889953 5.26870361030711 0 0 0
22 1 1.7562166890110074 5.267281919118637 0 0 0 0
24 1 0.0006777435178984819 5.2682128487209985 1.7554800622143973 0 0 0
28 1 3.5120364321763335 5.26819359894826 1.7557043412021522 0 0 0
41 1 0.0003837173782388831 7.025753670473907 0 0 0 0
42 1 1.756437557310434 7.025629598196226 1.7560509683360142 0 0 0
43 1 3.5125104647535226 7.02556376689367 5.548238819199833e-19 0 0 0
72 1 1.7563309886425513 5.268503751292724 3.5119755984864143 0 0 0
74 1 0.00019427221915532933 5.26880191267098 5.268785569876104 0 0 0
78 1 3.5126351647010785 5.268906916838161 5.2688977305933955 0 0 0
91 1 0.0001912466427969526 7.025511920170657 3.512458448744572 0 0 0
92 1 1.7564273258263572 7.0255764026749565 5.2690352830533 0 0 0
93 1 3.5126945776107203 7.0255324180420295 3.5125090238491077 0 0 0
252 1 9.760144561074251e-05 8.782482847966307 1.7563901419439303 0 0 0
254 1 3.512843064023086 8.78248874694446 1.7563619192057354 0 0 0
301 1 1.7564548176768422 8.782416392962375 3.512745857850003 0 0 0
302 1 8.609230186228144e-05 8.78241566077697 5.269217422781535 0 0 0
304 1 3.512832959216062 8.782423406942183 5.269242446833903 0 0 0
26 1 5.268653867911285 5.268653867911285 5.853424408105536e-16 0 0 0
32 1 7.025542206002711 5.269003314326264 1.756264580185765 0 0 0
44 1 5.269003314326264 7.025542206002711 1.7562645801857648 0 0 0
45 1 7.025653398166293 7.025653398166292 8.310308946798056e-16 0 0 0
76 1 5.268864596937126 5.268864596937127 3.51240122350478 0 0 0
82 1 7.025705246837999 5.269208343384588 5.2691788203356165 0 0 0
94 1 5.269208343384587 7.025705246838 5.269178820335616 0 0 0
95 1 7.025722163904197 7.025722163904196 3.5127430777736404 0 0 0
30 1 8.782422473867085 5.269235033014373 8.278480712033365e-17 0 0 0
46 1 8.782431664607309 7.0257877403120474 1.7563850457560026 0 0 0
80 1 8.782431567310768 5.269268447361766 3.5127835078693623 0 0 0
96 1 8.782474808869107 7.025851844125326 5.269330966270261 0 0 0
253 1 5.269235033014373 8.782422473867085 1.3395250611350974e-16 0 0 0
256 1 7.025787740312048 8.782431664607309 1.756385045756003 0 0 0
303 1 5.269268447361766 8.782431567310768 3.5127835078693628 0 0 0
306 1 7.025851844125326 8.782474808869107 5.26933096627026 0 0 0
255 1 8.782464936694065 8.782464936694065 4.442273544382746e-16 0 0 0
305 1 8.782480578739406 8.782480578739408 3.5128473961743047 0 0 0
34 1 12.296098146729285 5.269051128995092 2.7843761893044585e-16 0 0 0
36 1 10.53926144544865 5.269260200993631 1.7563758063279076 0 0 0
47 1 10.539226010743183 7.025801743146227 2.1573079127518516e-16 0 0 0
48 1 12.295970501706044 7.025708123172117 1.7563560795282027 0 0 0
84 1 12.296037666939633 5.269128565267321 3.5126712957752555 0 0 0
86 1 10.53922306397675 5.269291463793446 5.269293840903435 0 0 0
97 1 10.539210646564605 7.025828891748518 3.5128274181798322 0 0 0
98 1 12.29587871519565 7.0257999096825134 5.269282450095197 0 0 0
257 1 12.295876881731935 8.782452614134979 9.58435266856127e-19 0 0 0
258 1 10.539198130518155 8.782480494360007 1.75640630374814 0 0 0
307 1 12.295849733129645 8.782467978313559 3.5128274181798322 0 0 0
308 1 10.53917708632864 8.782501538549523 5.269364853491004 0 0 0
38 1 15.809666382119818 5.268565143991804 4.741878730509184e-19 0 0 0
40 1 14.052918130247273 5.2687604946308895 1.7561339422734619 0 0 0
49 1 14.052627495883069 7.025580478148876 1.3967005956373598e-16 0 0 0
50 1 15.809125533729135 7.025583561857983 1.7562300399611928 0 0 0
88 1 15.809310752059847 5.268672049541814 3.512152650131611 0 0 0
90 1 14.05260978827949 5.269068836598671 5.26902531274947 0 0 0
99 1 14.052550059610843 7.02564095793853 3.5126712957752555 0 0 0
100 1 15.808946226911868 7.02562896213351 5.269093186785769 0 0 0
259 1 15.80885567209776 8.782410991345733 2.5996086441370154e-19 0 0 0
260 1 14.052418423884532 8.782417179429512 1.756375806327909 0 0 0
309 1 15.808867241051683 8.782419944099113 3.5127759056479833 0 0 0
310 1 14.052387161084717 8.782455560901411 5.269293840903436 0 0 0
101 1 0.00010222728485470071 0.00010222728485485678 7.025974525739664 0 0 0
102 1 1.7564140113404318 1.7564140113404314 7.025974525739664 0 0 0
103 1 1.7564804505885503 3.578803673726199e-05 8.782581193126438 0 0 0
104 1 3.578803673595319e-05 1.7564804505885494 8.782581193126438 0 0 0
105 1 3.512728480502144 0.00010543765898433199 7.025771368880985 0 0 0
108 1 3.512883267427533 1.7564489602761275 8.782581193126438 0 0 0
121 1 0.0001054376589840136 3.5127284805021435 7.025771368880985 0 0 0
123 1 1.7564489602761273 3.5128832674275334 8.782581193126438 0 0 0
125 1 3.5127600472609313 3.512760047260931 7.025778541552794 0 0 0
151 1 0.0001022272848541433 0.00010222728485651993 10.539187860513213 0 0 0
152 1 1.7564140113404307 1.7564140113404316 10.539187860513213 0 0 0
153 1 3.5127284805021444 0.00010543765898442984 10.539391017371893 0 0 0
161 1 0.0001054376589853527 3.512728480502145 10.539391017371893 0 0 0
163 1 3.5127600472609313 3.512760047260931 10.539383844700083 0 0 0
106 1 5.269144624879201 1.7564247254912606 7.02571025916336 0 0 0
107 1 5.269273131263231 6.997702848999504e-05 8.782581193126438 0 0 0
109 1 7.025719998203772 8.819572676483658e-05 7.025763021453967 0 0 0
112 1 7.02579721997996 1.756447164211103 8.782581193126438 0 0 0
127 1 5.269293982028109 3.5128430747142207 8.782581193126438 0 0 0
129 1 7.025757584176083 3.51282498699709 7.025799588133349 0 0 0
154 1 5.269144624879201 1.7564247254912604 10.539452127089515 0 0 0
155 1 7.025719998203773 8.819572676443248e-05 10.539399364798909 0 0 0
165 1 7.025757584176083 3.51282498699709 10.539362798119527 0 0 0
110 1 8.782449960062307 1.756448806905224 7.025844074497639 0 0 0
111 1 8.782466591252929 6.684487995711457e-05 8.782581193126438 0 0 0
131 1 8.782481464830871 3.5128612373243118 8.782581193126438 0 0 0
156 1 8.782449960062305 1.7564488069052235 10.539318311755238 0 0 0
113 1 10.539228664815857 6.743172006257474e-05 7.025844074497638 0 0 0
114 1 12.29595862667439 1.7564280428985228 7.025763021453967 0 0 0
115 1 12.295881404898203 6.907441418270698e-05 8.782581193126438 0 0 0
116 1 10.539212033625233 1.756449393745329 8.782581193126438 0 0 0
133 1 10.539218177209023 3.5128461654892185 7.025862854276195 0 0 0
135 1 12.295870330002584 3.5128435923361145 8.782581193126438 0 0 0
157 1 10.539228664815857 6.743172006425665e-05 10.539318311755238 0 0 0
158 1 12.295958626674388 1.7564280428985217 10.539399364798909 0 0 0
167 1 10.539218177209023 3.512846165489219 10.539299531976683 0 0 0
117 1 14.05253399999896 9.151313402669041e-05 7.02571025916336 0 0 0
118 1 15.80895014437602 1.7564108009663015 7.025771368880986 0 0 0
119 1 15.808795357450629 6.72783491610529e-05 8.782581193126438 0 0 0
120 1 14.052405493614932 1.756446261596796 8.782581193126438 0 0 0
137 1 14.052510091143715 3.512770256709443 7.025719889224088 0 0 0
139 1 15.808833040288148 3.5128455845900133 8.782581193126438 0 0 0
159 1 14.052533999998962 9.1513134025887e-05 10.539452127089515 0 0 0
160 1 15.808950144376018 1.7564108009663015 10.53939101737189 0 0 0
169 1 14.052510091143713 3.5127702567094428 10.539442497028787 0 0 0
122 1 1.7564247254912604 5.269144624879201 7.025710259163361 0 0 0
124 1 6.997702849119555e-05 5.2692731312632315 8.782581193126438 0 0 0
128 1 3.5128430747142207 5.26929398202811 8.782581193126438 0 0 0
141 1 8.819572676398956e-05 7.025719998203773 7.025763021453967 0 0 0
142 1 1.7564471642111024 7.025797219979959 8.782581193126438 0 0 0
143 1 3.512824986997089 7.025757584176083 7.025799588133348 0 0 0
162 1 1.7564247254912604 5.2691446248792 10.539452127089515 0 0 0
171 1 8.81957267646062e-05 7.025719998203772 10.539399364798909 0 0 0
172 1 3.51282498699709 7.025757584176083 10.539362798119527 0 0 0
351 1 1.7564488069052238 8.782449960062305 7.0258440744976385 0 0 0
352 1 6.684487995772356e-05 8.782466591252929 8.782581193126438 0 0 0
354 1 3.512861237324312 8.782481464830873 8.782581193126438 0 0 0
401 1 1.7564488069052229 8.782449960062307 10.539318311755238 0 0 0
126 1 5.269241160669358 5.269241160669357 7.025792465958774 0 0 0
132 1 7.025852732232016 5.269322634483605 8.782581193126438 0 0 0
144 1 5.269322634483604 7.025852732232015 8.782581193126438 0 0 0
145 1 7.0258536158318945 7.025853615831893 7.025894511418584 0 0 0
164 1 5.269241160669357 5.269241160669358 10.539369920294103 0 0 0
173 1 7.025853615831894 7.025853615831893 10.539267874834293 0 0 0
130 1 8.782480686637603 5.2693233595625015 7.025895784289104 0 0 0
146 1 8.782509201628269 7.025893957391282 8.782581193126438 0 0 0
166 1 8.782480686637605 5.2693233595625015 10.53926660196377 0 0 0
353 1 5.269323359562501 8.782480686637607 7.025895784289104 0 0 0
356 1 7.025893957391283 8.782509201628269 8.782581193126438 0 0 0
402 1 5.269323359562501 8.782480686637605 10.53926660196377 0 0 0
355 1 8.78251060418809 8.78251060418809 7.025948773189816 0 0 0
403 1 8.78251060418809 8.782510604188092 10.539213613063058 0 0 0
134 1 12.295879791494595 5.269279141816656 7.025844266889845 0 0 0
136 1 10.539188147185104 5.269333363562615 8.782581193126438 0 0 0
147 1 10.539179542822295 7.025880267622526 7.0259301031016825 0 0 0
148 1 12.295810273254936 7.025868351623226 8.782581193126438 0 0 0
168 1 12.295879791494595 5.269279141816655 10.539318119363031 0 0 0
174 1 10.539179542822295 7.025880267622526 10.539232283151192 0 0 0
357 1 12.295798357255638 8.782499082055867 7.0259301031016825 0 0 0
358 1 10.539164194814768 8.782514430063392 8.782581193126438 0 0 0
404 1 12.295798357255636 8.782499082055867 10.539232283151192 0 0 0
138 1 15.80890836816872 5.269168533734448 7.025719889224089 0 0 0
140 1 14.05239533059004 5.2692832942881225 8.782581193126438 0 0 0
149 1 14.052399483061507 7.025798833383567 7.025844266889845 0 0 0
150 1 15.808835032542047 7.02580829487558 8.782581193126438 0 0 0
170 1 15.808908368168717 5.269168533734448 10.539442497028789 0 0 0
175 1 14.052399483061507 7.0257988333835675 10.539318119363031 0 0 0
359 1 15.808832459388944 8.782460447669141 7.025862854276195 0 0 0
360 1 14.05234526131555 8.78249047769306 8.782581193126438 0 0 0
405 1 15.808832459388944 8.782460447669141 10.539299531976681 0 0 0
176 1 1.756134714554239 0.0003815240710461376 12.296370112143205 0 0 0
177 1 0.0003815240710475681 1.7561347145542394 12.296370112143206 0 0 0
179 1 3.5122477493666944 1.756315749639083 12.296419942998371 0 0 0
186 1 1.7563157496390827 3.512247749366695 12.29641994299837 0 0 0
201 1 0.000704754251124539 0.0007047542511240028 14.055235421871517 0 0 0
202 1 1.7558114843741632 1.7558114843741626 14.055235421871517 0 0 0
203 1 1.752190242259172 0.004325996366113904 15.817563900316964 0 0 0
204 1 0.00432599636611524 1.7521902422591726 15.817563900316964 0 0 0
205 1 3.511628146926588 0.0006857430887442916 14.053960868723825 0 0 0
208 1 3.50788289735789 1.7558988783257532 15.813488676927074 0 0 0
221 1 0.000685743088745168 3.511628146926589 14.053960868723827 0 0 0
223 1 1.7558988783257528 3.5078828973578897 15.813488676927074 0 0 0
225 1 3.5119238677369387 3.511923867736938 14.0536233108546 0 0 0
178 1 5.268801912670981 0.00019427221915451493 12.29637681637677 0 0 0
181 1 7.0255764026749565 1.7564273258263576 12.296127103199575 0 0 0
188 1 5.26890691683816 3.512635164701078 12.29626465565948 0 0 0
206 1 5.268503751292724 1.7563309886425515 14.05318678776646 0 0 0
207 1 5.268212848720998 0.0006777435178981754 15.809682324038478 0 0 0
209 1 7.025511920170657 0.00019124664279794636 14.052703937508303 0 0 0
212 1 7.025629598196226 1.756437557310435 15.809111417916862 0 0 0
227 1 5.268193598948261 3.512036432176333 15.809458045050722 0 0 0
229 1 7.0255324180420295 3.512694577610721 14.052653362403769 0 0 0
180 1 8.78241566077697 8.609230186285156e-05 12.29594496347134 0 0 0
190 1 8.782423406942183 3.512832959216064 12.295919939418972 0 0 0
210 1 8.782416392962373 1.7564548176768422 14.052416528402874 0 0 0
211 1 8.782482847966307 9.760144561153593e-05 15.808772244308944 0 0 0
231 1 8.78248874694446 3.5128430640230874 15.808800467047142 0 0 0
182 1 12.296102222203205 8.891279892957738e-05 12.296127103199577 0 0 0
183 1 10.539262964101193 1.7564301463234238 12.29594496347134 0 0 0
192 1 12.296049662744652 3.5127323979662948 12.296069199467107 0 0 0
213 1 10.539262231915789 6.142094844392833e-05 14.052416528402874 0 0 0
214 1 12.296166704707506 1.7563249919824888 14.052703937508303 0 0 0
215 1 12.296049026681937 7.868131485192402e-05 15.809111417916862 0 0 0
216 1 10.539195776911855 1.7564186371796757 15.808772244308944 0 0 0
233 1 10.539258680779048 3.512811383826479 14.052386480604893 0 0 0
235 1 12.296095063020179 3.5125530911490284 15.808932346291686 0 0 0
184 1 15.809430875511469 0.00020048898620364476 12.29641994299837 0 0 0
185 1 14.052876712207182 1.7563219664061325 12.296376816376771 0 0 0
194 1 15.809253583089166 3.5124250417889957 12.296458775945766 0 0 0
217 1 14.053174873585439 0.00018524998273608344 14.053186787766462 0 0 0
218 1 15.810050477951574 1.755830495536542 14.053960868723825 0 0 0
219 1 15.81379572752027 0.0006173602995343168 15.813488676927074 0 0 0
220 1 14.053465776157166 1.7558384951073867 15.809682324038478 0 0 0
237 1 14.05300657533635 3.5123678728183165 14.053009736121263 0 0 0
239 1 15.810385888682793 3.511292736195369 15.810059926723577 0 0 0
187 1 0.00019427221915575027 5.26880191267098 12.29637681637677 0 0 0
189 1 3.512635164701079 5.268906916838161 12.296264655659481 0 0 0
196 1 1.7564273258263572 7.0255764026749565 12.296127103199577 0 0 0
222 1 1.7563309886425509 5.268503751292725 14.053186787766462 0 0 0
224 1 0.0006777435178996665 5.268212848720998 15.809682324038478 0 0 0
228 1 3.512036432176334 5.268193598948262 15.809458045050723 0 0 0
241 1 0.0001912466427982403 7.025511920170657 14.052703937508303 0 0 0
242 1 1.7564375573104347 7.025629598196226 15.80911141791686 0 0 0
243 1 3.5126945776107217 7.0255324180420295 14.052653362403769 0 0 0
426 1 8.609230186327024e-05 8.78241566077697 12.29594496347134 0 0 0
427 1 3.5128329592160634 8.782423406942183 12.295919939418972 0 0 0
451 1 1.7564548176768413 8.782416392962375 14.052416528402874 0 0 0
452 1 9.760144561181721e-05 8.782482847966307 15.808772244308946 0 0 0
454 1 3.512843064023087 8.78248874694446 15.808800467047142 0 0 0
191 1 7.025705246838 5.269208343384588 12.29598356591726 0 0 0
197 1 5.269208343384587 7.025705246837999 12.29598356591726 0 0 0
226 1 5.268864596937126 5.268864596937127 14.052761162748098 0 0 0
232 1 7.0255422060027115 5.269003314326264 15.808897806067112 0 0 0
244 1 5.269003314326264 7.025542206002711 15.80889780606711 0 0 0
245 1 7.025722163904196 7.025722163904197 14.052419308479235 0 0 0
198 1 8.782474808869107 7.025851844125326 12.295831419982614 0 0 0
230 1 8.782431567310768 5.269268447361767 14.052378878383514 0 0 0
246 1 8.782431664607309 7.0257877403120474 15.808777340496873 0 0 0
428 1 7.025851844125326 8.782474808869107 12.295831419982614 0 0 0
453 1 5.269268447361766 8.782431567310768 14.052378878383514 0 0 0
456 1 7.0257877403120474 8.782431664607309 15.808777340496873 0 0 0
455 1 8.782480578739406 8.782480578739408 14.052314990078573 0 0 0
193 1 10.539223063976749 5.269291463793445 12.295868545349439 0 0 0
199 1 12.29587871519565 7.025799909682515 12.295879936157677 0 0 0
234 1 12.29603766693963 5.26912856526732 14.05249109047762 0 0 0
236 1 10.53926144544865 5.269260200993631 15.808786579924968 0 0 0
247 1 10.539210646564603 7.025828891748518 14.052334968073044 0 0 0
248 1 12.295970501706044 7.025708123172118 15.808806306724673 0 0 0
429 1 10.53917708632864 8.782501538549523 12.295797532761872 0 0 0
457 1 12.295849733129645 8.782467978313559 14.052334968073044 0 0 0
458 1 10.539198130518157 8.782480494360005 15.808756082504734 0 0 0
195 1 14.052609788279492 5.269068836598671 12.296137073503406 0 0 0
200 1 15.808946226911866 7.025628962133509 12.296069199467107 0 0 0
238 1 15.809310752059847 5.268672049541813 14.053009736121263 0 0 0
240 1 14.052918130247274 5.268760494630889 15.809028443979415 0 0 0
249 1 14.052550059610843 7.02564095793853 14.05249109047762 0 0 0
250 1 15.809125533729135 7.025583561857983 15.808932346291684 0 0 0
430 1 14.052387161084717 8.782455560901411 12.29586854534944 0 0 0
459 1 15.808867241051683 8.782419944099114 14.052386480604891 0 0 0
460 1 14.052418423884532 8.782417179429512 15.808786579924968 0 0 0
251 1 1.7564969568222988 8.782619828858415 3.154733406687107e-19 0 0 0
261 1 1.9281802988251237e-05 10.539058796019749 2.3731386967191828e-17 0 0 0
262 1 1.7561325212470473 12.295924954404256 3.4025185948043443e-16 0 0 0
263 1 1.7564186371796764 10.539195776911855 1.7563901419439312 0 0 0
264 1 7.868131485211018e-05 12.296049026681937 1.7560509683360144 0 0 0
265 1 3.512822952780403 10.539267633532429 2.6851041127553505e-17 0 0 0
268 1 3.512553091149029 12.296095063020179 1.7562300399611925 0 0 0
311 1 6.142094844451179e-05 10.53926223191579 3.512745857850002 0 0 0
312 1 1.756324991982489 12.296166704707504 3.512458448744572 0 0 0
313 1 1.7564301463234238 10.539262964101193 5.2692174227815345 0 0 0
314 1 8.891279892767437e-05 12.296102222203205 5.2690352830533 0 0 0
315 1 3.5128113838264774 10.539258680779048 3.5127759056479833 0 0 0
318 1 3.5127323979662957 12.296049662744654 5.269093186785768 0 0 0
266 1 5.269051128995093 12.296098146729285 6.842612966821427e-16 0 0 0
267 1 5.269260200993631 10.53926144544865 1.7563758063279071 0 0 0
269 1 7.025801743146225 10.539226010743185 7.107660763836047e-16 0 0 0
272 1 7.025708123172118 12.295970501706044 1.756356079528202 0 0 0
316 1 5.26912856526732 12.296037666939633 3.512671295775255 0 0 0
317 1 5.269291463793446 10.53922306397675 5.269293840903436 0 0 0
319 1 7.025828891748519 10.539210646564605 3.512827418179832 0 0 0
322 1 7.025799909682514 12.29587871519565 5.269282450095198 0 0 0
270 1 8.782452614134979 12.295876881731935 0 0 0 0
271 1 8.782480494360005 10.539198130518157 1.7564063037481408 0 0 0
320 1 8.782467978313557 12.295849733129645 3.5128274181798322 0 0 0
321 1 8.782501538549521 10.53917708632864 5.269364853491003 0 0 0
273 1 10.539213688184097 10.539213688184097 0 0 0 0
274 1 12.296025226711869 12.296025226711869 0 0 0 0
275 1 12.295890884566115 10.539246960270853 1.7563850457560028 0 0 0
276 1 10.539246960270855 12.295890884566115 1.7563850457560026 0 0 0
323 1 10.539198046138756 10.539198046138754 3.5128473961743047 0 0 0
324 1 12.295956460973963 12.295956460973965 3.51274307777364 0 0 0
325 1 12.295826780752837 10.539203816009055 5.269330966270261 0 0 0
326 1 10.539203816009055 12.295826780752837 5.26933096627026 0 0 0
277 1 14.05244359186379 10.53925615101108 5.335566182727758e-17 0 0 0
278 1 15.809168160124639 12.29611485798449 4.4223445036503353e-16 0 0 0
279 1 15.808835560855075 10.539189877933701 1.7563619192057351 0 0 0
280 1 14.052675310551898 12.296136418875452 1.7562645801857648 0 0 0
327 1 14.052410177516396 10.539247057567394 3.512783507869361 0 0 0
328 1 15.808984047267442 12.296146206836132 3.5125090238491072 0 0 0
329 1 15.8088456656621 10.539255217935981 5.269242446833903 0 0 0
330 1 14.052470281493575 12.295973378040163 5.2691788203356165 0 0 0
281 1 0.0002995496142801122 14.054396705759526 2.720633970670676e-16 0 0 0
282 1 1.7522559557744433 15.814596546930131 0 0 0 0
283 1 1.7558384951073878 14.053465776157164 1.7554800622143973 0 0 0
284 1 0.0006173602995344598 15.81379572752027 1.7516737093258006 0 0 0
285 1 3.5120122427583427 14.05311348088636 3.070920444464379e-16 0 0 0
288 1 3.5112927361953683 15.810385888682795 1.7551024595292977 0 0 0
331 1 0.00018524998273477131 14.05317487358544 3.511975598486414 0 0 0
332 1 1.7558304955365418 15.810050477951574 3.5112015175290514 0 0 0
333 1 1.756321966406132 14.052876712207182 5.268785569876104 0 0 0
334 1 0.0002004889862054389 15.809430875511469 5.268742443254505 0 0 0
335 1 3.5123678728183165 14.05300657533635 3.5121526501316134 0 0 0
338 1 3.5124250417889953 15.809253583089168 5.26870361030711 0 0 0
341 1 8.782455560901411 14.052387161084717 5.269293840903436 0 0 0
340 1 8.782419944099114 15.808867241051685 3.5127759056479833 0 0 0
291 1 8.782417179429512 14.052418423884532 1.7563758063279071 0 0 0
286 1 5.268565143991804 15.80966638211982 0 0 0 0
287 1 5.2687604946308895 14.052918130247273 1.756133942273462 0 0 0
289 1 7.025580478148877 14.05262749588307 1.7057004562695854e-16 0 0 0
292 1 7.025583561857983 15.809125533729135 1.7562300399611923 0 0 0
336 1 5.268672049541814 15.809310752059847 3.512152650131613 0 0 0
337 1 5.26906883659867 14.052609788279492 5.26902531274947 0 0 0
339 1 7.0256409579385295 14.052550059610843 3.5126712957752555 0 0 0
342 1 7.025628962133509 15.808946226911868 5.269093186785768 0 0 0
290 1 8.782410991345731 15.808855672097762 0 0 0 0
346 1 10.539255217935981 15.808845665662101 5.2692424468339025 0 0 0
345 1 12.295973378040163 14.052470281493576 5.269178820335616 0 0 0
344 1 12.296146206836132 15.80898404726744 3.5125090238491086 0 0 0
343 1 10.539247057567396 14.052410177516396 3.5127835078693623 0 0 0
296 1 10.539189877933701 15.808835560855075 1.7563619192057347 0 0 0
295 1 12.29613641887545 14.052675310551898 1.7562645801857646 0 0 0
294 1 12.29611485798449 15.809168160124639 1.7938509139667664e-17 0 0 0
293 1 10.53925615101108 14.05244359186379 0 0 0 0
350 1 14.05277170804 15.809043460177083 5.2688977305933955 0 0 0
349 1 15.809043460177083 14.052771708040002 5.268897730593396 0 0 0
348 1 15.809754757141224 15.809754757141224 3.5115390753982734 0 0 0
347 1 14.052814027941034 14.052814027941034 3.51240122350478 0 0 0
300 1 14.053485025929902 15.809642192701828 1.7557043412021525 0 0 0
299 1 15.80964219270183 14.053485025929902 1.7557043412021525 0 0 0
298 1 15.813223320196391 15.813223320196391 0 0 0 0
297 1 14.053024756966877 14.053024756966877 0 0 0 0
361 1 6.743172006409927e-05 10.539228664815857 7.0258440744976385 0 0 0
362 1 1.7564280428985226 12.29595862667439 7.025763021453968 0 0 0
363 1 1.756449393745329 10.539212033625233 8.782581193126438 0 0 0
364 1 6.907441418433445e-05 12.295881404898203 8.782581193126438 0 0 0
365 1 3.512846165489218 10.53921817720902 7.025862854276195 0 0 0
368 1 3.5128435923361145 12.295870330002584 8.782581193126438 0 0 0
406 1 6.743172006421787e-05 10.539228664815857 10.539318311755238 0 0 0
407 1 1.7564280428985226 12.295958626674391 10.539399364798909 0 0 0
408 1 3.512846165489219 10.53921817720902 10.539299531976681 0 0 0
366 1 5.269279141816656 12.295879791494595 7.0258442668898455 0 0 0
367 1 5.269333363562614 10.539188147185103 8.782581193126438 0 0 0
369 1 7.025880267622524 10.539179542822295 7.0259301031016825 0 0 0
372 1 7.025868351623225 12.295810273254938 8.782581193126436 0 0 0
409 1 5.269279141816656 12.295879791494595 10.539318119363031 0 0 0
410 1 7.025880267622526 10.539179542822295 10.539232283151192 0 0 0
370 1 8.782499082055867 12.29579835725564 7.0259301031016825 0 0 0
371 1 8.782514430063394 10.539164194814768 8.782581193126438 0 0 0
411 1 8.782499082055867 12.295798357255638 10.539232283151193 0 0 0
373 1 10.539168020690074 10.539168020690072 7.025948773189815 0 0 0
374 1 12.295825009046268 12.295825009046268 7.025894511418584 0 0 0
375 1 12.29578466748688 10.539169423249893 8.782581193126438 0 0 0
376 1 10.539169423249893 12.29578466748688 8.782581193126438 0 0 0
412 1 10.539168020690072 10.539168020690072 10.53921361306306 0 0 0
413 1 12.295825009046268 12.295825009046268 10.539267874834291 0 0 0
377 1 14.052355265315663 10.539197938240559 7.025895784289105 0 0 0
378 1 15.808853637881072 12.29592104070208 7.0257995881333475 0 0 0
379 1 15.808817387553848 10.539197160047289 8.782581193126438 0 0 0
380 1 14.052355990394558 12.295825892646146 8.782581193126438 0 0 0
414 1 14.052355265315663 10.539197938240557 10.539266601963769 0 0 0
415 1 15.808853637881073 12.295921040702082 10.539362798119527 0 0 0
381 1 9.151313402615602e-05 14.052533999998962 7.025710259163361 0 0 0
382 1 1.7564108009663018 15.808950144376018 7.025771368880984 0 0 0
383 1 1.7564462615967955 14.052405493614932 8.782581193126438 0 0 0
384 1 6.7278349158993e-05 15.808795357450629 8.782581193126436 0 0 0
385 1 3.512770256709443 14.052510091143713 7.025719889224088 0 0 0
388 1 3.512845584590015 15.808833040288148 8.782581193126438 0 0 0
416 1 9.151313402611483e-05 14.05253399999896 10.539452127089513 0 0 0
417 1 1.756410800966303 15.808950144376018 10.539391017371893 0 0 0
418 1 3.5127702567094428 14.052510091143713 10.539442497028789 0 0 0
421 1 8.782460447669141 15.808832459388944 10.539299531976681 0 0 0
391 1 8.78249047769306 14.052345261315548 8.782581193126438 0 0 0
390 1 8.782460447669141 15.808832459388945 7.025862854276195 0 0 0
386 1 5.2691685337344465 15.80890836816872 7.025719889224088 0 0 0
387 1 5.269283294288123 14.052395330590038 8.782581193126438 0 0 0
389 1 7.0257988333835675 14.052399483061505 7.0258442668898455 0 0 0
392 1 7.02580829487558 15.808835032542047 8.782581193126438 0 0 0
419 1 5.269168533734447 15.80890836816872 10.539442497028789 0 0 0
420 1 7.0257988333835675 14.052399483061507 10.539318119363031 0 0 0
423 1 12.295921040702082 15.808853637881073 10.539362798119525 0 0 0
422 1 10.539197938240557 14.052355265315661 10.53926660196377 0 0 0
396 1 10.539197160047289 15.80881738755385 8.782581193126438 0 0 0
395 1 12.295825892646148 14.052355990394558 8.782581193126438 0 0 0
394 1 12.29592104070208 15.808853637881073 7.025799588133348 0 0 0
393 1 10.539197938240559 14.052355265315661 7.025895784289104 0 0 0
425 1 15.80891857761723 15.80891857761723 10.539383844700083 0 0 0
424 1 14.052437464208804 14.052437464208806 10.539369920294103 0 0 0
400 1 14.05238464285005 15.808835550163943 8.78258119312644 0 0 0
399 1 15.808835550163943 14.052384642850052 8.782581193126438 0 0 0
398 1 15.808918577617233 15.808918577617233 7.025778541552794 0 0 0
397 1 14.052437464208804 14.052437464208802 7.025792465958773 0 0 0
431 1 1.756430146323424 10.539262964101193 12.29594496347134 0 0 0
432 1 8.891279892894507e-05 12.296102222203206 12.296127103199577 0 0 0
434 1 3.512732397966295 12.296049662744654 12.296069199467107 0 0 0
461 1 6.142094844449347e-05 10.539262231915789 14.052416528402874 0 0 0
462 1 1.7563249919824888 12.296166704707506 14.052703937508303 0 0 0
463 1 1.7564186371796762 10.539195776911855 15.808772244308944 0 0 0
464 1 7.868131485199146e-05 12.296049026681937 15.809111417916862 0 0 0
465 1 3.512811383826478 10.539258680779048 14.052386480604893 0 0 0
468 1 3.5125530911490284 12.296095063020179 15.808932346291684 0 0 0
433 1 5.269291463793446 10.539223063976749 12.295868545349439 0 0 0
436 1 7.0257999096825134 12.295878715195649 12.295879936157677 0 0 0
466 1 5.26912856526732 12.296037666939633 14.052491090477622 0 0 0
467 1 5.269260200993631 10.53926144544865 15.80878657992497 0 0 0
469 1 7.025828891748519 10.539210646564605 14.052334968073044 0 0 0
472 1 7.025708123172117 12.295970501706044 15.808806306724673 0 0 0
435 1 8.782501538549523 10.53917708632864 12.295797532761872 0 0 0
470 1 8.782467978313559 12.295849733129645 14.052334968073046 0 0 0
471 1 8.782480494360007 10.539198130518157 15.808756082504734 0 0 0
437 1 12.295826780752837 10.539203816009055 12.295831419982614 0 0 0
438 1 10.539203816009055 12.295826780752837 12.295831419982614 0 0 0
473 1 10.539198046138756 10.539198046138756 14.052314990078571 0 0 0
474 1 12.295956460973965 12.295956460973965 14.052419308479234 0 0 0
475 1 12.295890884566115 10.539246960270853 15.808777340496873 0 0 0
476 1 10.539246960270853 12.295890884566115 15.808777340496873 0 0 0
439 1 15.8088456656621 10.53925521793598 12.295919939418974 0 0 0
440 1 14.052470281493575 12.295973378040163 12.295983565917261 0 0 0
477 1 14.052410177516396 10.539247057567394 14.052378878383514 0 0 0
478 1 15.808984047267442 12.296146206836132 14.052653362403767 0 0 0
479 1 15.808835560855075 10.539189877933701 15.80880046704714 0 0 0
480 1 14.052675310551898 12.29613641887545 15.808897806067112 0 0 0
441 1 1.7563219664061323 14.052876712207182 12.296376816376771 0 0 0
442 1 0.000200488986204047 15.809430875511469 12.296419942998371 0 0 0
444 1 3.5124250417889953 15.809253583089168 12.296458775945766 0 0 0
481 1 0.00018524998273549982 14.053174873585439 14.053186787766462 0 0 0
482 1 1.7558304955365416 15.810050477951576 14.053960868723825 0 0 0
483 1 1.7558384951073869 14.053465776157164 15.809682324038478 0 0 0
484 1 0.0006173602995344288 15.81379572752027 15.813488676927074 0 0 0
485 1 3.512367872818317 14.05300657533635 14.053009736121263 0 0 0
488 1 3.5112927361953683 15.810385888682795 15.810059926723577 0 0 0
491 1 8.782417179429512 14.052418423884532 15.808786579924968 0 0 0
490 1 8.782419944099114 15.808867241051685 14.052386480604893 0 0 0
445 1 8.782455560901413 14.052387161084717 12.295868545349439 0 0 0
443 1 5.26906883659867 14.052609788279492 12.296137073503404 0 0 0
446 1 7.025628962133509 15.808946226911868 12.296069199467109 0 0 0
486 1 5.268672049541813 15.809310752059847 14.053009736121265 0 0 0
487 1 5.26876049463089 14.052918130247273 15.809028443979413 0 0 0
489 1 7.0256409579385295 14.052550059610843 14.05249109047762 0 0 0
492 1 7.0255835618579825 15.809125533729135 15.808932346291684 0 0 0
496 1 10.539189877933703 15.808835560855075 15.808800467047142 0 0 0
495 1 12.296136418875452 14.052675310551898 15.808897806067112 0 0 0
494 1 12.29614620683613 15.808984047267442 14.052653362403769 0 0 0
493 1 10.539247057567396 14.052410177516396 14.052378878383514 0 0 0
448 1 10.539255217935981 15.8088456656621 12.295919939418972 0 0 0
447 1 12.295973378040163 14.052470281493575 12.29598356591726 0 0 0
500 1 14.053485025929902 15.80964219270183 15.809458045050722 0 0 0
499 1 15.809642192701828 14.053485025929902 15.809458045050722 0 0 0
498 1 15.809754757141224 15.809754757141224 14.0536233108546 0 0 0
497 1 14.052814027941034 14.052814027941036 14.052761162748096 0 0 0
450 1 14.052771708040002 15.809043460177085 12.29626465565948 0 0 0
449 1 15.809043460177085 14.052771708040002 12.29626465565948 0 0 0

Velocities

1 -4.9334614050938924e-09 -4.933461090356333e-09 -1.18881849787753e-15
2 4.9334627153600356e-09 4.933456895566075e-09 -7.740149212799747e-16
3 2.968015172690833e-09 -2.9680147133213312e-09 -2.0104097095642326e-09
4 -2.9680187303034034e-09 2.968015670648276e-09 -2.0104075778249686e-09
5 4.130890791955029e-09 -6.782246215325999e-10 -8.883256559192436e-16
8 1.5322618930495223e-09 5.599860393275418e-09 5.687250451259663e-09
21 -6.782293430243171e-10 4.130892631445176e-09 -6.065753502986368e-16
23 5.59986091372163e-09 1.5322631553283884e-09 5.687252108854542e-09
25 -7.356443380702529e-11 -7.356330923922567e-11 -2.190644874866833e-15
51 -3.1258913216571264e-09 -3.1258910183694515e-09 -1.1218260252888132e-09
52 3.1258885728116898e-09 3.1258906678435175e-09 -1.1218241075508972e-09
53 3.050808481235505e-09 -3.0508066720402765e-09 6.237482972434881e-09
54 -3.0508066711376347e-09 3.0508088978047377e-09 6.237482355629589e-09
55 -9.197519080149574e-10 -2.2062100933182364e-09 -2.5910760347861754e-09
58 4.8287200029552e-10 3.920332845860269e-10 2.5575381136079074e-09
71 -2.206210613601962e-09 -9.197555160062283e-10 -2.5910786325395847e-09
73 3.9203443891764034e-10 4.828707765387773e-10 2.5575365976984233e-09
75 9.714958945524742e-10 9.714961983819696e-10 3.4758761417571876e-09
6 6.723389341398499e-09 2.32228073793349e-09 -3.419132260394908e-16
7 7.541411466654248e-09 -3.194956977930596e-09 5.506233776545742e-09
9 4.889743956528048e-10 -4.4778438894088244e-09 1.2035225204338034e-17
12 1.6838182429380975e-09 -4.727189401160984e-10 9.480125762610417e-10
27 2.856372245925735e-09 3.0919032802783595e-10 1.3030713697911162e-09
29 -3.410372125116245e-10 -1.1927744451892129e-09 -1.6849080223080975e-16
56 2.4038594724940657e-09 2.1860614568006744e-10 3.73326412462384e-09
57 3.217361672610203e-10 -3.304534121733073e-09 -1.9370260398470386e-09
59 -3.123116395473727e-09 -2.7592641048679686e-09 2.431530684882427e-09
62 -8.371476935836025e-10 4.744351925961866e-09 3.107293412713444e-09
77 2.095038896583485e-10 -1.4101522421615152e-09 1.166144104387012e-09
79 -2.8479520012939513e-09 -2.113854545411535e-09 2.7740251547411754e-09
11 2.663294590017698e-09 -5.485546079447015e-10 -4.99664667957941e-10
31 -6.879197003780302e-10 -3.612162361479783e-09 -9.160597049600944e-10
60 9.799720465801962e-10 3.2355325891394923e-09 1.8799023830960526e-09
61 2.2005287550582964e-09 -2.17632408344597e-09 2.8830203521681235e-09
81 2.410730314401368e-09 -1.9165335380181165e-09 -7.935897725464413e-10
10 -2.5153143456763305e-10 2.502241356656591e-09 -7.325691141565507e-16
13 2.51531393691354e-10 -2.502239950942287e-09 3.7068493629361142e-16
14 -4.889772179695303e-10 4.4778464064558125e-09 -6.922176132456195e-16
15 -1.6838199573218436e-09 4.727125275183355e-10 9.48010658664589e-10
16 -2.6632931491259236e-09 5.485524079055341e-10 -4.996647962835298e-10
33 -3.646721408465339e-09 -6.673635220095693e-10 1.7823122497309017e-16
35 2.1227905593377152e-09 -3.0190132875304116e-09 -1.3937414718271695e-09
63 -9.799741899057154e-10 -3.2355331427598515e-09 1.8799013488941068e-09
64 3.1231142047512813e-09 2.7592681727740875e-09 2.4315333958921243e-09
65 8.37150365688171e-10 -4.744350984903631e-09 3.107292005354287e-09
66 -2.2005280109313554e-09 2.176327487007658e-09 2.8830184722659466e-09
83 -1.8700067800992618e-10 -2.238047997771573e-09 1.4056519328887458e-09
85 4.13739355210005e-09 2.114985773305725e-09 -3.8301698016045275e-09
17 -6.723390788559109e-09 -2.322287670824969e-09 2.6537671575565364e-16
18 -4.1308905493512155e-09 6.782287268207866e-10 -1.9978473839201135e-16
19 -1.5322601740526649e-09 -5.599863939377247e-09 5.687251913282132e-09
20 -7.541407054390247e-09 3.1949592330309188e-09 5.506234289772876e-09
37 -5.288706760532863e-09 -9.581518113892205e-10 -3.1712818413430717e-16
39 -2.2006503322612026e-10 2.2006306771870284e-10 9.679710687680377e-10
67 -2.403858549698462e-09 -2.1861180720044388e-10 3.7332664708157734e-09
68 9.197548498565133e-10 2.2062118537943095e-09 -2.5910808322026516e-09
69 -4.828737817345108e-10 -3.9203692539516757e-10 2.5575356776054565e-09
70 -3.217370244323254e-10 3.304537809927837e-09 -1.9370229837272585e-09
87 -2.435389380319842e-09 -1.9674508226632885e-09 -4.726546640037358e-10
89 2.3682784539873546e-09 -2.368278411262305e-09 -1.3888584053124223e-09
22 2.32228307276718e-09 6.723390244032162e-09 -2.0406406016632725e-17
24 -3.1949574497114243e-09 7.541409124749864e-09 5.506233382617777e-09
28 3.0918895769521365e-10 2.856374409122984e-09 1.3030715283140724e-09
41 -4.4778448907395615e-09 4.889750415212849e-10 -6.917245686193284e-16
42 -4.727160083352387e-10 1.6838183635489188e-09 9.48010834463074e-10
43 -1.1927768114508245e-09 -3.410362470413079e-10 5.548238819199833e-16
72 2.1860888489732394e-10 2.4038599036272134e-09 3.733264154561463e-09
74 -3.3045375589933916e-09 3.2173862944243665e-10 -1.937023602413054e-09
78 -1.4101532134512018e-09 2.095038858502362e-10 1.1661443200931547e-09
91 -2.7592648149462555e-09 -3.1231153073765382e-09 2.431532858444099e-09
92 4.744352104083199e-09 -8.371489845285472e-10 3.10729089915666e-09
93 -2.113855511384097e-09 -2.8479518436736094e-09 2.7740241024816907e-09
252 -5.485547764378544e-10 2.6632956523566843e-09 -4.996615938605432e-10
254 -3.612161292573137e-09 -6.879204791428988e-10 -9.160604757749204e-10
301 3.2355308368107025e-09 9.799724113532982e-10 1.8799018143564415e-09
302 -2.17632614146948e-09 2.2005310349718686e-09 2.883015669562877e-09
304 -1.916532374677264e-09 2.4107307143293666e-09 -7.93594830697139e-10
26 5.117161831445571e-10 5.117152756821428e-10 -1.322985646708914e-15
32 -2.8923243761777016e-09 1.7619065909627732e-09 -1.95155639349847e-10
44 1.761906994626386e-09 -2.8923234244922687e-09 -1.9515505564142456e-10
45 4.049328345853554e-09 4.0493304197767244e-09 -1.4197052531667253e-15
76 9.584552257301293e-10 9.58453111463382e-10 2.2172450132337736e-09
82 -2.529621910447782e-09 1.151264544519188e-09 -3.6364940076380854e-09
94 1.1512668805246667e-09 -2.529622136677486e-09 -3.6364902265505403e-09
95 -5.543030848926429e-09 -5.543029466433137e-09 -1.6612676934629656e-09
30 2.9906171237384988e-09 5.203337845018557e-09 3.605954450078068e-16
46 1.5419149137104312e-09 -1.2120615440078668e-09 2.1954670770664568e-09
80 -1.4873780844758433e-09 -6.168332367947256e-10 -2.1805893199308044e-09
96 3.5003492085315044e-09 -3.4026696153816854e-09 -5.569369280123382e-09
253 5.203338771960084e-09 2.990615270008115e-09 1.516438375746592e-16
256 -1.2120641779345323e-09 1.5419145397821536e-09 2.1954645880314443e-09
303 -6.168343158017426e-10 -1.487377474301091e-09 -2.1805905245522446e-09
306 -3.4026704903912917e-09 3.500348006062066e-09 -5.569365891605726e-09
255 9.872233901782967e-10 9.87225797268881e-10 -1.6849315286073247e-15
305 3.5701031921498625e-09 3.570097551337877e-09 -3.363688307257576e-09
34 7.681633386061828e-10 9.97763324285913e-10 -7.417477363473005e-16
36 -1.810958134187776e-09 1.6612705401435294e-09 3.841092946313476e-09
47 -6.4738050737744336e-09 2.2215572269165757e-09 -3.31043913276823e-16
48 1.940465346569294e-09 -1.940463870033311e-09 6.16225249229511e-10
84 5.477126281022629e-09 8.51254692131465e-11 -2.3604660652779897e-10
86 -2.999341051055165e-09 1.884608422506702e-09 -4.174886639286008e-09
97 -1.459564281954951e-09 -1.3264233790331737e-09 -3.580491357867299e-09
98 2.091720239661784e-09 -2.0917197588249557e-09 -3.0274072130742736e-09
257 -2.2215570819532284e-09 6.473806718489496e-09 9.58435266856127e-16
258 -4.451342981994524e-09 4.4513434202563784e-09 -2.036528474967559e-09
307 1.3264256043427032e-09 1.4595594439060456e-09 -3.580491197923387e-09
308 -2.207917113642256e-09 2.2079122771024098e-09 -3.794143814415623e-09
38 9.581534230187057e-10 5.288706933539225e-09 4.741878730509185e-16
40 -1.9717538584902053e-09 1.971755397833119e-09 -4.8401577576075475e-09
49 -9.97762267829966e-10 -7.681629021553225e-10 -1.3133439504233878e-16
50 3.019014277244336e-09 -2.122794205944547e-09 -1.39374578419892e-09
88 1.9674499771087963e-09 2.4353895752453696e-09 -4.726512019572003e-10
90 -7.871945138284316e-10 7.872000387490019e-10 -3.2281077074328006e-09
99 -8.512915620203722e-11 -5.477129426432262e-09 -2.36045313224985e-10
100 -2.1149884549435534e-09 -4.13739839123962e-09 -3.830171123863242e-09
259 6.673645940190468e-10 3.6467219007457767e-09 2.5996086441370155e-16
260 -1.6612733276878273e-09 1.8109585581353787e-09 3.841088801081035e-09
309 2.2380545363390054e-09 1.870094022019931e-10 1.4056548168771857e-09
310 -1.8846095473477624e-09 2.9993436444572997e-09 -4.174887654282132e-09
101 -1.0318966538144176e-09 -1.0318979512116946e-09 -5.11985844787547e-09
102 1.0318981822880187e-09 1.0318996815761984e-09 -5.119858695537839e-09
103 1.0966051180746742e-09 -1.0966090780774774e-09 1.1409393493712456e-15
104 -1.0966012523603387e-09 1.0966082803300968e-09 7.342239576221471e-16
105 -2.904357112492766e-09 -2.789939913603317e-09 -3.6958199847158304e-09
108 -4.295176330224864e-09 -2.0927010581509583e-10 9.398723423563893e-16
121 -2.789940761700015e-09 -2.904355383336486e-09 -3.6958200394473097e-09
123 -2.0926993045187408e-10 -4.295178098674274e-09 4.0799413442705934e-16
125 -3.133471249110588e-09 -3.133470190958074e-09 -7.621002145060749e-11
151 -1.0318971280022907e-09 -1.031905461192222e-09 5.119854335439018e-09
152 1.031900911877095e-09 1.0318989585600442e-09 5.119855987875438e-09
153 -2.904357837549267e-09 -2.7899395630826715e-09 3.695818303888226e-09
161 -2.7899472231115465e-09 -2.9043590468590383e-09 3.6958166996723157e-09
163 -3.1334714575903065e-09 -3.1334703865663305e-09 7.620680974380805e-11
106 1.8846418824025977e-09 3.7030998703632342e-09 -8.976890438756317e-10
107 2.009232482826153e-09 -2.180412593870586e-09 3.9686155111304667e-16
109 3.423319611610918e-10 -5.85958963308341e-09 1.6984832427353553e-09
112 -5.921085992249086e-10 -2.477515540094638e-09 2.398018621964353e-16
127 1.1110575852775298e-10 -4.28787208199958e-09 7.461821996965161e-16
129 -3.4922004706255687e-10 -3.694300882450526e-09 2.061615711784115e-09
154 1.884642163610512e-09 3.703099398582406e-09 8.976866754937519e-10
155 3.4233006888519897e-10 -5.859590465920994e-09 -1.698483795603513e-09
165 -3.492209480568209e-10 -3.694298808014918e-09 -2.0616188141736945e-09
110 4.705399333873341e-09 2.3369687289646478e-09 6.46503614086319e-09
111 -1.8949769149837796e-10 -4.5232943541444674e-09 2.486778407846346e-16
131 5.783789926585877e-09 -4.9282905188154236e-09 1.1605289114897322e-15
156 4.7054031718326134e-09 2.3369706016456897e-09 -6.465039883592568e-09
113 -4.705400676754131e-09 -2.336967595246434e-09 6.465041986146411e-09
114 -3.423306629775291e-10 5.859589474218438e-09 1.6984823943648086e-09
115 5.921016046980033e-10 2.477518325829098e-09 -5.412278384469577e-16
116 1.8949897128951032e-10 4.5232975073734705e-09 2.1573141178775926e-16
133 -1.4727880522750865e-09 -4.106910455205747e-09 2.7679835532378265e-09
135 3.1427679858042333e-09 -3.88970689388069e-09 -1.4831299497416176e-16
157 -4.705401503329637e-09 -2.336971160080139e-09 -6.465040218021388e-09
158 -3.423260046425366e-10 5.859590576645067e-09 -1.6984829051472881e-09
167 -1.472788893515571e-09 -4.106912680556496e-09 -2.7679898347979614e-09
117 -1.884639205226692e-09 -3.7031007902681506e-09 -8.976894120030827e-10
118 2.9043520652248974e-09 2.789942979340699e-09 -3.695823326718634e-09
119 4.295175836051935e-09 2.0926586495280007e-10 6.162035304621073e-16
120 -2.0092336285607876e-09 2.1804148098564267e-09 -3.525192682508137e-16
137 -2.660507571784967e-09 3.350062436392147e-10 -1.3851915396755406e-09
139 1.2709345078796564e-09 -1.2709299200811914e-09 1.8582387715497924e-15
159 -1.884643734758918e-09 -3.7030973425146203e-09 8.97689205899851e-10
160 2.9043567960462648e-09 2.78994620282533e-09 3.695823317240894e-09
169 -2.6605055441504006e-09 3.350071345204169e-10 1.3851936368135325e-09
122 3.7030997837096127e-09 1.884641807091941e-09 -8.976905041245498e-10
124 -2.180418895514503e-09 2.0092296672792417e-09 1.1558893556797591e-15
128 -4.287872493919266e-09 1.1110358695234728e-10 -1.8158616153029552e-18
141 -5.8595893659014106e-09 3.42329920889539e-10 1.6984832403283101e-09
142 -2.477513007883255e-09 -5.921046275775257e-10 1.2549731081823485e-15
143 -3.694297313855813e-09 -3.4922022947881676e-10 2.0616186415628257e-09
162 3.7031019307937893e-09 1.8846448942147668e-09 8.97687500207559e-10
171 -5.859590254101031e-09 3.423318994805626e-10 -1.6984822939082882e-09
172 -3.69430218483584e-09 -3.4921945473144543e-10 -2.0616184919528707e-09
351 2.3369684304910627e-09 4.705402395986052e-09 6.465040064421826e-09
352 -4.5232992885868014e-09 -1.8949809180125127e-10 -1.823336618457212e-16
354 -4.928293603044037e-09 5.7837835837636245e-09 1.7812133302420288e-16
401 2.336971453739634e-09 4.705397285490939e-09 -6.465039892618986e-09
126 5.036983386189759e-10 5.037009532528465e-10 1.5656690421357467e-09
132 -2.584091439067685e-09 -9.933766766648874e-10 1.5141711931861267e-15
144 -9.933742320943904e-10 -2.5840876473294453e-09 -9.587561278405786e-16
145 -4.306665395647173e-09 -4.306657741476624e-09 1.7780762931296016e-09
164 5.037006748242535e-10 5.036986217264932e-10 -1.5656701861356163e-09
173 -4.306661863488959e-09 -4.3066586976752665e-09 -1.7780786120166179e-09
130 3.972556977580581e-09 -1.575149166162276e-09 6.548466696303933e-10
146 6.186887158404155e-10 -6.093681753968345e-09 3.953571479625044e-16
166 3.972551923403035e-09 -1.5751479002616034e-09 -6.54848610155316e-10
353 -1.5751457079867871e-09 3.97254596572562e-09 6.548470749166021e-10
356 -6.093684371191288e-09 6.186873096918327e-10 -3.514285759666706e-16
402 -1.5751444099917156e-09 3.972550151501726e-09 -6.548483395178904e-10
355 1.5897683845317088e-09 1.5897693517124942e-09 -1.2886633115393666e-09
403 1.5897680637929571e-09 1.5897639199896991e-09 1.2886648699505902e-09
134 2.0338028676620264e-09 9.157551256112396e-10 1.9536149371335494e-09
136 -1.0150330554630212e-09 -1.6165592852024558e-09 -1.4108892156415554e-16
147 -4.898206423586328e-09 -4.658617992171295e-09 4.5755694896140317e-10
148 1.8950890970291676e-09 -1.8950857886893373e-09 5.736947389395977e-17
168 2.0338036055882263e-09 9.157587191843342e-10 -1.9536133631062277e-09
174 -4.898206820967494e-09 -4.658618215725603e-09 -4.575549144065824e-10
357 4.658619042169474e-09 4.898206111175146e-09 4.5755918224788016e-10
358 -3.0430451742614785e-09 3.0430494991196557e-09 -1.456262249724902e-15
404 4.6586220623335045e-09 4.898207114912928e-09 -4.575572560100862e-10
138 -3.35008022799637e-10 2.660505434629851e-09 -1.385192663464694e-09
140 -1.6033303318356297e-09 1.6033297221010328e-09 1.7947529585969092e-16
149 -9.157576506855224e-10 -2.0338020589783404e-09 1.9536148635152665e-09
150 3.889709729563588e-09 -3.1427698823900062e-09 1.420156574111888e-16
170 -3.3500433761367945e-10 2.6605048136122305e-09 1.3851887294504555e-09
175 -9.157595384105958e-10 -2.033802761233731e-09 -1.9536151418298496e-09
359 4.106912332094416e-09 1.4727858151676053e-09 2.767984760450248e-09
360 1.6165514833089513e-09 1.0150284268267792e-09 -9.615392736690818e-16
405 4.106914188151802e-09 1.4727852778700202e-09 -2.7679828286461624e-09
176 3.050810464640619e-09 -3.0508065831300504e-09 -6.237479005173333e-09
177 -3.050809304444909e-09 3.0508110710655287e-09 -6.237479935947562e-09
179 4.828692376283794e-10 3.920319649868597e-10 -2.557535993535995e-09
186 3.920353439665757e-10 4.828695393176262e-10 -2.5575302807095944e-09
201 -3.1258920293283686e-09 -3.125889879837147e-09 1.121821764819091e-09
202 3.1258889290543558e-09 3.12588951366542e-09 1.1218197823166192e-09
203 2.968016044041138e-09 -2.968013950212833e-09 2.010412445622243e-09
204 -2.968017639912e-09 2.9680142044569654e-09 2.010411600598993e-09
205 -9.197522511223034e-10 -2.206208831376098e-09 2.5910753693135885e-09
208 1.5322637552749622e-09 5.599860443424638e-09 -5.6872498401846196e-09
221 -2.2062106117966785e-09 -9.197547120531846e-10 2.591071640073741e-09
223 5.5998641921169764e-09 1.532265202670636e-09 -5.6872495948464365e-09
225 9.714936290788216e-10 9.7149697650923e-10 -3.4758756450975864e-09
178 3.217369695968306e-10 -3.3045356622418993e-09 1.9370285431738812e-09
181 -8.371482403589276e-10 4.744353220952098e-09 -3.1072891971125454e-09
188 2.095074503501339e-10 -1.4101501264958583e-09 -1.1661396205057823e-09
206 2.403859702217602e-09 2.186069496331111e-10 -3.733264131393654e-09
207 7.541410768235085e-09 -3.1949528354060807e-09 -5.5062340586965526e-09
209 -3.1231171022799374e-09 -2.7592653324609395e-09 -2.4315315944445717e-09
212 1.683817500736616e-09 -4.72718559802982e-10 -9.480110525639208e-10
227 2.856371465613509e-09 3.091903236744693e-10 -1.30306813756273e-09
229 -2.8479522058565746e-09 -2.113854379621607e-09 -2.774027698893171e-09
180 2.200529949911694e-09 -2.1763259368706514e-09 -2.8830162574836286e-09
190 2.4107297546776004e-09 -1.9165360693785716e-09 7.935956596638233e-10
210 9.799763778293688e-10 3.235533686752031e-09 -1.879904455787493e-09
211 2.6632947775509535e-09 -5.48555402269565e-10 4.996646852585773e-10
231 -6.87919417410458e-10 -3.612163965220554e-09 9.160584343086599e-10
182 8.371502371663046e-10 -4.744352641694593e-09 -3.107293183378185e-09
183 -2.2005300075507553e-09 2.1763269189450283e-09 -2.8830150737063995e-09
192 4.137397929843627e-09 2.1149871629903354e-09 3.830171558855536e-09
213 -9.799758847663047e-10 -3.2355327865171855e-09 -1.8799033022111575e-09
214 3.123114425966713e-09 2.7592683027203857e-09 -2.4315305693542553e-09
215 -1.6838190933560427e-09 4.72719392630576e-10 -9.480104955854947e-10
216 -2.6632938912342614e-09 5.485534525630819e-10 4.996647341140696e-10
233 -1.870040402116607e-10 -2.2380523735679002e-09 -1.405653889229882e-09
235 2.1227956387766174e-09 -3.0190151202648487e-09 1.393740340376845e-09
184 -4.828731462746199e-10 -3.920335073912095e-10 -2.557530771445902e-09
185 -3.21737916693834e-10 3.304535863531041e-09 1.9370224306169376e-09
194 2.368281281739912e-09 -2.3682798074694864e-09 1.3888574291545811e-09
217 -2.4038582982750855e-09 -2.1861134805660233e-10 -3.733268653328644e-09
218 9.19755378804661e-10 2.2062095256176035e-09 2.5910757777841663e-09
219 -1.5322592377121441e-09 -5.599864471334201e-09 -5.687250067078586e-09
220 -7.541412101361937e-09 3.194961548608248e-09 -5.506234624653018e-09
237 -2.4353920081661446e-09 -1.9674519988248436e-09 4.726559697868851e-10
239 -2.200650356331653e-10 2.200649407981764e-10 -9.679680882445158e-10
187 -3.304541354903421e-09 3.217388611581319e-10 1.9370279125280805e-09
189 -1.4101537174074521e-09 2.0950465896831336e-10 -1.1661426367430122e-09
196 4.744354713320023e-09 -8.371479127917429e-10 -3.107292935704815e-09
222 2.1861101753923014e-10 2.403856842208526e-09 -3.733267198269917e-09
224 -3.1949598928621405e-09 7.54141141069045e-09 -5.506233182532158e-09
228 3.0918802637093703e-10 2.8563686254616546e-09 -1.3030710050844195e-09
241 -2.7592688948875997e-09 -3.1231152614170223e-09 -2.431532163710724e-09
242 -4.7271726481275e-10 1.683818978248046e-09 -9.480073970523153e-10
243 -2.113857358015458e-09 -2.847950507506291e-09 -2.774027000383422e-09
426 -2.176329539013555e-09 2.2005283824082336e-09 -2.88301752840341e-09
427 -1.9165359079866716e-09 2.4107293824172026e-09 7.935956922788135e-10
451 3.2355350635817943e-09 9.799729941590788e-10 -1.8799040766778992e-09
452 -5.485569752734992e-10 2.663294752121839e-09 4.996605162565665e-10
454 -3.612162967613215e-09 -6.879198373445345e-10 9.160588060443278e-10
191 -2.5296243115179006e-09 1.1512644740813872e-09 3.6364947147869e-09
197 1.151267398283816e-09 -2.5296211218071206e-09 3.6364939878592974e-09
226 9.584561413207723e-10 9.584523856558547e-10 -2.2172497247646964e-09
232 -2.8923255113345014e-09 1.7619071693356006e-09 1.951553472934816e-10
244 1.7619078962086749e-09 -2.8923232505832645e-09 1.9515997925205565e-10
245 -5.543029551840925e-09 -5.5430312951991236e-09 1.6612656732845972e-09
198 3.5003487450248935e-09 -3.4026675909063654e-09 5.5693678027994884e-09
230 -1.4873797052904693e-09 -6.168358925341167e-10 2.180588975286734e-09
246 1.5419143968969927e-09 -1.2120607788684244e-09 -2.1954640339597638e-09
428 -3.402669615143554e-09 3.50034847603761e-09 5.569367796480995e-09
453 -6.168337571860478e-10 -1.4873771148233704e-09 2.180588996573451e-09
456 -1.2120616855849112e-09 1.5419156241183343e-09 -2.1954632942447346e-09
455 3.5701030124714596e-09 3.5700992489393006e-09 3.3636867096202153e-09
193 -2.9993368987511826e-09 1.884612542614435e-09 4.1748882179819926e-09
199 2.0917188669326948e-09 -2.0917256268178113e-09 3.0274087033795212e-09
234 5.477129727569111e-09 8.512903973420112e-11 2.360461525212187e-10
236 -1.8109585048234982e-09 1.661272654181017e-09 -3.841090284356724e-09
247 -1.4595595287272958e-09 -1.3264236622752645e-09 3.5804895422877594e-09
248 1.9404668165669353e-09 -1.9404682207672224e-09 -6.162263134442998e-10
429 -2.2079178130347105e-09 2.2079126194005515e-09 3.794144268996892e-09
457 1.3264248484207533e-09 1.4595600245157934e-09 3.580491416327465e-09
458 -4.451346533729913e-09 4.451347353104705e-09 2.036528694309538e-09
195 -7.872023310080824e-10 7.871988869779499e-10 3.2281060415319717e-09
200 -2.114982099141123e-09 -4.137395318232914e-09 3.830170905649565e-09
238 1.9674524419229182e-09 2.4353919822904105e-09 4.726547610741739e-10
240 -1.9717586090944743e-09 1.971757272432275e-09 4.840156162789767e-09
249 -8.513006508720062e-11 -5.477130538787952e-09 2.360477252301488e-10
250 3.0190149985304262e-09 -2.1227939650519925e-09 1.3937436608843133e-09
430 -1.884611233128075e-09 2.999343414147281e-09 4.174883188504866e-09
459 2.2380554494094656e-09 1.8700399657824193e-10 -1.4056503366447212e-09
460 -1.6612727734657066e-09 1.8109593631150356e-09 -3.841090785388791e-09
251 2.5022431908249123e-09 -2.5153614215654957e-10 3.154733406687107e-16
261 -2.5022423724295985e-09 2.5153331350252577e-10 3.6256115928068325e-16
262 4.477845680250335e-09 -4.889772584473776e-10 5.002140475552995e-17
263 5.485520227783277e-10 -2.6632935561213343e-09 -4.996652075873511e-10
264 4.727155461825909e-10 -1.68381983966929e-09 9.480091189921614e-10
265 -6.673655732773687e-10 -3.6467206254156258e-09 -1.974875395938975e-16
268 -3.0190150987800913e-09 2.1227946168993e-09 -1.3937431395815894e-09
311 -3.2355355979457933e-09 -9.799808224713128e-10 1.879902906252248e-09
312 2.759266304907136e-09 3.1231197961394387e-09 2.431533004521645e-09
313 2.1763259416847417e-09 -2.2005271891156547e-09 2.8830194167302445e-09
314 -4.7443494298561585e-09 8.371512904776964e-10 3.107291883638082e-09
315 -2.2380460209059114e-09 -1.8700296534102808e-10 1.4056549461083546e-09
318 2.1149854137549744e-09 4.13739255052426e-09 -3.830169110964187e-09
266 9.977608166074668e-10 7.681663063187716e-10 -1.0603750347148238e-15
267 1.661271911292261e-09 -1.8109596409979717e-09 3.841095557430804e-09
269 2.2215620623785847e-09 -6.473809777688203e-09 -1.2227788807607443e-15
272 -1.9404675409622574e-09 1.9404674643533183e-09 6.162268092955782e-10
316 8.512912274375855e-11 5.477125480081918e-09 -2.360445132165922e-10
317 1.8846079680911525e-09 -2.9993397684378025e-09 -4.174890237492782e-09
319 -1.3264294023548684e-09 -1.4595620485150672e-09 -3.5804905731047978e-09
322 -2.0917245104808892e-09 2.0917208021969075e-09 -3.027408997039016e-09
270 6.473806983701637e-09 -2.221557211270783e-09 -5.866590506208917e-16
271 4.451347780093105e-09 -4.451344470593049e-09 -2.0365302108983542e-09
320 1.4595655155425876e-09 1.32642722229488e-09 -3.5804928776623743e-09
321 2.207917158032653e-09 -2.2079157889811244e-09 -3.794140020912639e-09
273 -9.872234608602694e-10 -9.872235033549572e-10 -3.153229003536565e-16
274 -4.0493303672542495e-09 -4.0493308259292104e-09 -4.48013608861406e-16
275 1.2120606880753437e-09 -1.5419140610969379e-09 2.1954638266511507e-09
276 -1.5419191058123898e-09 1.2120592982348436e-09 2.1954653172156512e-09
323 -3.5701028702562925e-09 -3.570097499017556e-09 -3.3636900169001014e-09
324 5.543034093288494e-09 5.543029179406533e-09 -1.6612652377974954e-09
325 3.402673681238055e-09 -3.5003465432715292e-09 -5.569368355209273e-09
326 -3.500347772578844e-09 3.402671090749855e-09 -5.569366649223153e-09
277 -5.2033392513593035e-09 -2.9906210923491882e-09 2.3528865274480855e-16
278 1.1927785425064135e-09 3.410427886065285e-10 1.1794520700251273e-16
279 3.612164462378783e-09 6.879200534038591e-10 -9.160585295103471e-10
280 -1.7619067932559274e-09 2.8923242239321027e-09 -1.9515486759103075e-10
327 6.168351969251321e-10 1.487380238866953e-09 -2.1805853566700283e-09
328 2.113853614143674e-09 2.8479513595626255e-09 2.774024785274453e-09
329 1.9165330505021718e-09 -2.4107350457293467e-09 -7.935966769994119e-10
330 -1.1512685564297765e-09 2.5296211215062403e-09 -3.6364958576067532e-09
281 -2.3222864522584173e-09 -6.723390892814248e-09 -9.027171104828796e-16
282 6.78226750636808e-10 -4.130891404002646e-09 -1.8662121082476664e-16
283 3.194959028732971e-09 -7.541408615960719e-09 5.506235214078173e-09
284 -5.599863255776455e-09 -1.5322590451485408e-09 5.6872509399332935e-09
285 -9.581500373030002e-10 -5.288706732895626e-09 -1.2911557669253316e-15
288 2.2006770621202808e-10 -2.2006961290257125e-10 9.679717997880865e-10
331 -2.186055487328973e-10 -2.403862307979608e-09 3.733267618600157e-09
332 2.2062108500941375e-09 9.197543019528858e-10 -2.5910788208908593e-09
333 3.304536134022727e-09 -3.2173905642966086e-10 -1.9370239032936843e-09
334 -3.920373008941939e-10 -4.828725637697201e-10 2.5575355629699365e-09
335 -1.967452320338936e-09 -2.4353890082029867e-09 -4.726573386621169e-10
338 -2.3682795474063697e-09 2.3682764403684195e-09 -1.3888586263192353e-09
341 2.999343788230502e-09 -1.884606721848284e-09 -4.174889106322063e-09
340 1.8700504209232737e-10 2.2380479991184835e-09 1.4056529580836655e-09
291 1.8109610520099571e-09 -1.661272687244601e-09 3.841094164380341e-09
286 5.288705843523923e-09 9.58148729280876e-10 -2.1904109871895221e-16
287 1.9717546109362646e-09 -1.971752580791207e-09 -4.8401586369635094e-09
289 -7.681657358715679e-10 -9.97765379796012e-10 -1.247451680087118e-15
292 -2.1227948790353785e-09 3.01901511015714e-09 -1.393742268860078e-09
336 2.4353881707506632e-09 1.9674514415812088e-09 -4.726566657707952e-10
337 7.872022996957843e-10 -7.871994306645473e-10 -3.2281060125298998e-09
339 -5.477127388601251e-09 -8.512867103202117e-11 -2.3604554605517267e-10
342 -4.1373951446247904e-09 -2.1149897403056052e-09 -3.8301681174639855e-09
290 3.646726407707254e-09 6.673629957411396e-10 -9.074559804070878e-16
346 -2.4107345795148103e-09 1.9165290812848996e-09 -7.93592922009148e-10
345 2.5296211560393442e-09 -1.1512713194683166e-09 -3.636490923487631e-09
344 2.847951560135726e-09 2.1138589584612334e-09 2.774019809357605e-09
343 1.487372979685122e-09 6.168355427780139e-10 -2.1805885409079543e-09
296 6.879201455381212e-10 3.6121644229634204e-09 -9.160582490895998e-10
295 2.892327329227061e-09 -1.761905730219392e-09 -1.9515531694654958e-10
294 3.4104371225834905e-10 1.192778342784326e-09 1.0462412846469755e-15
293 -2.9906216607773046e-09 -5.203338881854384e-09 -1.1248733815069194e-15
350 -2.094999196940808e-10 1.410156770264558e-09 1.1661444540338106e-09
349 1.4101555089729565e-09 -2.0950346918287418e-10 1.1661420472896504e-09
348 -9.714962101503983e-10 -9.714930602686917e-10 3.4758778793639823e-09
347 -9.58452795183775e-10 -9.584542494903007e-10 2.217244443981725e-09
300 -2.8563742772129785e-09 -3.0918735277442636e-10 1.303069735317622e-09
299 -3.0919154765217136e-10 -2.8563733667481918e-09 1.303067806672783e-09
298 7.356456065641844e-11 7.356437411042777e-11 -5.199217288274031e-16
297 -5.117143202380524e-10 -5.117139242791432e-10 -3.5729574825378537e-16
361 -2.33697061127387e-09 -4.70540137344323e-09 6.46504137957106e-09
362 5.859590075979698e-09 -3.423303428746228e-10 1.698479850908012e-09
363 4.523297555514371e-09 1.8949970482230927e-10 2.578547000029424e-16
364 2.4775134243020472e-09 5.921009941430365e-10 -1.3873605854300669e-15
365 -4.106911452545114e-09 -1.4727826108970236e-09 2.7679839936148264e-09
368 -3.889706521376857e-09 3.1427666815172598e-09 7.383845725853655e-16
406 -2.3369716463032374e-09 -4.705398927885469e-09 -6.465039905255973e-09
407 5.859590364825103e-09 -3.4233492528661934e-10 -1.6984823211379852e-09
408 -4.106912666297576e-09 -1.4727824332240734e-09 -2.7679847594682725e-09
366 9.157542222541701e-10 2.0338018634059304e-09 1.9536121331363786e-09
367 -1.616556296129693e-09 -1.0150281086455129e-09 1.157337343712156e-15
369 -4.658612781682736e-09 -4.8982054790249426e-09 4.5755824154459016e-10
372 -1.8950829797884127e-09 1.8950819591439546e-09 4.8631336244428906e-15
409 9.157560679195691e-10 2.0338015553041652e-09 -1.9536152736155655e-09
410 -4.658618213231585e-09 -4.89820531534588e-09 -4.5755759705828045e-10
370 4.898208135349585e-09 4.658611171508291e-09 4.5755822240106006e-10
371 3.0430458445130427e-09 -3.043042087827975e-09 -2.5493615789089038e-15
411 4.89820552841557e-09 4.658616616244174e-09 -4.57561208227603e-10
373 -1.5897725964233132e-09 -1.5897669954410597e-09 -1.288660375094857e-09
374 4.3066604540659445e-09 4.306660290838202e-09 1.7780755970046539e-09
375 6.093681470912542e-09 -6.186894789289333e-10 -5.732974824826577e-16
376 -6.1868875879579e-10 6.093681113092603e-09 -1.3032950075037503e-16
412 -1.589767188220921e-09 -1.5897666054997631e-09 1.2886595032932312e-09
413 4.3066617446771e-09 4.3066601608577706e-09 -1.7780742281858373e-09
377 1.5751433131313785e-09 -3.9725553395864305e-09 6.548443289295313e-10
378 3.6943033866941143e-09 3.4922190471324855e-10 2.0616210842739744e-09
379 4.928298620900824e-09 -5.783782818503712e-09 -4.741878730509185e-16
380 9.933758758781422e-10 2.5840948792962704e-09 1.3115762767215008e-15
414 1.5751444655041917e-09 -3.972551309328e-09 -6.548406604424488e-10
415 3.6942972425612073e-09 3.492165700244566e-10 -2.0616180402646396e-09
381 -3.7031005323006203e-09 -1.884643994907833e-09 -8.976923028641768e-10
382 2.7899448016242356e-09 2.904356876907934e-09 -3.6958179454685647e-09
383 2.1804178652992257e-09 -2.0092299785778635e-09 -5.52184712174247e-16
384 2.0927143244797958e-10 4.295179613608247e-09 6.434031394239113e-15
385 3.350066791184568e-10 -2.6605040883686045e-09 -1.3851912160143683e-09
388 -1.2709365742808114e-09 1.2709312058393242e-09 3.4683603275515194e-16
416 -3.703098849776137e-09 -1.884636771779376e-09 8.976925935148655e-10
417 2.7899384614675976e-09 2.9043573910753206e-09 3.695816857935527e-09
418 3.350084169015486e-10 -2.660503721020603e-09 1.3851891213780344e-09
421 1.4727853888645614e-09 4.106911453711026e-09 -2.767983249277283e-09
391 1.0150308210135807e-09 1.6165567971429546e-09 -1.1212504731385238e-18
390 1.4727857230229123e-09 4.1069072727114e-09 2.7679829393702344e-09
386 2.660510465128326e-09 -3.350111700110279e-10 -1.3851910611248984e-09
387 1.6033274516709136e-09 -1.6033252629983807e-09 1.1950167660584329e-15
389 -2.0338047157683165e-09 -9.157507370692089e-10 1.953611746334936e-09
392 -3.1427718566934807e-09 3.889707139583124e-09 -9.772602865922483e-16
419 2.6605083049893754e-09 -3.3501046365613867e-10 1.3851888583778055e-09
420 -2.0338037002360067e-09 -9.157578434512799e-10 -1.9536132848063536e-09
423 3.4921553672867857e-10 3.6942989366365643e-09 -2.0616147651783934e-09
422 -3.972549377087893e-09 1.5751485727739594e-09 -6.548481457231447e-10
396 -5.783782888630202e-09 4.928290935206008e-09 -2.6236790945456914e-16
395 2.584089817670754e-09 9.933755521770093e-10 -3.268321721127854e-16
394 3.4922122457258424e-10 3.6942982601394983e-09 2.0616196244011573e-09
393 -3.972554252967992e-09 1.5751497394103951e-09 6.548457407877942e-10
425 3.133474791676776e-09 3.1334725832129513e-09 7.620589783338393e-11
424 -5.036996181702706e-10 -5.037049216426972e-10 -1.5656700890498991e-09
400 -1.1109917615089855e-10 4.287869723513852e-09 -6.495486262938764e-15
399 4.287868143589663e-09 -1.1110433128917452e-10 -1.4418199794796964e-15
398 3.1334653945729368e-09 3.1334685511868473e-09 -7.620945364067055e-11
397 -5.036998369104886e-10 -5.036947900892395e-10 1.5656735836279776e-09
431 2.1763263508823984e-09 -2.200526718538349e-09 -2.8830167760513946e-09
432 -4.744351508339551e-09 8.371458312995437e-10 -3.1072933218474937e-09
434 2.1149869236868067e-09 4.137392207331116e-09 3.830171660403924e-09
461 -3.2355339467128954e-09 -9.799755561576441e-10 -1.879903478828087e-09
462 2.759268090934556e-09 3.123114344483302e-09 -2.4315318450781367e-09
463 5.485535247744331e-10 -2.66329257043639e-09 4.996653010860069e-10
464 4.727168095803566e-10 -1.6838192691996154e-09 -9.48010621439588e-10
465 -2.238048137690468e-09 -1.870025559271132e-10 -1.4056546092312866e-09
468 -3.019014772155362e-09 2.122794772515702e-09 1.3937440780388525e-09
433 1.8846086467603225e-09 -2.9993367644455914e-09 4.174889460017234e-09
436 -2.0917215262285336e-09 2.091724769007135e-09 3.027410234711488e-09
466 8.512826613645773e-11 5.477124873506567e-09 2.360409821943475e-10
467 1.6612717260626232e-09 -1.8109594628766387e-09 -3.841095553143256e-09
469 -1.326427412379744e-09 -1.4595625780649762e-09 3.580491553524331e-09
472 -1.940464113102255e-09 1.940466732611626e-09 -6.162249242032104e-10
435 2.2079130644235713e-09 -2.2079165640496277e-09 3.794144387292343e-09
470 1.4595601510082882e-09 1.3264276122361765e-09 3.5804868822021083e-09
471 4.451343959544947e-09 -4.4513467861703774e-09 2.0365303283922403e-09
437 3.402673442491626e-09 -3.5003473222838017e-09 5.5693655832072865e-09
438 -3.500346931278845e-09 3.402671678068845e-09 5.569367621293248e-09
473 -3.570101280873169e-09 -3.5701016439491163e-09 3.363691494073555e-09
474 5.543030356236475e-09 5.543029896201307e-09 1.66127006897078e-09
475 1.2120594798997513e-09 -1.54191349084881e-09 -2.1954643760606705e-09
476 -1.5419119798819661e-09 1.2120604536164632e-09 -2.1954638289472246e-09
439 1.9165339675863324e-09 -2.410729227901483e-09 7.935906494577488e-10
440 -1.1512660976332672e-09 2.5296219507332567e-09 3.6364880211834407e-09
477 6.168342209435882e-10 1.4873798432089243e-09 2.1805890289181187e-09
478 2.1138535428349644e-09 2.8479521621617062e-09 -2.7740232264871286e-09
479 3.612163343102839e-09 6.879192927776263e-10 9.160597926072324e-10
480 -1.761906411137527e-09 2.892326512731056e-09 1.9515309179355184e-10
441 3.304536066625466e-09 -3.21735752158581e-10 1.9370250123396868e-09
442 -3.920347256568808e-10 -4.82873033143503e-10 -2.5575371025761206e-09
444 -2.3682792916625354e-09 2.368276395427901e-09 1.3888599255564678e-09
481 -2.1861018470164601e-10 -2.4038572123592814e-09 -3.733267115527744e-09
482 2.206210835651867e-09 9.197509147891924e-10 2.591076351112207e-09
483 3.194961156560787e-09 -7.541407837582528e-09 -5.506235213325971e-09
484 -5.599864572430093e-09 -1.5322605736221417e-09 -5.687249702110381e-09
485 -1.9674537547967424e-09 -2.4353888685395017e-09 4.726556979336789e-10
488 2.2006582497234273e-10 -2.2007072830585246e-10 -9.679682661354871e-10
491 1.8109598342235846e-09 -1.6612713686869534e-09 -3.841090444320616e-09
490 1.8700624848817216e-10 2.2380494654954937e-09 -1.4056536439246073e-09
445 2.9993385537860673e-09 -1.884609718680476e-09 4.1748906212007955e-09
443 7.87202214122881e-10 -7.87199733529109e-10 3.2281095291845067e-09
446 -4.137395390780796e-09 -2.114988893862575e-09 3.830168092019592e-09
486 2.4353898838078582e-09 1.9674514742908117e-09 4.72649944577047e-10
487 1.9717518544827938e-09 -1.9717526733590134e-09 4.840162799994921e-09
489 -5.4771264530233995e-09 -8.513012607194333e-11 2.360440542683396e-10
492 -2.122791540005975e-09 3.0190141886726003e-09 1.3937436339554969e-09
496 6.879146862806348e-10 3.612162490369523e-09 9.160581203126902e-10
495 2.8923247529578213e-09 -1.7619071936587024e-09 1.9515460903875916e-10
494 2.847955446054e-09 2.1138550140498766e-09 -2.7740272474899537e-09
493 1.487375531097543e-09 6.168351414643697e-10 2.180588937158929e-09
448 -2.410732387932111e-09 1.9165340213323104e-09 7.935941793704963e-10
447 2.529622338467312e-09 -1.151265760551761e-09 3.636491749559716e-09
500 -2.856372793871472e-09 -3.091908116981501e-10 -1.303067006330307e-09
499 -3.091878504309886e-10 -2.8563735424624796e-09 -1.3030677272402967e-09
498 -9.714947012340383e-10 -9.714944280344261e-10 -3.4758763903057438e-09
497 -9.5845295510183e-10 -9.584551397960852e-10 -2.217246059409828e-09
450 -2.0950578536196475e-10 1.410153181360402e-09 -1.166138265821891e-09
449 1.410152762534565e-09 -2.0950385671712576e-10 -1.1661391570303174e-09
