LAMMPS data file via write_data, version 29 Aug 2024, timestep = 27, units = metal

500 atoms
3 atom types

0 17.57826262822142 xlo xhi
0 17.57826262822142 ylo yhi
0 17.57826262822142 zlo zhi

Masses

1 55.8274
2 58.71
3 58.71

Atoms # atomic

1 2 0.0032967797305241005 0.0032967797305240632 0 0 0 0
2 3 1.7545294830916183 1.7545294830916187 0 0 0 0
3 1 1.7538293759351982 0.0039968868869426485 1.7496654350707876 0 0 0
4 1 0.003996886886942507 1.7538293759351982 1.7496654350707876 0 0 0
5 1 3.5114858691876014 0.003958773590298204 0 0 0 0
8 1 3.5110465950261203 1.7573392936439662 1.7533975560251216 0 0 0
21 1 0.003958773590298509 3.5114858691876023 0 0 0 0
23 1 1.7573392936439658 3.5110465950261207 1.7533975560251214 0 0 0
25 1 3.5111762057424643 3.511176205742464 0 0 0 0
51 1 0.0005238774138506611 0.000523877413849537 3.514545790808675 0 0 0
52 1 1.7573023854082908 1.7573023854082908 3.514545790808674 0 0 0
53 1 1.7576866305284564 0.000139632293685303 5.273408124182313 0 0 0
54 1 0.00013963229368402206 1.7576866305284562 5.273408124182313 0 0 0
55 1 3.5144182512591873 0.0005066843752397769 3.514189830797955 0 0 0
58 1 3.515233385428007 1.7576900385368197 5.273139093732149 0 0 0
71 1 0.000506684375239026 3.5144182512591877 3.5141898307979553 0 0 0
73 1 1.7576900385368197 3.5152333854280062 5.273139093732149 0 0 0
75 1 3.514850792568674 3.5148507925686734 3.51464577974813 0 0 0
6 1 5.273127045900176 1.7577290788656348 0 0 0 0
7 1 5.272795556983821 0.000500894495101328 1.7571975949918412 0 0 0
9 1 7.031357386393624 0.00014190458235398715 6.671474367763373e-17 0 0 0
12 1 7.031287098185655 1.7578084917129475 1.7576649049991975 0 0 0
27 1 5.27254478966574 3.514918648556809 1.7572277592988115 0 0 0
29 1 7.031231861616438 3.515464534485592 0 0 0 0
56 1 5.2724984076235435 1.757697999434711 3.5146777146419095 0 0 0
57 1 5.27287638899264 0.00013340179302339636 5.2728550005636805 0 0 0
59 1 7.030967012232415 0.00013145287427948583 3.51531449154132 0 0 0
62 1 7.030859100863753 1.7577673641963005 5.2730366436127785 0 0 0
77 1 5.273038653747202 3.5153885109485565 5.273021184165747 0 0 0
79 1 7.030915865369396 3.515432170336449 3.5153036301305733 0 0 0
11 1 8.789127410948236 2.7366640941087326e-05 1.7578025462971794 0 0 0
31 1 8.789130034406929 3.515600399724215 1.757781134381512 0 0 0
60 1 8.789073116086076 1.7578061069442026 3.5155520924701396 0 0 0
61 1 8.789001012251834 5.766403655627695e-05 5.273289960006313 0 0 0
81 1 8.789005340631324 3.5155228068427133 5.273281222384764 0 0 0
10 1 8.789204187794017 1.7578347704646016 0 0 0 0
14 1 12.304731504649938 1.7576843582397872 0 0 0 0
15 1 12.304801792857907 1.777110919394347e-05 1.7576649049991977 0 0 0
16 1 10.546961480095325 1.7577988961811999 1.7578025462971796 0 0 0
33 1 10.547018559539971 3.51558752401333 0 0 0 0
35 1 12.305064389366347 3.5153612203553375 1.7576692690593387 0 0 0
63 1 10.547015774957485 2.015587793870985e-05 3.5155520924701396 0 0 0
64 1 12.305121878811146 1.7576948099478606 3.5153144915413206 0 0 0
65 1 12.305229790179807 5.889862584094183e-05 5.2730366436127785 0 0 0
66 1 10.547087878791729 1.7577685987855838 5.273289960006313 0 0 0
83 1 10.547076115775312 3.515537091076805 3.5155302064504736 0 0 0
85 1 12.305094479866428 3.515458943837414 5.273174731153475 0 0 0
17 1 14.062961845143386 9.718395650650002e-05 8.45871852443807e-16 0 0 0
18 1 15.82460302185596 1.753867489231843 1.0890171371216953e-16 0 0 0
19 1 15.825042296017438 0.0004869691781757398 1.7533975560251212 0 0 0
20 1 14.063293334059741 1.7573253683270411 1.757197594991841 0 0 0
37 1 14.063312792636784 3.514826005936794 2.423953037345867e-19 0 0 0
39 1 15.82164900791111 3.5144398831324515 1.756786694195904 0 0 0
67 1 14.063590483420016 0.00012826338743111493 3.5146777146419104 0 0 0
68 1 15.821670639784374 1.7573195784469031 3.514189830797955 0 0 0
69 1 15.820855505615555 0.00013622428532252218 5.27313909373215 0 0 0
70 1 14.063212502050922 1.757692861029118 5.2728550005636805 0 0 0
87 1 14.06321741454488 3.515203331978211 3.515055606790541 0 0 0
89 1 15.82084925224464 3.5152396387989198 5.272882633267828 0 0 0
22 1 1.757729078865634 5.273127045900176 1.7990398030806143e-17 0 0 0
24 1 0.0005008944950997875 5.272795556983821 1.7571975949918412 0 0 0
28 1 3.514918648556809 5.27254478966574 1.7572277592988108 0 0 0
41 1 0.00014190458235430268 7.0313573863936245 4.734529882884058e-16 0 0 0
42 1 1.7578084917129475 7.031287098185656 1.7576649049991973 0 0 0
43 1 3.5154645344855915 7.031231861616438 0 0 0 0
72 1 1.7576979994347093 5.2724984076235435 3.51467771464191 0 0 0
74 1 0.0001334017930234004 5.272876388992641 5.2728550005636805 0 0 0
78 1 3.5153885109485565 5.273038653747202 5.2730211841657475 0 0 0
91 1 0.00013145287428021135 7.030967012232415 3.51531449154132 0 0 0
92 1 1.7577673641962999 7.030859100863753 5.2730366436127785 0 0 0
93 1 3.515432170336449 7.030915865369397 3.5153036301305733 0 0 0
252 1 2.7366640940558496e-05 8.789127410948234 1.7578025462971785 0 0 0
254 1 3.515600399724215 8.789130034406927 1.7577811343815126 0 0 0
301 1 1.7578061069442035 8.789073116086076 3.51555209247014 0 0 0
302 1 5.766403655603936e-05 8.789001012251834 5.273289960006313 0 0 0
304 1 3.5155228068427125 8.789005340631324 5.273281222384764 0 0 0
26 1 5.272515127991275 5.272515127991275 0 0 0 0
32 1 7.030910608565191 5.273101474470845 1.7576516904819643 0 0 0
44 1 5.273101474470845 7.030910608565191 1.7576516904819646 0 0 0
45 1 7.030896834964869 7.030896834964869 2.2560601862742916e-19 0 0 0
76 1 5.273011562749438 5.273011562749438 3.5152286481098516 0 0 0
82 1 7.031064338901422 5.2732617872099 5.273233351138795 0 0 0
94 1 5.2732617872099 7.031064338901422 5.273233351138795 0 0 0
95 1 7.031072828403337 7.031072828403337 3.515462404034979 0 0 0
30 1 8.789075792499556 5.273351958079914 0 0 0 0
46 1 8.789009382853537 7.031117175455864 1.7577328693222876 0 0 0
80 1 8.789018535193776 5.273309190979541 3.515498478131113 0 0 0
96 1 8.789061373420633 7.0311715785540985 5.27333932884574 0 0 0
253 1 5.273351958079914 8.789075792499558 1.182445365404094e-18 0 0 0
256 1 7.031117175455863 8.789009382853536 1.7577328693222882 0 0 0
303 1 5.273309190979541 8.789018535193774 3.5154984781311134 0 0 0
306 1 7.0311715785540985 8.789061373420633 5.27333932884574 0 0 0
255 1 8.789021963907102 8.7890219639071 3.5977039515337546e-19 0 0 0
305 1 8.789064137825562 8.789064137825562 3.515526139879289 0 0 0
34 1 12.305154046904237 5.273099920059665 3.5587054028403707e-20 0 0 0
36 1 10.54708660052095 5.273324146873585 1.7577525817771915 0 0 0
47 1 10.547073562833265 7.031129894610099 0 0 0 0
48 1 12.305042070961331 7.0310468200822305 1.7577178797363022 0 0 0
84 1 12.305078431364182 5.273208980035104 3.5154276307173675 0 0 0
86 1 10.547037754065919 5.273316968155483 5.2733204050905025 0 0 0
97 1 10.547031382824061 7.031155934233206 3.515517859460025 0 0 0
98 1 12.304951024916871 7.031137866126691 5.273311019448887 0 0 0
257 1 12.304958996433463 8.789015328210295 0 0 0 0
258 1 10.54702608822996 8.789062802813602 1.757743622608207 0 0 0
307 1 12.304932956810354 8.7890575082195 3.515517859460025 0 0 0
308 1 10.547006550167943 8.789082340875618 5.273359914401468 0 0 0
100 1 15.820629947206148 7.030994411177134 5.273174731153475 0 0 0
38 1 15.821262885106767 5.272776098406776 1.457380757865187e-16 0 0 0
40 1 14.063166094634555 5.272922796409006 1.7575633979943006 0 0 0
49 1 14.062988970983895 7.030934844139326 2.7372530897919317e-19 0 0 0
50 1 15.820727670688226 7.031024501677213 1.7576692690593396 0 0 0
88 1 15.820885559065351 5.272871476498682 3.515055606790541 0 0 0
90 1 14.062922859863185 5.2731660311803745 5.273129028081303 0 0 0
99 1 14.062879911008457 7.031010459679379 3.515427630717367 0 0 0
259 1 15.820501367030232 8.78907033150359 3.6356653220168844e-16 0 0 0
260 1 14.062764744169975 8.78900229052261 1.757752581777192 0 0 0
309 1 15.820551799966756 8.78901277526825 3.515530206450474 0 0 0
310 1 14.062771922888079 8.789051136977642 5.273320405090502 0 0 0
101 1 3.0164710616472575e-05 3.0164710616376277e-05 7.031357726567665 0 0 0
102 1 1.757796098111524 1.7577960981115246 7.031357726567665 0 0 0
103 1 1.757826108533059 1.5428908187497843e-07 8.78913131411071 0 0 0
104 1 1.5428908229193104e-07 1.7578261085330593 8.78913131411071 0 0 0
105 1 3.515543194568518 3.174215801758207e-05 7.031226546017526 0 0 0
108 1 3.5156159143815424 1.7578030141037766 8.78913131411071 0 0 0
121 1 3.174215801756098e-05 3.515543194568517 7.031226546017526 0 0 0
123 1 1.7578030141037766 3.515615914381542 8.78913131411071 0 0 0
125 1 3.5155209138095485 3.5155209138095485 7.031167044893722 0 0 0
151 1 3.0164710616510298e-05 3.0164710616671902e-05 10.546904901653756 0 0 0
152 1 1.7577960981115246 1.7577960981115244 10.546904901653756 0 0 0
153 1 3.5155431945685174 3.1742158017100356e-05 10.547036082203896 0 0 0
161 1 3.174215801763712e-05 3.515543194568517 10.547036082203896 0 0 0
163 1 3.515520913809549 3.515520913809549 10.5470955833277 0 0 0
106 1 5.2732646137242805 1.7577660224658003 7.031102372459379 0 0 0
107 1 5.273368753969388 2.4893033435194995e-05 8.78913131411071 0 0 0
109 1 7.031047040481383 5.890167184056499e-05 7.031053568747581 0 0 0
112 1 7.031159146126313 1.7577773028021222 8.78913131411071 0 0 0
127 1 5.273356780623962 3.5155523499054624 8.78913131411071 0 0 0
129 1 7.031101587994233 3.515515977788913 7.031107870985181 0 0 0
154 1 5.2732646137242805 1.7577660224658007 10.54716025576204 0 0 0
155 1 7.031047040481382 5.8901671840097265e-05 10.54720905947384 0 0 0
165 1 7.0311015879942325 3.515515977788913 10.547154757236239 0 0 0
110 1 8.789013125451927 1.7577780656977433 7.031125170752193 0 0 0
111 1 8.789054907886804 4.8019885570874284e-05 8.78913131411071 0 0 0
131 1 8.789063273692854 3.5155350204863094 8.78913131411071 0 0 0
156 1 8.789013125451927 1.757778065697743 10.547137457469226 0 0 0
113 1 10.547075765591634 4.8197124398499876e-05 7.031125170752193 0 0 0
114 1 12.305041850562178 1.7577673611503017 7.031053568747581 0 0 0
115 1 12.304929744917247 4.896002001967415e-05 8.78913131411071 0 0 0
116 1 10.547033983156757 1.7577782429365694 8.78913131411071 0 0 0
133 1 10.547035795822806 3.5155266775484786 7.031169458952436 0 0 0
135 1 12.304945330004236 3.5155279545825997 8.78913131411071 0 0 0
157 1 10.547075765591634 4.8197124398635354e-05 10.547137457469226 0 0 0
158 1 12.305041850562178 1.7577673611503013 10.547209059473838 0 0 0
167 1 10.547035795822804 3.5155266775484777 10.547093169268983 0 0 0
117 1 14.062824277319281 6.0240356341146924e-05 7.0311023724593795 0 0 0
118 1 15.820545696475044 1.7577945206641232 7.031226546017526 0 0 0
119 1 15.82047297666202 2.324871836344015e-05 8.78913131411071 0 0 0
120 1 14.062720137074175 1.7578013697887063 8.78913131411071 0 0 0
137 1 14.062848272272399 3.515490923850993 7.031046199625202 0 0 0
139 1 15.820498946633762 3.515589944409798 8.78913131411071 0 0 0
159 1 14.062824277319281 6.0240356341244516e-05 10.54716025576204 0 0 0
160 1 15.820545696475044 1.7577945206641241 10.547036082203896 0 0 0
169 1 14.062848272272399 3.515490923850993 10.547216428596217 0 0 0
122 1 1.7577660224658007 5.2732646137242805 7.0311023724593795 0 0 0
124 1 2.489303343589852e-05 5.273368753969388 8.78913131411071 0 0 0
128 1 3.515552349905462 5.273356780623961 8.78913131411071 0 0 0
141 1 5.8901671839090725e-05 7.031047040481383 7.03105356874758 0 0 0
142 1 1.7577773028021229 7.031159146126314 8.78913131411071 0 0 0
143 1 3.5155159777889122 7.031101587994233 7.031107870985181 0 0 0
162 1 1.7577660224658 5.2732646137242805 10.547160255762043 0 0 0
171 1 5.8901671840388414e-05 7.031047040481383 10.54720905947384 0 0 0
172 1 3.5155159777889122 7.0311015879942325 10.547154757236239 0 0 0
351 1 1.757778065697744 8.789013125451927 7.031125170752193 0 0 0
352 1 4.8019885571409724e-05 8.789054907886804 8.78913131411071 0 0 0
354 1 3.515535020486309 8.789063273692854 8.78913131411071 0 0 0
401 1 1.7577780656977438 8.789013125451927 10.547137457469226 0 0 0
126 1 5.273290799475189 5.273290799475189 7.031113437769394 0 0 0
132 1 7.031175144465398 5.273335960092399 8.78913131411071 0 0 0
144 1 5.273335960092399 7.031175144465399 8.78913131411071 0 0 0
145 1 7.031173107019624 7.031173107019625 7.0311953294436815 0 0 0
164 1 5.2732907994751885 5.273290799475189 10.547149190452027 0 0 0
173 1 7.031173107019624 7.031173107019625 10.547067298777739 0 0 0
130 1 8.789064271712729 5.273333884131727 7.031195150132214 0 0 0
146 1 8.789086203022666 7.0311981452596735 8.78913131411071 0 0 0
166 1 8.789064271712729 5.273333884131727 10.547067478089208 0 0 0
353 1 5.273333884131728 8.789064271712729 7.031195150132214 0 0 0
356 1 7.031198145259673 8.789086203022666 8.78913131411071 0 0 0
402 1 5.273333884131728 8.789064271712729 10.547067478089206 0 0 0
355 1 8.789087644236782 8.789087644236782 7.0312319238307515 0 0 0
403 1 8.789087644236782 8.789087644236782 10.547030704390668 0 0 0
134 1 12.304951979835527 5.273308097874561 7.0311612935657175 0 0 0
136 1 10.547012421692092 5.273339693900167 8.78913131411071 0 0 0
147 1 10.547007107545621 7.031190273874147 7.031220753720454 0 0 0
148 1 12.304905420961264 7.031183470082298 8.78913131411071 0 0 0
168 1 12.304951979835527 5.273308097874562 10.547101334655704 0 0 0
174 1 10.547007107545621 7.031190273874147 10.547041874500966 0 0 0
357 1 12.304898617169414 8.78908178349794 7.031220753720453 0 0 0
358 1 10.54699826824802 8.789090622795541 8.78913131411071 0 0 0
404 1 12.304898617169414 8.789081783497942 10.547041874500966 0 0 0
138 1 15.82059796719257 5.273240618771164 7.031046199625201 0 0 0
140 1 14.062772756815013 5.273316134228547 8.78913131411071 0 0 0
149 1 14.062780793168999 7.031136911208036 7.031161293565717 0 0 0
150 1 15.82056093646096 7.031143561039328 8.78913131411071 0 0 0
170 1 15.82059796719257 5.273240618771163 10.547216428596219 0 0 0
175 1 14.062780793169 7.031136911208036 10.547101334655704 0 0 0
359 1 15.820562213495084 8.789053095220757 7.031169458952437 0 0 0
360 1 14.062749197143395 8.78907646935147 8.78913131411071 0 0 0
405 1 15.820562213495084 8.789053095220755 10.547093169268983 0 0 0
176 1 1.7576866305284562 0.00013963229368427638 12.304854504039106 0 0 0
177 1 0.00013963229368491124 1.7576866305284569 12.304854504039106 0 0 0
179 1 3.5152333854280062 1.7576900385368193 12.30512353448927 0 0 0
186 1 1.7576900385368197 3.5152333854280067 12.30512353448927 0 0 0
201 1 0.0005238774138489013 0.0005238774138489825 14.063716837412745 0 0 0
202 1 1.7573023854082919 1.7573023854082914 14.063716837412745 0 0 0
203 1 1.7538293759351982 0.003996886886942616 15.828597193150632 0 0 0
204 1 0.003996886886942876 1.7538293759351986 15.828597193150632 0 0 0
205 1 3.5144182512591877 0.000506684375239662 14.064072797423465 0 0 0
208 1 3.5110465950261203 1.7573392936439665 15.824865072196298 0 0 0
221 1 0.0005066843752395647 3.514418251259188 14.064072797423465 0 0 0
223 1 1.757339293643966 3.5110465950261203 15.824865072196298 0 0 0
225 1 3.5148507925686725 3.5148507925686734 14.06361684847329 0 0 0
178 1 5.272876388992641 0.0001334017930234414 12.305407627657738 0 0 0
181 1 7.030859100863752 1.7577673641963003 12.305225984608642 0 0 0
188 1 5.273038653747202 3.5153885109485565 12.305241444055673 0 0 0
206 1 5.2724984076235435 1.7576979994347095 14.06358491357951 0 0 0
207 1 5.272795556983821 0.0005008944951013882 15.821065033229578 0 0 0
209 1 7.030967012232415 0.00013145287427998706 14.0629481366801 0 0 0
212 1 7.031287098185655 1.7578084917129473 15.820597723222221 0 0 0
227 1 5.27254478966574 3.514918648556809 15.821034868922608 0 0 0
229 1 7.030915865369396 3.5154321703364486 14.062958998090846 0 0 0
180 1 8.789001012251832 5.7664036556556693e-05 12.304972668215106 0 0 0
190 1 8.789005340631324 3.515522806842714 12.304981405836656 0 0 0
210 1 8.789073116086076 1.7578061069442028 14.06271053575128 0 0 0
211 1 8.789127410948236 2.7366640941838363e-05 15.82046008192424 0 0 0
231 1 8.789130034406929 3.5156003997242147 15.820481493839909 0 0 0
182 1 12.305229790179808 5.889862584145926e-05 12.305225984608642 0 0 0
183 1 10.547087878791727 1.7577685987855844 12.304972668215106 0 0 0
192 1 12.305094479866428 3.5154589438374146 12.305087897067946 0 0 0
213 1 10.547015774957485 2.015587793797002e-05 14.06271053575128 0 0 0
214 1 12.305121878811146 1.7576948099478604 14.0629481366801 0 0 0
215 1 12.304801792857907 1.7771109193445545e-05 15.820597723222221 0 0 0
216 1 10.546961480095327 1.7577988961811997 15.82046008192424 0 0 0
233 1 10.547076115775312 3.515537091076805 14.062732421770946 0 0 0
235 1 12.305064389366349 3.515361220355337 15.820593359162082 0 0 0
184 1 15.820855505615555 0.0001362242853212451 12.30512353448927 0 0 0
185 1 14.063212502050922 1.7576928610291183 12.305407627657738 0 0 0
194 1 15.82084925224464 3.5152396387989198 12.305379994953592 0 0 0
217 1 14.063590483420018 0.00012826338743136936 14.06358491357951 0 0 0
218 1 15.821670639784372 1.7573195784469016 14.064072797423465 0 0 0
219 1 15.82504229601744 0.00048696917817504917 15.824865072196296 0 0 0
220 1 14.063293334059741 1.757325368327041 15.821065033229578 0 0 0
237 1 14.063217414544878 3.515203331978211 14.063207021430879 0 0 0
239 1 15.82164900791111 3.5144398831324515 15.821475934025516 0 0 0
187 1 0.00013340179302345764 5.272876388992641 12.305407627657738 0 0 0
189 1 3.515388510948556 5.273038653747202 12.305241444055673 0 0 0
196 1 1.7577673641962996 7.0308591008637515 12.305225984608642 0 0 0
222 1 1.7576979994347093 5.2724984076235435 14.06358491357951 0 0 0
224 1 0.0005008944951003899 5.272795556983821 15.821065033229578 0 0 0
228 1 3.51491864855681 5.27254478966574 15.821034868922608 0 0 0
241 1 0.0001314528742814941 7.030967012232415 14.0629481366801 0 0 0
242 1 1.7578084917129473 7.031287098185655 15.820597723222221 0 0 0
243 1 3.5154321703364495 7.030915865369396 14.062958998090846 0 0 0
426 1 5.7664036555947155e-05 8.789001012251834 12.304972668215106 0 0 0
427 1 3.5155228068427133 8.789005340631324 12.304981405836656 0 0 0
451 1 1.7578061069442035 8.789073116086076 14.06271053575128 0 0 0
452 1 2.7366640941021156e-05 8.789127410948236 15.82046008192424 0 0 0
454 1 3.5156003997242147 8.789130034406929 15.820481493839909 0 0 0
191 1 7.031064338901421 5.2732617872099 12.305029277082626 0 0 0
197 1 5.273261787209901 7.031064338901422 12.305029277082626 0 0 0
226 1 5.273011562749438 5.273011562749438 14.06303398011157 0 0 0
232 1 7.03091060856519 5.273101474470846 15.820610937739454 0 0 0
244 1 5.273101474470846 7.03091060856519 15.820610937739454 0 0 0
245 1 7.031072828403337 7.031072828403336 14.062800224186441 0 0 0
198 1 8.789061373420633 7.031171578554099 12.30492329937568 0 0 0
230 1 8.789018535193776 5.273309190979541 14.062764150090306 0 0 0
246 1 8.789009382853536 7.031117175455864 15.820529758899132 0 0 0
428 1 7.0311715785540985 8.789061373420635 12.30492329937568 0 0 0
453 1 5.27330919097954 8.789018535193776 14.062764150090306 0 0 0
456 1 7.031117175455863 8.789009382853536 15.820529758899134 0 0 0
455 1 8.789064137825564 8.789064137825562 14.06273648834213 0 0 0
193 1 10.547037754065919 5.273316968155482 12.304942223130917 0 0 0
199 1 12.304951024916871 7.03113786612669 12.304951608772535 0 0 0
234 1 12.305078431364183 5.273208980035104 14.062834997504053 0 0 0
236 1 10.54708660052095 5.273324146873586 15.820510046444229 0 0 0
247 1 10.54703138282406 7.031155934233207 14.062744768761396 0 0 0
248 1 12.305042070961331 7.0310468200822305 15.820544748485117 0 0 0
429 1 10.547006550167943 8.789082340875618 12.304902713819953 0 0 0
457 1 12.304932956810354 8.789057508219502 14.062744768761396 0 0 0
458 1 10.54702608822996 8.789062802813602 15.820519005613212 0 0 0
195 1 14.062922859863185 5.273166031180375 12.305133600140119 0 0 0
200 1 15.820629947206147 7.030994411177135 12.305087897067946 0 0 0
238 1 15.820885559065351 5.272871476498682 14.06320702143088 0 0 0
240 1 14.063166094634555 5.272922796409006 15.82069923022712 0 0 0
249 1 14.062879911008457 7.031010459679378 14.062834997504053 0 0 0
250 1 15.820727670688225 7.031024501677213 15.82059335916208 0 0 0
430 1 14.062771922888077 8.789051136977642 12.304942223130917 0 0 0
459 1 15.820551799966758 8.789012775268251 14.062732421770946 0 0 0
460 1 14.062764744169975 8.78900229052261 15.820510046444229 0 0 0
251 1 1.757834770464601 8.789204187794015 3.855539401393674e-19 0 0 0
262 1 1.7576843582397867 12.304731504649938 5.255665741922422e-16 0 0 0
263 1 1.7577988961812 10.546961480095328 1.7578025462971796 0 0 0
264 1 1.777110919371553e-05 12.304801792857907 1.757664904999198 0 0 0
265 1 3.51558752401333 10.547018559539973 9.478170793195436e-19 0 0 0
268 1 3.5153612203553366 12.305064389366347 1.7576692690593392 0 0 0
311 1 2.0155877938475943e-05 10.547015774957487 3.51555209247014 0 0 0
312 1 1.7576948099478604 12.305121878811146 3.51531449154132 0 0 0
313 1 1.757768598785584 10.547087878791729 5.273289960006312 0 0 0
314 1 5.889862584196763e-05 12.305229790179808 5.2730366436127785 0 0 0
315 1 3.515537091076805 10.547076115775312 3.5155302064504736 0 0 0
318 1 3.5154589438374138 12.305094479866428 5.273174731153474 0 0 0
266 1 5.273099920059665 12.305154046904237 5.337320293879871e-19 0 0 0
267 1 5.273324146873586 10.547086600520952 1.7577525817771915 0 0 0
269 1 7.031129894610098 10.547073562833265 3.0990662145844487e-16 0 0 0
272 1 7.0310468200822305 12.305042070961331 1.757717879736303 0 0 0
316 1 5.273208980035104 12.305078431364183 3.515427630717368 0 0 0
317 1 5.273316968155483 10.547037754065919 5.2733204050905025 0 0 0
319 1 7.031155934233208 10.547031382824061 3.5155178594600245 0 0 0
322 1 7.03113786612669 12.304951024916871 5.273311019448887 0 0 0
270 1 8.789015328210295 12.304958996433463 1.7763897486215592e-19 0 0 0
271 1 8.789062802813602 10.54702608822996 1.7577436226082088 0 0 0
320 1 8.789057508219502 12.304932956810353 3.5155178594600245 0 0 0
321 1 8.789082340875618 10.547006550167943 5.273359914401467 0 0 0
273 1 10.54706692713646 10.547066927136461 0 0 0 0
274 1 12.305192056078694 12.305192056078694 7.71168778913331e-19 0 0 0
275 1 12.304971715587698 10.547079508190025 1.7577328693222878 0 0 0
276 1 10.547079508190025 12.304971715587698 1.7577328693222882 0 0 0
323 1 10.547024753217999 10.547024753217999 3.5155261398792903 0 0 0
324 1 12.305016062640224 12.305016062640226 3.515462404034979 0 0 0
325 1 12.304917312489462 10.547027517622928 5.273339328845741 0 0 0
326 1 10.547027517622928 12.304917312489463 5.27333932884574 0 0 0
261 1 17.57825412057896 10.546884703249546 9.372018793745432e-19 -1 0 0
277 1 14.062736932963647 10.547013098544005 4.0538113454909695e-16 0 0 0
278 1 15.820624356557971 12.304857029427124 6.376534062157983e-16 0 0 0
279 1 15.820488491319345 10.546958856636634 1.7577811343815122 0 0 0
280 1 14.062987416572717 12.305178282478371 1.757651690481965 0 0 0
327 1 14.062779700064022 10.547070355849787 3.515498478131113 0 0 0
328 1 15.820656720707111 12.305173025674165 3.5153036301305733 0 0 0
329 1 15.820566084200848 10.547083550412239 5.273281222384764 0 0 0
330 1 14.06282710383366 12.30502455214214 5.273233351138795 0 0 0
281 1 9.718395650623023e-05 14.062961845143386 1.1430162586423168e-15 0 0 0
282 1 1.7538674892318429 15.82460302185596 0 0 0 0
283 1 1.75732536832704 14.063293334059741 1.7571975949918417 0 0 0
284 1 0.0004869691781753499 15.82504229601744 1.753397556025123 0 0 0
285 1 3.514826005936794 14.063312792636786 1.314028576725229e-18 0 0 0
288 1 3.5144398831324515 15.82164900791111 1.7567866941959045 0 0 0
331 1 0.00012826338743072798 14.063590483420018 3.5146777146419104 0 0 0
332 1 1.7573195784469013 15.821670639784374 3.514189830797955 0 0 0
333 1 1.7576928610291171 14.063212502050922 5.2728550005636805 0 0 0
334 1 0.00013622428532172212 15.820855505615555 5.273139093732149 0 0 0
335 1 3.515203331978212 14.06321741454488 3.5150556067905407 0 0 0
338 1 3.51523963879892 15.820849252244642 5.2728826332678285 0 0 0
341 1 8.789051136977642 14.062771922888079 5.2733204050905025 0 0 0
340 1 8.78901277526825 15.820551799966758 3.5155302064504736 0 0 0
291 1 8.78900229052261 14.062764744169975 1.7577525817771913 0 0 0
286 1 5.272776098406776 15.821262885106767 4.557091671942756e-20 0 0 0
287 1 5.272922796409006 14.063166094634555 1.7575633979943015 0 0 0
289 1 7.030934844139326 14.062988970983897 4.2932190593646866e-19 0 0 0
292 1 7.031024501677213 15.820727670688225 1.7576692690593398 0 0 0
336 1 5.272871476498683 15.82088555906535 3.5150556067905407 0 0 0
337 1 5.2731660311803745 14.062922859863185 5.273129028081302 0 0 0
339 1 7.031010459679379 14.062879911008459 3.515427630717368 0 0 0
342 1 7.030994411177134 15.820629947206147 5.273174731153473 0 0 0
290 1 8.78907033150359 15.82050136703023 0 0 0 0
346 1 10.547083550412237 15.820566084200848 5.273281222384765 0 0 0
345 1 12.30502455214214 14.06282710383366 5.273233351138795 0 0 0
344 1 12.305173025674165 15.820656720707111 3.5153036301305733 0 0 0
343 1 10.547070355849785 14.06277970006402 3.5154984781311134 0 0 0
296 1 10.546958856636632 15.820488491319347 1.757781134381512 0 0 0
295 1 12.305178282478371 14.062987416572717 1.7576516904819648 0 0 0
294 1 12.304857029427124 15.82062435655797 2.4197721118553155e-19 0 0 0
293 1 10.547013098544005 14.062736932963647 0 0 0 0
13 1 10.546884703249546 17.57825412057896 0 0 -1 0
350 1 14.063050237296359 15.820700380095005 5.273021184165747 0 0 0
349 1 15.820700380095005 14.06305023729636 5.273021184165747 0 0 0
348 1 15.821238098474888 15.821238098474888 3.51464577974813 0 0 0
347 1 14.063077328294124 14.063077328294124 3.5152286481098516 0 0 0
300 1 14.063544101377822 15.821170242486753 1.757227759298811 0 0 0
299 1 15.821170242486753 14.063544101377822 1.7572277592988113 0 0 0
298 1 15.824912685301097 15.824912685301097 0 0 0 0
297 1 14.063573763052288 14.063573763052288 2.383893944296457e-16 0 0 0
361 1 4.819712439656442e-05 10.547075765591634 7.031125170752193 0 0 0
362 1 1.7577673611503013 12.305041850562178 7.03105356874758 0 0 0
363 1 1.75777824293657 10.547033983156759 8.78913131411071 0 0 0
364 1 4.896002001791745e-05 12.304929744917247 8.78913131411071 0 0 0
365 1 3.5155266775484786 10.547035795822806 7.031169458952436 0 0 0
368 1 3.515527954582599 12.304945330004234 8.78913131411071 0 0 0
406 1 4.8197124398322446e-05 10.547075765591634 10.547137457469226 0 0 0
407 1 1.7577673611503013 12.305041850562178 10.54720905947384 0 0 0
408 1 3.5155266775484773 10.547035795822806 10.547093169268983 0 0 0
366 1 5.273308097874561 12.304951979835527 7.031161293565717 0 0 0
367 1 5.273339693900167 10.547012421692092 8.78913131411071 0 0 0
369 1 7.031190273874147 10.547007107545621 7.031220753720454 0 0 0
372 1 7.031183470082297 12.304905420961264 8.78913131411071 0 0 0
409 1 5.273308097874561 12.304951979835527 10.547101334655704 0 0 0
410 1 7.031190273874147 10.547007107545621 10.547041874500966 0 0 0
370 1 8.78908178349794 12.304898617169414 7.031220753720453 0 0 0
371 1 8.789090622795541 10.54699826824802 8.78913131411071 0 0 0
411 1 8.789081783497942 12.304898617169414 10.547041874500966 0 0 0
373 1 10.54700124680678 10.54700124680678 7.0312319238307515 0 0 0
374 1 12.304915784023937 12.304915784023938 7.0311953294436815 0 0 0
375 1 12.304890745783887 10.547002688020894 8.78913131411071 0 0 0
376 1 10.547002688020894 12.304890745783887 8.78913131411071 0 0 0
412 1 10.547001246806778 10.54700124680678 10.547030704390668 0 0 0
413 1 12.304915784023938 12.304915784023937 10.547067298777737 0 0 0
377 1 14.062755006911834 10.547024619330834 7.031195150132214 0 0 0
378 1 15.820572913254649 12.304987303049328 7.031107870985182 0 0 0
379 1 15.820553870557251 10.547025617350709 8.78913131411071 0 0 0
380 1 14.062752930951161 12.304913746578164 8.789131314110708 0 0 0
414 1 14.062755006911834 10.547024619330834 10.547067478089206 0 0 0
415 1 15.820572913254649 12.304987303049328 10.547154757236237 0 0 0
381 1 6.0240356341049244e-05 14.062824277319281 7.031102372459379 0 0 0
382 1 1.7577945206641234 15.820545696475044 7.0312265460175265 0 0 0
383 1 1.7578013697887063 14.062720137074175 8.78913131411071 0 0 0
384 1 2.324871836331711e-05 15.82047297666202 8.78913131411071 0 0 0
385 1 3.5154909238509924 14.062848272272399 7.031046199625202 0 0 0
388 1 3.5155899444097987 15.820498946633762 8.78913131411071 0 0 0
416 1 6.02403563410722e-05 14.062824277319281 10.54716025576204 0 0 0
417 1 1.7577945206641241 15.820545696475044 10.547036082203896 0 0 0
418 1 3.515490923850992 14.062848272272399 10.547216428596217 0 0 0
421 1 8.789053095220755 15.820562213495084 10.547093169268983 0 0 0
391 1 8.78907646935147 14.062749197143395 8.78913131411071 0 0 0
390 1 8.789053095220757 15.820562213495084 7.031169458952437 0 0 0
386 1 5.273240618771164 15.820597967192569 7.031046199625202 0 0 0
387 1 5.273316134228548 14.062772756815013 8.78913131411071 0 0 0
389 1 7.031136911208035 14.062780793168999 7.031161293565717 0 0 0
392 1 7.031143561039327 15.820560936460963 8.78913131411071 0 0 0
419 1 5.273240618771164 15.82059796719257 10.547216428596219 0 0 0
420 1 7.031136911208035 14.062780793168999 10.547101334655704 0 0 0
423 1 12.30498730304933 15.820572913254647 10.547154757236239 0 0 0
422 1 10.547024619330832 14.062755006911834 10.547067478089206 0 0 0
396 1 10.547025617350707 15.820553870557251 8.78913131411071 0 0 0
395 1 12.304913746578164 14.062752930951163 8.78913131411071 0 0 0
394 1 12.304987303049328 15.820572913254649 7.031107870985181 0 0 0
393 1 10.547024619330832 14.062755006911834 7.031195150132214 0 0 0
425 1 15.820567977234013 15.820567977234013 10.5470955833277 0 0 0
424 1 14.062798091568371 14.062798091568375 10.547149190452027 0 0 0
400 1 14.0627321104196 15.820536541138098 8.78913131411071 0 0 0
399 1 15.8205365411381 14.0627321104196 8.78913131411071 0 0 0
398 1 15.820567977234013 15.820567977234013 7.0311670448937225 0 0 0
397 1 14.062798091568373 14.062798091568373 7.0311134377693945 0 0 0
431 1 1.7577685987855847 10.547087878791729 12.304972668215106 0 0 0
432 1 5.8898625841150196e-05 12.305229790179808 12.305225984608642 0 0 0
434 1 3.5154589438374133 12.305094479866428 12.305087897067947 0 0 0
461 1 2.0155877937811906e-05 10.547015774957485 14.062710535751282 0 0 0
462 1 1.757694809947862 12.305121878811146 14.0629481366801 0 0 0
463 1 1.7577988961811994 10.546961480095325 15.820460081924242 0 0 0
464 1 1.7771109193336156e-05 12.304801792857907 15.820597723222221 0 0 0
465 1 3.5155370910768053 10.547076115775312 14.062732421770946 0 0 0
468 1 3.515361220355337 12.305064389366349 15.820593359162082 0 0 0
433 1 5.273316968155483 10.547037754065919 12.304942223130917 0 0 0
436 1 7.031137866126689 12.304951024916871 12.304951608772535 0 0 0
466 1 5.273208980035104 12.305078431364182 14.062834997504053 0 0 0
467 1 5.273324146873585 10.54708660052095 15.82051004644423 0 0 0
469 1 7.031155934233207 10.547031382824061 14.062744768761396 0 0 0
472 1 7.0310468200822305 12.305042070961331 15.820544748485117 0 0 0
435 1 8.789082340875618 10.547006550167943 12.304902713819953 0 0 0
470 1 8.789057508219502 12.304932956810354 14.062744768761396 0 0 0
471 1 8.789062802813602 10.54702608822996 15.820519005613212 0 0 0
437 1 12.304917312489463 10.547027517622928 12.30492329937568 0 0 0
438 1 10.547027517622926 12.304917312489463 12.30492329937568 0 0 0
473 1 10.547024753217999 10.547024753217999 14.06273648834213 0 0 0
474 1 12.305016062640226 12.305016062640226 14.062800224186441 0 0 0
475 1 12.304971715587698 10.547079508190025 15.820529758899132 0 0 0
476 1 10.547079508190025 12.304971715587698 15.820529758899132 0 0 0
439 1 15.820566084200848 10.547083550412239 12.304981405836656 0 0 0
440 1 14.06282710383366 12.30502455214214 12.305029277082625 0 0 0
477 1 14.06277970006402 10.547070355849787 14.062764150090306 0 0 0
478 1 15.820656720707111 12.305173025674165 14.062958998090846 0 0 0
479 1 15.820488491319347 10.546958856636634 15.820481493839909 0 0 0
480 1 14.062987416572716 12.305178282478371 15.820610937739456 0 0 0
441 1 1.7576928610291187 14.063212502050922 12.30540762765774 0 0 0
442 1 0.00013622428532053754 15.820855505615555 12.30512353448927 0 0 0
444 1 3.5152396387989193 15.820849252244642 12.305379994953592 0 0 0
481 1 0.0001282633874314983 14.063590483420016 14.06358491357951 0 0 0
482 1 1.7573195784469022 15.821670639784374 14.064072797423465 0 0 0
483 1 1.7573253683270413 14.063293334059741 15.821065033229578 0 0 0
484 1 0.00048696917817483667 15.82504229601744 15.824865072196296 0 0 0
485 1 3.5152033319782103 14.06321741454488 14.063207021430879 0 0 0
488 1 3.514439883132451 15.82164900791111 15.821475934025516 0 0 0
491 1 8.78900229052261 14.062764744169975 15.820510046444229 0 0 0
490 1 8.78901277526825 15.820551799966758 14.062732421770946 0 0 0
445 1 8.789051136977642 14.062771922888079 12.304942223130917 0 0 0
443 1 5.273166031180375 14.062922859863185 12.305133600140119 0 0 0
446 1 7.030994411177134 15.820629947206148 12.305087897067947 0 0 0
486 1 5.272871476498683 15.820885559065351 14.063207021430879 0 0 0
487 1 5.272922796409006 14.063166094634555 15.82069923022712 0 0 0
489 1 7.031010459679378 14.062879911008457 14.062834997504053 0 0 0
492 1 7.031024501677213 15.820727670688225 15.82059335916208 0 0 0
496 1 10.546958856636634 15.820488491319347 15.820481493839909 0 0 0
495 1 12.305178282478373 14.062987416572717 15.820610937739456 0 0 0
494 1 12.305173025674165 15.820656720707111 14.062958998090846 0 0 0
493 1 10.547070355849787 14.062779700064022 14.062764150090306 0 0 0
448 1 10.547083550412237 15.820566084200847 12.304981405836656 0 0 0
447 1 12.30502455214214 14.062827103833662 12.305029277082625 0 0 0
500 1 14.063544101377822 15.821170242486753 15.821034868922608 0 0 0
499 1 15.821170242486753 14.063544101377822 15.821034868922608 0 0 0
498 1 15.821238098474888 15.82123809847489 14.06361684847329 0 0 0
497 1 14.063077328294124 14.063077328294124 14.063033980111568 0 0 0
450 1 14.06305023729636 15.820700380095005 12.305241444055673 0 0 0
449 1 15.820700380095005 14.06305023729636 12.305241444055675 0 0 0

Velocities

1 -5.600386792048231e-09 -5.6003868125745934e-09 -7.417999356060752e-16
2 5.600382507740224e-09 5.600381874844046e-09 -1.220178218445043e-16
3 1.305290041343461e-09 -1.3052905313057677e-09 -1.126980013296292e-09
4 -1.3052910918730147e-09 1.3052897739141338e-09 -1.126979122864564e-09
5 6.00822652109978e-09 -4.0040494023949093e-10 -2.1680031029032557e-16
8 -3.653058549852559e-09 2.6529474044865263e-09 -4.4670165773419175e-10
21 -4.004056985727115e-10 6.008224284808227e-09 -5.396555927300632e-16
23 2.6529478004823862e-09 -3.6530585882749127e-09 -4.4670090924898306e-10
25 -3.66124068541211e-09 -3.661239012526618e-09 -1.487039255358068e-16
51 -1.8646127225715134e-09 -1.8646056824644974e-09 -4.100177547350217e-09
52 1.8646081990584117e-09 1.8646093677125786e-09 -4.100175312876254e-09
53 9.559613247288236e-10 -9.559616258866253e-10 2.9647330061010874e-09
54 -9.55960562015586e-10 9.559620232830077e-10 2.964732044914515e-09
55 1.4520523956554292e-09 -5.558073457574164e-09 -8.89759850728025e-09
58 1.0925337933364254e-09 -3.828379729489744e-09 1.8992484961056858e-09
71 -5.55807101045271e-09 1.452050147296578e-09 -8.89759895646858e-09
73 -3.828380372639054e-09 1.0925353498212045e-09 1.8992480136883682e-09
75 4.407734688749721e-09 4.407737030223755e-09 -3.1813746942074113e-10
6 1.039592814019974e-08 -6.10530168697734e-11 -7.334818931189442e-16
7 5.146786790158827e-09 -3.537536420748287e-09 1.8897736743953894e-09
9 4.569469452464543e-09 2.357403189344256e-10 -7.027515051995934e-16
12 3.993043305239036e-09 -3.5611024177695712e-09 5.945796537888804e-10
27 -2.2937198038244966e-09 2.7240411521527805e-09 3.939179614309296e-09
29 1.539874768774394e-09 1.4232707390653498e-09 -1.146680299982255e-15
56 -1.9246736099869085e-09 -2.4412027997771893e-09 -2.119465625187947e-10
57 1.49808732629822e-09 1.2218540964198258e-09 -9.989747584295095e-10
59 -1.8949488549041007e-09 2.04868416049682e-09 1.562289236099947e-09
62 2.663787000831788e-09 -2.5289559126916475e-09 4.587987902621543e-09
77 -5.962404397175807e-09 -2.4000491369333202e-09 -1.1094101308294783e-09
79 4.1368281697748345e-10 -4.338306872106491e-09 3.2642223987112804e-09
11 2.1771518630302977e-09 4.70196565041918e-09 -4.860716539075426e-10
31 -3.223682218159889e-09 -4.6517957005947605e-09 1.9985605601922163e-09
60 -1.8217071155060546e-09 8.39527479008651e-10 4.202655881154061e-09
61 2.0833615659707394e-09 -7.549920517727341e-10 3.6194578540306435e-09
81 1.4480586760569322e-09 2.563488485406959e-09 3.6330550651248763e-09
10 -5.775152483630365e-10 -1.135960833352398e-09 -1.347340129849391e-15
14 -4.569468476266457e-09 -2.357424043743396e-10 -1.503710256578798e-16
15 -3.993043420431145e-09 3.56110261513619e-09 5.945800974713976e-10
16 -2.17715162381929e-09 -4.7019660173849836e-09 -4.860720520534465e-10
33 -3.334432071703992e-09 -5.510324152615156e-10 -9.01824457184461e-16
35 -1.2715833447491808e-09 -2.5393605180904e-09 -5.385430261231557e-09
63 1.821707838123397e-09 -8.395299206503994e-10 4.202654541908765e-09
64 1.8949498271835938e-09 -2.0486808362183685e-09 1.562287674396623e-09
65 -2.6637855447542184e-09 2.5289547472241187e-09 4.58798933414818e-09
66 -2.0833662265924323e-09 7.549963786113532e-10 3.6194576729462114e-09
83 -5.014726994310072e-09 1.5248162143179157e-09 3.4423067297730716e-10
85 3.767172900726598e-11 4.309381507960489e-09 -4.476445510109357e-09
17 -1.0395926959717185e-08 6.10537100274014e-11 -2.704873754228128e-15
18 -6.008225709498992e-09 4.004038601459922e-10 -1.3911121945930517e-15
19 3.6530644605522355e-09 -2.652950237327196e-09 -4.4669950494520733e-10
20 -5.146789357495357e-09 3.5375343322811432e-09 1.8897742251439024e-09
37 -6.461473748580991e-09 1.1885315374695628e-09 2.423953037345867e-16
39 -1.6879390924779886e-09 1.6879380296656486e-09 4.293773397412099e-09
67 1.924675198003127e-09 2.4411995855285175e-09 -2.1194776580086215e-10
68 -1.4520481631628486e-09 5.558066651084851e-09 -8.89759855157698e-09
69 -1.0925355009247704e-09 3.82837788302792e-09 1.899245842174225e-09
70 -1.498085863082042e-09 -1.2218532695475342e-09 -9.989729138567127e-10
87 -2.8229096261929272e-09 -2.9796835261361973e-10 -2.4174998362575323e-09
89 2.099658001079542e-09 -2.0996529581854083e-09 -6.270114222301121e-09
22 -6.105107410963958e-11 1.0395928598792223e-08 -7.670194738676656e-16
24 -3.5375304245750343e-09 5.146787514346652e-09 1.8897732003978937e-09
28 2.7240398591061257e-09 -2.293719380623855e-09 3.93918207992754e-09
41 2.3574047243646084e-10 4.569465800345319e-09 -2.917288191699933e-15
42 -3.56110290226037e-09 3.99303926681635e-09 5.945807993577804e-10
43 1.4232727047514775e-09 1.5398749478939852e-09 -1.8289622516281754e-15
72 -2.441197969260017e-09 -1.924674346075732e-09 -2.1194728873032775e-10
74 1.2218513141954364e-09 1.4980834757056615e-09 -9.98973527115332e-10
78 -2.400050080271908e-09 -5.9624039717221165e-09 -1.1094130271474594e-09
91 2.0486831795228757e-09 -1.894947300845898e-09 1.56229004918104e-09
92 -2.528955097212085e-09 2.6637863075658307e-09 4.587988785258246e-09
93 -4.338307850588275e-09 4.136780189149283e-10 3.2642232650224643e-09
252 4.701966859247708e-09 2.177159873917763e-09 -4.860665688528158e-10
254 -4.651795559094441e-09 -3.22367507516463e-09 1.9985579621018752e-09
301 8.395240875730594e-10 -1.8217049423429636e-09 4.20265299849377e-09
302 -7.549921764931377e-10 2.083363764833054e-09 3.6194564875027592e-09
304 2.5634915346578075e-09 1.4480583980687874e-09 3.6330557080481577e-09
26 -1.162640818309947e-09 -1.1626410685605157e-09 -6.689750144228405e-16
32 -2.9052486085411717e-09 -4.340543307777449e-09 -6.287276287100921e-10
44 -4.34054370388775e-09 -2.9052501237741524e-09 -6.287290779851672e-10
45 -6.386625378744224e-10 -6.38662709158859e-10 2.2560601862742917e-16
76 -3.4105242321163027e-09 -3.410522989891754e-09 7.925240750975823e-09
82 -3.451270970356382e-09 4.7335067043908214e-09 2.4226366223337624e-09
94 4.733505768020442e-09 -3.451271093631495e-09 2.4226370237734625e-09
95 -4.9180911307308804e-09 -4.918092915469842e-09 7.760303886798502e-09
30 -5.417468845461885e-09 -4.891012630551081e-09 -1.1396629034726228e-15
46 -1.4381497112037114e-09 -7.723663661152411e-10 -2.3847961821833997e-09
80 1.1564513250424117e-09 -2.899192198144548e-09 4.380113075409537e-09
96 -8.877586140313386e-10 4.3761150539087245e-10 -3.5476409836336545e-10
253 -4.891015214575008e-09 -5.41747249358405e-09 1.182445365404094e-15
256 -7.723640175822349e-10 -1.4381458790516272e-09 -2.3847985593662854e-09
303 -2.8991919864822934e-09 1.1564567579103211e-09 4.380112769686681e-09
306 4.376119007310475e-10 -8.877583149721976e-10 -3.5476474175275544e-10
255 -2.2387142076987285e-09 -2.2387087119553212e-09 3.5977039515337547e-16
305 -1.7784567121189868e-09 -1.77845869414772e-09 -6.789383115983503e-09
34 -3.5931558017816564e-09 1.254437532546533e-09 3.558705402840371e-17
36 -5.24376420782643e-09 -3.160398944583761e-09 7.728781761756216e-10
47 -4.397346586058524e-09 8.858733411592389e-10 -9.470955652412608e-16
48 -3.999574414442226e-09 3.999569233203047e-09 -3.5780754915830927e-09
84 -3.513467802844878e-09 -3.676891656423348e-09 -3.314126651787928e-10
86 -7.73392991335773e-12 5.780438396716611e-09 -5.620265197107626e-10
97 -1.3910150499638064e-09 -1.5723974251822147e-09 1.5800678905620357e-09
98 -1.2303145540695422e-09 1.2303102071300145e-09 -2.155948363643654e-09
257 -8.858795153579385e-10 4.39735070148712e-09 -4.043751316123813e-16
258 -4.402384956291753e-10 4.402414520884191e-10 -3.3099591463728814e-09
307 1.5723982236795146e-09 1.3910182295791353e-09 1.5800678637642943e-09
308 -5.002780962231974e-10 5.002763436989796e-10 -5.509494092757928e-09
100 -4.309385425642568e-09 -3.7673884741636266e-11 -4.476445108440701e-09
38 -1.1885331553870106e-09 6.4614788609183055e-09 -1.6477484098024595e-15
40 -1.2506225343522795e-09 1.250623831324554e-09 -7.380356055874887e-09
49 -1.254430987304164e-09 3.593151551867382e-09 2.7372530897919315e-16
50 2.53935407520224e-09 1.2715860755563844e-09 -5.385433102668158e-09
88 2.9796731697143976e-10 2.822907225470047e-09 -2.4174970157677204e-09
90 -1.081698050816766e-09 1.0817024794404262e-09 -8.779685900677726e-09
99 3.676893368784038e-09 3.513466984421101e-09 -3.3141123820849046e-10
259 5.510293140407095e-10 3.334433169093728e-09 -1.3623305629807816e-15
260 3.1604040088041283e-09 5.243765648565934e-09 7.728785280543736e-10
309 -1.5248132413308958e-09 5.014729105461409e-09 3.4422786351249027e-10
310 -5.78043796764357e-09 7.737448023995782e-12 -5.620254092516823e-10
101 5.7027208117985934e-09 5.702720284135347e-09 -4.775197835364861e-09
102 -5.702718413329292e-09 -5.702720125836373e-09 -4.775198604149224e-09
103 -4.870826135148621e-10 4.870813179666787e-10 2.815203342075163e-16
104 4.87080565222079e-10 -4.870842147929292e-10 1.9217735274442804e-16
105 -3.6208754782677967e-09 1.4516939183490913e-09 -4.448965748322959e-09
108 -2.1066176413522303e-09 -1.7265974481250122e-09 4.700999830004106e-16
121 1.451693261060759e-09 -3.6208730594489824e-09 -4.448967531782805e-09
123 -1.726597114295038e-09 -2.106616921708381e-09 1.2795833720955054e-15
125 -5.073384849810127e-09 -5.073385435961241e-09 2.485271868364524e-09
151 5.702720164211882e-09 5.702720332104733e-09 4.775197182681403e-09
152 -5.702719017743556e-09 -5.702719459661525e-09 4.775197044469609e-09
153 -3.620874144306628e-09 1.451694848670596e-09 4.448965045321134e-09
161 1.4516941329043498e-09 -3.620873095426022e-09 4.448965823173236e-09
163 -5.073386922274983e-09 -5.073386880674189e-09 -2.4852753885415857e-09
106 -4.360617198437811e-09 -3.0346020885729756e-09 1.1408421258949036e-09
107 -4.1206327760295935e-09 -4.47750517430849e-09 -4.002445646081302e-16
109 7.666710451592672e-10 -2.2436914743649323e-09 5.142033382350504e-09
112 -1.7036948361191196e-09 -1.6558053862539631e-09 -1.6129706049376331e-16
127 -3.9299686710477325e-09 2.856248558925953e-09 -3.1681167851985156e-16
129 -1.4862581839943674e-09 3.4881200157503566e-10 4.1297546637095144e-09
154 -4.36061835496378e-09 -3.0346036715627144e-09 -1.1408415067150632e-09
155 7.666725160767802e-10 -2.243689538800206e-09 -5.1420371659358265e-09
165 -1.486255638785188e-09 3.488125993372948e-10 -4.129755015486378e-09
110 4.0303483271207357e-10 1.17048750888753e-10 5.158234311095679e-09
111 -2.348205029507305e-09 -2.432948568413431e-09 2.1586223709202526e-16
131 5.212440322435637e-10 -4.272424509032773e-09 -2.2066210351304126e-16
156 4.030321689173762e-10 1.170486981224284e-10 -5.1582330793317886e-09
113 -4.030333500100892e-10 -1.1705066246878593e-10 5.158235332693697e-09
114 -7.666713123297751e-10 2.243689534003268e-09 5.142034852986947e-09
115 1.703695767782444e-09 1.6558019016908912e-09 -1.425847838864696e-17
116 2.348205185700738e-09 2.432949940337871e-09 -1.004359019803173e-15
133 1.7325081912860655e-09 2.698785042680227e-09 1.9479238142657177e-09
135 1.0424462274284818e-09 4.4263523137455845e-09 4.353906890995051e-16
157 -4.0303286847990096e-10 -1.170536437661271e-10 -5.1582316261592006e-09
158 -7.666720869867575e-10 2.2436905365634356e-09 -5.142032749754226e-09
167 1.7325124768880042e-09 2.698787222542168e-09 -1.9479252647294873e-09
117 4.360616042750954e-09 3.0346016337632345e-09 1.1408404945610181e-09
118 3.6208739339908516e-09 -1.4516924524767958e-09 -4.448965559041804e-09
119 2.106616874338612e-09 1.7266007791561302e-09 7.914948693374259e-16
120 4.120633011508217e-09 4.477503845556497e-09 -1.861811794918718e-16
137 2.7599448999177867e-09 1.4254353847442562e-09 2.6069411106725945e-09
139 -1.9803634746408777e-09 1.9803663640351526e-09 -7.96291807939471e-16
159 4.360616866025542e-09 3.0346021857109824e-09 -1.1408418784778047e-09
160 3.620873760101827e-09 -1.4516947352199532e-09 4.4489650406726265e-09
169 2.759943714474335e-09 1.4254359820390249e-09 -2.606939483910791e-09
122 -3.0346042615861625e-09 -4.360617503599405e-09 1.1408404498145752e-09
124 -4.477505735550306e-09 -4.120631276827007e-09 4.349919201556583e-16
128 2.856249339852567e-09 -3.929966974976549e-09 4.4147762474016155e-16
141 -2.2436880517492396e-09 7.666720657079548e-10 5.142036958468233e-09
142 -1.6558080293671328e-09 -1.7036973484861416e-09 1.9487563070807836e-17
143 3.488145433997225e-10 -1.486257740149283e-09 4.129754802646236e-09
162 -3.0346026785964236e-09 -4.3606186405959434e-09 -1.1408458335536821e-09
171 -2.2436908627552603e-09 7.666714058290884e-10 -5.142037752961188e-09
172 3.488144288259683e-10 -1.4862553794822423e-09 -4.129754615806883e-09
351 1.1704596866436383e-10 4.0303615621917144e-10 5.158234323537739e-09
352 -2.432948736306282e-09 -2.3482047141952552e-09 -3.405826407451954e-16
354 -4.272422952604208e-09 5.212459208302632e-10 -3.9095342388563896e-16
401 1.1704793061225206e-10 4.030345223369123e-10 -5.158232072574299e-09
126 -4.2390396736490977e-10 -4.2390358892205635e-10 4.443074557468864e-09
132 -1.8929523173746844e-09 4.161209849746181e-09 6.246220703953383e-16
144 4.161207236085882e-09 -1.8929553275698126e-09 -4.563087845195312e-16
145 3.8607360617947775e-09 3.8607334689487044e-09 2.2152377662724364e-09
164 -4.239014061049946e-10 -4.2390220040859386e-10 -4.443075260763772e-09
173 3.860735458223382e-09 3.860733018636094e-09 -2.2152376019772896e-09
130 3.2362595687164236e-10 5.010680122774562e-09 1.257108827311283e-10
146 1.6377046468093008e-09 6.0957134743581224e-09 2.2905381824764903e-16
166 3.236244859986322e-10 5.010680151414596e-09 -1.2571262993169293e-10
353 5.010676570100466e-09 3.2362633418084424e-10 1.2571029330729758e-10
356 6.0957165898407e-09 1.6377062131150917e-09 -1.2472040365317014e-16
402 5.0106761606149e-09 3.236263450489083e-10 -1.2570844198880586e-10
355 3.5675869075293734e-09 3.5675872867873316e-09 4.902046426312565e-09
403 3.567586329353894e-09 3.5675867337902534e-09 -4.902047612655443e-09
134 2.6225402250477886e-10 6.07476241658477e-09 -3.6666273305081425e-09
136 1.6959283696973722e-09 -1.8009348298789073e-09 7.583203381411055e-16
147 -2.2611979112591984e-09 2.6104317925254473e-09 -8.240750503220281e-10
148 1.3874105145660577e-09 -1.3874109767229628e-09 9.615361539699024e-16
168 2.6225382219980066e-10 6.07476038711552e-09 3.666625628974785e-09
174 -2.261196775631718e-09 2.6104320611540093e-09 8.240748674387439e-10
357 -2.61043323895234e-09 2.2611997067911486e-09 -8.240726401601892e-10
358 -6.238806270981738e-09 6.2388070528827296e-09 -3.357857021431504e-16
404 -2.6104336252558023e-09 2.261195507221307e-09 8.240742978022849e-10
138 -1.4254380414966706e-09 -2.7599441707831192e-09 2.606942925714238e-09
140 -3.133094193081492e-09 3.1331004845662772e-09 -1.999723779727512e-16
149 -6.0747576301418125e-09 -2.622581732854453e-10 -3.6666264619063264e-09
150 -4.4263506930103606e-09 -1.0424538471499637e-09 1.8228366687771024e-16
170 -1.4254377416880079e-09 -2.759941897034222e-09 -2.606943036043826e-09
175 -6.074763055479372e-09 -2.6225799819718634e-10 3.666625240485835e-09
359 -2.69878697999696e-09 -1.7325092796612827e-09 1.9479223605040526e-09
360 1.8009330238455773e-09 -1.6959244861634902e-09 -5.834276574737239e-16
405 -2.6987870847800875e-09 -1.73250522265046e-09 -1.9479246162644304e-09
176 9.559607347053756e-10 -9.559612179969397e-10 -2.9647299598951708e-09
177 -9.559628621476456e-10 9.559604930595936e-10 -2.9647285617374724e-09
179 1.0925362041353576e-09 -3.828379972506204e-09 -1.8992472990475756e-09
186 -3.8283807324094494e-09 1.0925350440163687e-09 -1.8992473702989783e-09
201 -1.8646041504422315e-09 -1.8646035844034763e-09 4.100176164033047e-09
202 1.86460504746975e-09 1.8646058209761e-09 4.1001766149452755e-09
203 1.3052884535567836e-09 -1.3052891305247437e-09 1.1269790621533099e-09
204 -1.305290511443444e-09 1.305288280866994e-09 1.1269781856626846e-09
205 1.452051111106476e-09 -5.558072926730136e-09 8.897596582049994e-09
208 -3.6530579263161237e-09 2.6529470902087288e-09 4.4670121232509167e-10
221 -5.558073148088474e-09 1.4520486314639797e-09 8.897595908014098e-09
223 2.652948069110948e-09 -3.653056946447724e-09 4.4670158561732597e-10
225 4.407739173606243e-09 4.407736759080783e-09 3.181376692741765e-10
178 1.4980834200536784e-09 1.2218520505255119e-09 9.989752261310232e-10
181 2.6637890859986944e-09 -2.5289547758171985e-09 -4.587988949928154e-09
188 -5.962405161596036e-09 -2.400049482912517e-09 1.1094154712731695e-09
206 -1.9246758024454978e-09 -2.441197643068192e-09 2.119468348949647e-10
207 5.146786779815428e-09 -3.5375366797829717e-09 -1.8897719244122253e-09
209 -1.8949478083844876e-09 2.0486837287723456e-09 -1.562288911706974e-09
212 3.993042554603051e-09 -3.5611018325430615e-09 -5.945768462306593e-10
227 -2.2937199476449297e-09 2.7240392080997217e-09 -3.939180170377072e-09
229 4.136821431678622e-10 -4.338306319718399e-09 -3.2642226350811327e-09
180 2.083366819058853e-09 -7.549916944008083e-10 -3.619455602467587e-09
190 1.4480561215934157e-09 2.5634873973263705e-09 -3.6330552343270483e-09
210 -1.8217065259267567e-09 8.395269321576503e-10 -4.202657033918369e-09
211 2.1771526233263283e-09 4.70196465505442e-09 4.860747263467172e-10
231 -3.2236821244682958e-09 -4.651794449034129e-09 -1.9985612498405603e-09
182 -2.6637900163395228e-09 2.528953740813869e-09 -4.5879892110861866e-09
183 -2.083361358708385e-09 7.549929583941299e-10 -3.6194558165309722e-09
192 3.7671832871996226e-11 4.309379728743944e-09 4.476443727643212e-09
213 1.8217070878405077e-09 -8.395252100566922e-10 -4.202658648388018e-09
214 1.894949387148798e-09 -2.0486812448224946e-09 -1.5622904248289973e-09
215 -3.993041631517358e-09 3.5611024376529753e-09 -5.94577854904646e-10
216 -2.1771547566966995e-09 -4.7019648972998195e-09 4.860728922672235e-10
233 -5.014725534705766e-09 1.524817184105249e-09 -3.4422872608836306e-10
235 -1.271587750012981e-09 -2.539358884067605e-09 5.385430152738883e-09
184 -1.0925354601507924e-09 3.82838179493135e-09 -1.899248517067113e-09
185 -1.4980861547958707e-09 -1.2218534866090059e-09 9.989741384429818e-10
194 2.0996574894736265e-09 -2.099652934865916e-09 6.270118505149846e-09
217 1.9246706253214043e-09 2.441198660618793e-09 2.1194626076137577e-10
218 -1.4520450313615589e-09 5.5580729367233675e-09 8.897595922404915e-09
219 3.65305967560598e-09 -2.6529458505268445e-09 4.467080962622436e-10
220 -5.146788795054306e-09 3.537533668504764e-09 -1.8897711575016664e-09
237 -2.822904925637796e-09 -2.979685093339136e-10 2.417499073729333e-09
239 -1.6879385580690474e-09 1.6879384573731552e-09 -4.2937728502612905e-09
187 1.2218488461705257e-09 1.4980833330716901e-09 9.98976012828954e-10
189 -2.400047516982795e-09 -5.9624038696007514e-09 1.109415864627405e-09
196 -2.5289535717856096e-09 2.6637922107983977e-09 -4.587988272810289e-09
222 -2.4411975039569726e-09 -1.9246754802003727e-09 2.1194783145895927e-10
224 -3.5375349121110965e-09 5.146787819664298e-09 -1.889771451913773e-09
228 2.7240367543531987e-09 -2.2937203756099017e-09 -3.939179147159384e-09
241 2.0486802941643066e-09 -1.8949470011871397e-09 -1.5622904215433989e-09
242 -3.561101683837965e-09 3.9930418259830945e-09 -5.945774350548727e-10
243 -4.3383085613784e-09 4.1368142953364475e-10 -3.264223256027372e-09
426 -7.549901461888745e-10 2.08336377922387e-09 -3.619454611899766e-09
427 2.5634884521375668e-09 1.4480566709097292e-09 -3.633057085926025e-09
451 8.395258624403421e-10 -1.8217058726492437e-09 -4.202657710586521e-09
452 4.701965715777469e-09 2.1771518102639733e-09 4.86073498330435e-10
454 -4.651794405135582e-09 -3.2236821453473734e-09 -1.9985600301814447e-09
191 -3.4512697831678305e-09 4.7335062817425855e-09 -2.422638105333213e-09
197 4.733504221954014e-09 -3.4512706085410786e-09 -2.4226382828199414e-09
226 -3.4105252450585135e-09 -3.4105255990750153e-09 -7.925246725886082e-09
232 -2.9052458691203245e-09 -4.340547024428693e-09 6.287319176135463e-10
244 -4.340546368805668e-09 -2.9052452530826195e-09 6.287323992655319e-10
245 -4.9180906450138625e-09 -4.918086938985001e-09 -7.760306783774657e-09
198 -8.877603752573272e-10 4.3760986783595716e-10 3.5476558121701084e-10
230 1.1564511450538458e-09 -2.89919297276562e-09 -4.380111835381e-09
246 -1.4381461343044936e-09 -7.723663829045262e-10 2.3847992899999965e-09
428 4.3761167059307795e-10 -8.87762038192334e-10 3.5476717033408906e-10
453 -2.899189198595578e-09 1.1564519927297713e-09 -4.380110636934518e-09
456 -7.723640258865542e-10 -1.438145095726544e-09 2.3847940217621765e-09
455 -1.7784624848476425e-09 -1.7784562011151364e-09 6.789384478517841e-09
193 -7.733756030219852e-12 5.780440634891337e-09 5.620272143996399e-10
199 -1.230315577117416e-09 1.2303131642572991e-09 2.1559465234415056e-09
234 -3.5134735417612176e-09 -3.6768910012811067e-09 3.314142336763291e-10
236 -5.2437635061382074e-09 -3.160401283364898e-09 -7.72878648146481e-10
247 -1.3910101462091195e-09 -1.5723998461260396e-09 -1.5800687001765912e-09
248 -3.99957452778498e-09 3.999570250753648e-09 3.578074113662479e-09
429 -5.002757835396133e-10 5.002776976594937e-10 5.509495103106094e-09
457 1.5723969919077532e-09 1.3910125792107664e-09 -1.580068613520762e-09
458 -4.4023845676217715e-10 4.402411417115011e-10 3.309960645116386e-09
195 -1.0816965432289061e-09 1.0816995799908498e-09 8.779684660669097e-09
200 -4.309380802892799e-09 -3.767605760491866e-11 4.4764469802960856e-09
238 2.9796749685663735e-10 2.8229064075920157e-09 2.417494012284538e-09
240 -1.2506226515774665e-09 1.250623887388774e-09 7.380356233061807e-09
249 3.6768935785001974e-09 3.51347138081533e-09 3.3141329950298565e-10
250 2.5393592945712475e-09 1.2715864452954176e-09 5.38543488892817e-09
430 -5.780434445028733e-09 7.738209687903189e-12 5.620276047505187e-10
459 -1.5248205333615094e-09 5.0147244714781834e-09 -3.4422956608372477e-10
460 3.1604048926400657e-09 5.243766832123588e-09 -7.728797668637675e-10
251 -1.1359587826611457e-09 -5.775096407418107e-10 3.8555394013936737e-16
262 -2.357420482307916e-10 -4.5694659842779335e-09 -1.82658427705995e-15
263 -4.701966928803317e-09 -2.1771623215556847e-09 -4.860721264059949e-10
264 3.5611016094854167e-09 -3.993041953101967e-09 5.945803430489958e-10
265 -5.510341037839036e-10 -3.3344371883614508e-09 9.478170793195436e-16
268 -2.5393580158873015e-09 -1.2715803571558578e-09 -5.385430779151022e-09
311 -8.395301844820226e-10 1.8217018989852293e-09 4.2026526135394475e-09
312 -2.0486808985785702e-09 1.894952189675855e-09 1.5622896843888495e-09
313 7.549944502420351e-10 -2.083365172734534e-09 3.6194601313772447e-09
314 2.5289531016856264e-09 -2.6637873395072474e-09 4.5879888434211266e-09
315 1.5248184628828854e-09 -5.014727613779804e-09 3.442294821372992e-10
318 4.309381744563701e-09 3.767269688214802e-11 -4.476444359196016e-09
266 1.2544377558290344e-09 -3.593151907352621e-09 5.33732029387987e-16
267 -3.1604015731234192e-09 -5.243768447715303e-09 7.728812222316339e-10
269 8.858786985104991e-10 -4.397347548367325e-09 1.0697173082560363e-15
272 3.999570594495406e-09 -3.999572083184194e-09 -3.5780759928631767e-09
316 -3.676890825924074e-09 -3.513472328810321e-09 -3.3141311759407957e-10
317 5.780438356467299e-09 -7.735020323350154e-12 -5.620283081016412e-10
319 -1.5724032950585794e-09 -1.3910155506710363e-09 1.5800688180013956e-09
322 1.2303131929219644e-09 -1.2303138334302342e-09 -2.155949841124166e-09
270 4.3973486233353845e-09 -8.858785122590519e-10 1.776389748621559e-16
271 4.402403988231112e-10 -4.402405512383401e-10 -3.3099647243130495e-09
320 1.3910120830843372e-09 1.5724035331729727e-09 1.5800698702548493e-09
321 5.002771505309359e-10 -5.002775765122003e-10 -5.5094918600828175e-09
273 2.2387143072656536e-09 2.2387109545241174e-09 -2.2545611429611527e-16
274 6.386606588119181e-10 6.386614764566049e-10 7.71168778913331e-16
275 7.723641639456619e-10 1.4381464176005044e-09 -2.384796829379796e-09
276 1.4381466920765062e-09 7.723643184220754e-10 -2.384799117310207e-09
323 1.778459070084946e-09 1.778455896509535e-09 -6.789386728282046e-09
324 4.918094905507811e-09 4.918090898857817e-09 7.760304423081247e-09
325 -4.3760610916286085e-10 8.877596056830384e-10 -3.5476650239318026e-10
326 8.877584237600691e-10 -4.376101499559087e-10 -3.5476356710241527e-10
261 1.1359603560570073e-09 5.775127803381258e-10 9.372018793745431e-16
277 4.891012865811876e-09 5.4174688646999974e-09 -9.22811063568408e-16
278 -1.4232738870563075e-09 -1.5398753611963113e-09 -1.1512652644908015e-15
279 4.651800470550583e-09 3.2236772587249916e-09 1.998560509524552e-09
280 4.3405415586521356e-09 2.9052520845228063e-09 -6.287293010428123e-10
327 2.8991870991110514e-09 -1.1564540629085868e-09 4.380115100036174e-09
328 4.338309870811472e-09 -4.1367877229491957e-10 3.2642227154843117e-09
329 -2.563490316094867e-09 -1.4480599842117871e-09 3.6330550601171348e-09
330 -4.7335064151574406e-09 3.4512703731912785e-09 2.4226371259332646e-09
281 6.105388991259898e-11 -1.0395925391118261e-08 -2.0051203356548126e-15
282 4.0040252779629555e-10 -6.0082257241896165e-09 -4.53310697893253e-16
283 3.5375359170697336e-09 -5.14678851068579e-09 1.8897727428898746e-09
284 -2.652948421685935e-09 3.653061851017636e-09 -4.467052420837754e-10
285 1.188531399107865e-09 -6.4614782912818466e-09 1.314028576725229e-15
288 1.687938647899218e-09 -1.687937068613756e-09 4.293773326919588e-09
331 2.4411990030002857e-09 1.924671218342939e-09 -2.11948297361621e-10
332 5.558074001943546e-09 -1.4520495141006824e-09 -8.897597330306394e-09
333 -1.221850210899558e-09 -1.498084018958958e-09 -9.989744328373019e-10
334 3.828378991120737e-09 -1.0925343784411376e-09 1.899249249799484e-09
335 -2.979728259743536e-10 -2.822908272702328e-09 -2.4174980557735215e-09
338 -2.0996558153057494e-09 2.0996520627892708e-09 -6.270117308189525e-09
341 7.735713054071264e-12 -5.780438848275302e-09 -5.620281678520857e-10
340 5.014728933124402e-09 -1.524817780668859e-09 3.4422857384353323e-10
291 5.243765736025174e-09 3.1604031836651054e-09 7.728812544314347e-10
286 6.4614779049034324e-09 -1.1885307257376088e-09 4.557091671942756e-17
287 1.2506239406751706e-09 -1.2506235275340575e-09 -7.3803596200699504e-09
289 3.5931503356810894e-09 -1.2544367648606875e-09 4.2932190593646866e-16
292 1.271585661577421e-09 2.5393605601385646e-09 -5.385434333982335e-09
336 2.82290394872282e-09 2.979738353621953e-10 -2.417498631792626e-09
337 1.0817008188105232e-09 -1.0816976379052856e-09 -8.779682711531589e-09
339 3.5134712961823992e-09 3.676886968496815e-09 -3.314131310807849e-10
342 -3.767329067077127e-11 -4.309381660045766e-09 -4.476439819815892e-09
290 3.334432611455471e-09 5.510349096695888e-10 -1.5662004535676944e-15
346 -1.448056674923769e-09 -2.5634908269688285e-09 3.6330532396789356e-09
345 3.4512691431091276e-09 -4.733504704537632e-09 2.4226367321902145e-09
344 -4.1368294516273455e-10 4.338308765668726e-09 3.264222364633224e-09
343 -1.1564522947829e-09 2.8991947469395956e-09 4.3801135009457735e-09
296 3.223682170932998e-09 4.65179474225637e-09 1.9985610515786143e-09
295 2.905250424280807e-09 4.340542839611583e-09 -6.287280772213662e-10
294 -1.5398755451359525e-09 -1.4232696190777376e-09 2.419772111855315e-16
293 5.417469681586187e-09 4.8910121480230924e-09 -8.142791565695513e-16
13 5.775134093566091e-10 1.135960051451406e-09 -5.684372243423332e-16
350 5.962407288136601e-09 2.4000500427958254e-09 -1.1094092167983582e-09
349 2.400049105593946e-09 5.962403517143243e-09 -1.1094090442584729e-09
348 -4.407736726211916e-09 -4.407732725265313e-09 -3.18136518121999e-10
347 3.4105219593088455e-09 3.4105220038304316e-09 7.92524047777518e-09
300 2.293718748244894e-09 -2.724039165695534e-09 3.939182123752306e-09
299 -2.7240395650406725e-09 2.293718305727308e-09 3.939182028862864e-09
298 3.6612431857039283e-09 3.661243604236821e-09 -8.05885685143561e-16
297 1.1626409909217833e-09 1.162639386795534e-09 5.183691776834885e-16
361 -1.1704428254044522e-10 -4.0303257410527037e-10 5.158234689903924e-09
362 2.243689241390013e-09 -7.666718408514579e-10 5.142036032659082e-09
363 2.4329464433696305e-09 2.3482020081222664e-09 -1.7237499057786101e-15
364 1.6558104518211269e-09 1.703696941945595e-09 -1.0355391207164656e-15
365 2.698784939527309e-09 1.732507684904054e-09 1.9479228596749358e-09
368 4.426354080726451e-09 1.0424520542765942e-09 -3.8496603408999564e-16
406 -1.1704766678062896e-10 -4.030331905118807e-10 -5.158233188462142e-09
407 2.2436893037502147e-09 -7.666703235198163e-10 -5.142036165774128e-09
408 2.6987885849195763e-09 1.7325081212697069e-09 -1.9479231652736532e-09
366 6.074761011955421e-09 2.6225449523277216e-10 -3.6666261749144842e-09
367 -1.8009351096495768e-09 1.6959280936112232e-09 1.9427601338282275e-16
369 2.6104322149347728e-09 -2.2611978466283015e-09 -8.240751726439625e-10
372 -1.3874090983179518e-09 1.3874096535483703e-09 2.111982214712625e-16
409 6.074759941359766e-09 2.62253737316473e-10 3.666626247243324e-09
410 2.6104323645902393e-09 -2.261195995010001e-09 8.240742858099384e-10
370 2.2611990652006106e-09 -2.610433627354463e-09 -8.240726819834977e-10
371 6.238806041583608e-09 -6.238806306958778e-09 -8.913311539924876e-16
411 2.2611929468089955e-09 -2.610432720733067e-09 8.240743211873606e-10
373 -3.567587695899674e-09 -3.5675867274942716e-09 4.902047010040031e-09
374 -3.860734306913917e-09 -3.86073609287412e-09 2.215237999448624e-09
375 -6.095713874963394e-09 -1.6377056813054683e-09 -1.7328495671403996e-15
376 -1.637705501287055e-09 -6.0957129424975545e-09 -1.1168669049646134e-15
412 -3.567582966544503e-09 -3.5675868953871226e-09 -4.902047284065149e-09
413 -3.860738307821433e-09 -3.860732370449765e-09 -2.215234924086315e-09
377 -5.010679980665255e-09 -3.236289141842905e-10 1.2570951560362674e-10
378 -3.4881281816014244e-10 1.4862604393970731e-09 4.12975130462925e-09
379 4.272423490685805e-09 -5.212493723482135e-10 7.195407903067509e-17
380 -4.161208678166062e-09 1.892956222798479e-09 3.422315883896484e-15
414 -5.010676975383221e-09 -3.2362951882341083e-10 -1.2570919660720969e-10
415 -3.4881513957861714e-10 1.4862620648097375e-09 -4.129750619866265e-09
381 3.034601843929107e-09 4.3606168241272814e-09 1.1408429487947303e-09
382 -1.4516930439992872e-09 3.62087455759287e-09 -4.448967511695624e-09
383 4.477502775839188e-09 4.120631309794249e-09 -4.077368533548545e-16
384 1.7266011245357095e-09 2.1066172532967617e-09 8.046864504930497e-16
385 1.4254357380292395e-09 2.7599434600217784e-09 2.606940860997562e-09
388 1.9803657713719827e-09 -1.9803634728215308e-09 2.2566398944305446e-16
416 3.0346029808035554e-09 4.360616833046589e-09 -1.1408401111057385e-09
417 -1.451694962774728e-09 3.6208735502357635e-09 4.448965397145126e-09
418 1.4254378095103487e-09 2.7599434240920793e-09 -2.606938923852985e-09
421 -1.7325071733465935e-09 -2.6987852243174317e-09 -1.9479242127219705e-09
391 -1.6959280707546921e-09 1.8009327569034392e-09 -4.874888854328237e-16
390 -1.7325112029338535e-09 -2.698785189239818e-09 1.9479223952818577e-09
386 -2.75994326065771e-09 -1.4254357930816052e-09 2.6069413286334923e-09
387 3.1330972837740907e-09 -3.1330951807074407e-09 6.313999713131448e-16
389 -2.6225562731736736e-10 -6.074757280621126e-09 -3.666625619997928e-09
392 -1.04245137867534e-09 -4.426355077412243e-09 4.653030443983656e-16
419 -2.7599438209541333e-09 -1.425438841161326e-09 -2.606942282324848e-09
420 -2.622555501917942e-10 -6.074757767154371e-09 3.666626008412933e-09
423 1.48625242705563e-09 -3.4880532421776354e-10 -4.129756310834299e-09
422 -3.2362484566159243e-10 -5.010678901859997e-09 -1.257096363761593e-10
396 -5.212435385690752e-10 4.272427287462709e-09 1.240008628628634e-15
395 1.8929526234783712e-09 -4.161212034249886e-09 -9.377681195635296e-16
394 1.4862579961063769e-09 -3.488114298961301e-10 4.129755224927323e-09
393 -3.236256672104972e-10 -5.01067938985481e-09 1.2571065039463944e-10
425 5.073383196880648e-09 5.073384070223282e-09 -2.4852753588458894e-09
424 4.2390936792140893e-10 4.238970327436981e-10 -4.4430763551216046e-09
400 3.929967991995325e-09 -2.8562465837490075e-09 -1.9622476968990353e-16
399 -2.856251997693837e-09 3.929968069945578e-09 9.569892511079787e-16
398 5.073383549755444e-09 5.073383918370195e-09 2.485268582870305e-09
397 4.239038099185168e-10 4.239036306329365e-10 4.443072494185647e-09
431 7.549910779941979e-10 -2.0833661519096263e-09 -3.6194544398095932e-09
432 2.5289551757619546e-09 -2.6637893302367673e-09 -4.587988741486181e-09
434 4.3093847275849424e-09 3.7672816220049276e-11 4.4764410968672865e-09
461 -8.395227348363735e-10 1.8217081242123e-09 -4.202661203057632e-09
462 -2.0486854268886106e-09 1.8949474619930543e-09 -1.5622874696273066e-09
463 -4.701963698065169e-09 -2.1771516615588765e-09 4.860697312345891e-10
464 3.5611044055010044e-09 -3.993041876350949e-09 -5.94578146051116e-10
465 1.5248155854786148e-09 -5.01472676492369e-09 -3.4422779167142507e-10
468 -2.5393593126159813e-09 -1.2715866105725551e-09 5.385430413499224e-09
433 5.780437165346219e-09 -7.73416646827899e-12 5.620258400767305e-10
436 1.230315896563546e-09 -1.230315027867946e-09 2.1559462351005244e-09
466 -3.6768923047513097e-09 -3.5134684528839302e-09 3.3141492956268433e-10
467 -3.1603995725259783e-09 -5.243763625484526e-09 -7.728831864813734e-10
469 -1.5723988274010906e-09 -1.3910163037903968e-09 -1.580066267229294e-09
472 3.99956986659862e-09 -3.999573694955565e-09 3.5780753194179684e-09
435 5.002762641887854e-10 -5.002762525571461e-10 5.509496081088979e-09
470 1.3910128958490793e-09 1.572398309306835e-09 -1.5800687112695117e-09
471 4.402400159229462e-10 -4.4023995881642273e-10 3.3099603426094453e-09
437 -4.376124121012739e-10 8.877612078851253e-10 3.5476524464613665e-10
438 8.877657770599061e-10 -4.376095167600132e-10 3.5476562866173166e-10
473 1.7784582332463587e-09 1.7784580839135377e-09 6.789384121745533e-09
474 4.918089460235318e-09 4.91809226636457e-09 -7.760307462943166e-09
475 7.723634567087381e-10 1.438146446378037e-09 2.3847996418881245e-09
476 1.4381477466880252e-09 7.723656663618225e-10 2.3847987091956646e-09
439 -2.5634913378427895e-09 -1.4480602792235112e-09 -3.6330570358562217e-09
440 -4.733505813741263e-09 3.4512717583073e-09 -2.4226368861375345e-09
477 2.899193856273642e-09 -1.1564537565041336e-09 -4.380112190243199e-09
478 4.338307000743145e-09 -4.136797118203161e-10 -3.2642214826710908e-09
479 4.651792593977398e-09 3.223679203883595e-09 -1.9985589493202716e-09
480 4.340547763492218e-09 2.9052508589049934e-09 6.287278199880189e-10
441 -1.221855669815687e-09 -1.4980839530010523e-09 9.989712389006667e-10
442 3.828384663500634e-09 -1.0925352203038622e-09 -1.8992464058145107e-09
444 -2.09965158787244e-09 2.0996542418817806e-09 6.2701174586513136e-09
481 2.4411991780885447e-09 1.924675821904954e-09 2.119478488478617e-10
482 5.558069521602891e-09 -1.4520481691590219e-09 8.897596308558472e-09
483 3.5375324344923085e-09 -5.1467882032320064e-09 -1.8897711746657125e-09
484 -2.6529460319110853e-09 3.6530588193524395e-09 4.467066877611466e-10
485 -2.979642475678279e-10 -2.822907095379932e-09 2.417500026929236e-09
488 1.6879403689040006e-09 -1.6879372559625495e-09 -4.293773460665872e-09
491 5.243766849546678e-09 3.160404198236358e-09 -7.728804171341176e-10
490 5.014727258366588e-09 -1.5248193677054291e-09 -3.442287170255922e-10
445 7.734227954203192e-12 -5.780438422106658e-09 5.620276586065775e-10
443 1.0816975667732832e-09 -1.081696804259192e-09 8.779684896411812e-09
446 -3.7674789479157905e-11 -4.309385633819866e-09 4.476441185149226e-09
486 2.822903289066628e-09 2.9796810846630914e-10 2.4174992049705748e-09
487 1.2506234656396168e-09 -1.2506227446680562e-09 7.380354603796133e-09
489 3.5134704316505284e-09 3.6768921036570647e-09 3.314133049771545e-10
492 1.2715854810460537e-09 2.5393600202581154e-09 5.3854342287494945e-09
496 3.223678731553346e-09 4.651793847702273e-09 -1.998559284206548e-09
495 2.9052465511979145e-09 4.340542772631282e-09 6.287272018602046e-10
494 -4.1367849945029857e-10 4.338309122188359e-09 -3.264223219461502e-09
493 -1.1564538234150296e-09 2.899189599665202e-09 -4.380111358268305e-09
448 -1.4480568333270813e-09 -2.563484849386641e-09 -3.6330583210844286e-09
447 3.4512692470607543e-09 -4.733511235347024e-09 -2.4226352921488222e-09
500 2.29371878062423e-09 -2.7240388071243735e-09 -3.939180877747504e-09
499 -2.7240400207498398e-09 2.2937182529609837e-09 -3.9391814815621505e-09
498 -4.407736918689077e-09 -4.407741050052449e-09 3.1813689198340127e-10
497 3.410523046415056e-09 3.4105230507622817e-09 -7.925241909361543e-09
450 5.962403968655089e-09 2.4000508228979658e-09 1.1094151774740085e-09
449 2.400048522765906e-09 5.9624015599922935e-09 1.109408935727737e-09
